Name: Maleic anhydride
PrecursorMZ: 96.99091
PrecursorType: [M-H]-
IonMode: Negative
Formula: C4H2O3
SMILES: C1=CC(=O)OC1=O
InChI: 
InChIKey: FPYJFEHAWHCUMM-UHFFFAOYSA-N
RetentionTime: 5.043483
CCS: 
CollisionEnergy: 20-40 eV
InstrumentType: UPLC-QTOF-MS
Comment: PI: Cristina Nerin; Data collector: QiZhi Su, GUIA, University of Zaragoza, Spain; Collision energy: 20-40 V; Instrument: Waters HPLC-QTOF-MS (Xevo G2 QTof); Ionization: ESI; Deconvoluted by MS-DIAL; Column: Waters AtlantisTM premier BEH C18 AX column (2.1 × 100mm x 1.7μm); Flow rate: 0.3mL/min; Mobile phase A and B are water and methnaol, respectively, both with 0.1% formic acid; Gradient elution: from A/B (95/5) to A/B (100/0) in 7min, kept for 4 min, then back to A/B (95/5) in 0.1 min, and maintained for additional 1.9 min (13min in total).; Injection volume: 10 μL
Num peaks: 14
57.03098 20
63.9588 22
75.44162 49
75.78511 33
79.95173 24
81.03896 67
83.00648 34
83.02368 23
83.05077 21
85.0267 80
86.97644 29
95.00608 59
96.95852 23
96.99126 473
Name: Medroxyprogesterone 17-acetate
PrecursorMZ: 817.4941
PrecursorType: [2M+FA-H]-
IonMode: Negative
Formula: C24H34O4
SMILES: CC1CC2C(CCC3(C2CCC3(C(=O)C)OC(=O)C)C)C4(C1=CC(=O)CC4)C
InChI: 
InChIKey: PSGAAPLEWMOORI-PEINSRQWSA-N
RetentionTime: 7.379617
CCS: 
CollisionEnergy: 20-40 eV
InstrumentType: UPLC-QTOF-MS
Comment: PI: Cristina Nerin; Data collector: QiZhi Su, GUIA, University of Zaragoza, Spain; Collision energy: 20-40 V; Instrument: Waters HPLC-QTOF-MS (Xevo G2 QTof); Ionization: ESI; Deconvoluted by MS-DIAL; Column: Waters AtlantisTM premier BEH C18 AX column (2.1 × 100mm x 1.7μm); Flow rate: 0.3mL/min; Mobile phase A and B are water and methnaol, respectively, both with 0.1% formic acid; Gradient elution: from A/B (95/5) to A/B (100/0) in 7min, kept for 4 min, then back to A/B (95/5) in 0.1 min, and maintained for additional 1.9 min (13min in total).; Injection volume: 10 μL
Num peaks: 16
90.99969 148
91.00533 138
170.0312 259
266.11829 250
266.14264 223
312.11374 135
312.13705 324
377.25049 168
377.26944 341
377.29263 108
391.28537 124
431.24011 9684
431.28986 117
432.24805 2199
433.24774 363
817.48389 2076
Name: Medroxyprogesterone 17-acetate
PrecursorMZ: 431.2414
PrecursorType: [M+FA-H]-
IonMode: Negative
Formula: C24H34O4
SMILES: CC1CC2C(CCC3(C2CCC3(C(=O)C)OC(=O)C)C)C4(C1=CC(=O)CC4)C
InChI: 
InChIKey: PSGAAPLEWMOORI-PEINSRQWSA-N
RetentionTime: 7.387233
CCS: 
CollisionEnergy: 20-40 eV
InstrumentType: UPLC-QTOF-MS
Comment: PI: Cristina Nerin; Data collector: QiZhi Su, GUIA, University of Zaragoza, Spain; Collision energy: 20-40 V; Instrument: Waters HPLC-QTOF-MS (Xevo G2 QTof); Ionization: ESI; Deconvoluted by MS-DIAL; Column: Waters AtlantisTM premier BEH C18 AX column (2.1 × 100mm x 1.7μm); Flow rate: 0.3mL/min; Mobile phase A and B are water and methnaol, respectively, both with 0.1% formic acid; Gradient elution: from A/B (95/5) to A/B (100/0) in 7min, kept for 4 min, then back to A/B (95/5) in 0.1 min, and maintained for additional 1.9 min (13min in total).; Injection volume: 10 μL
Num peaks: 9
91.00599 143
170.02551 283
312.12521 288
363.15552 91
377.25998 346
377.2785 343
386.80194 96
391.29025 115
431.24356 7168
Name: Arbutin
PrecursorMZ: 543.1709
PrecursorType: [2M-H]-
IonMode: Negative
Formula: C12H16O7
SMILES: C1=CC(=CC=C1O)OC2C(C(C(C(O2)CO)O)O)O
InChI: 
InChIKey: BJRNKVDFDLYUGJ-RMPHRYRLSA-N
RetentionTime: 0.8747166
CCS: 
CollisionEnergy: 20-40 eV
InstrumentType: UPLC-QTOF-MS
Comment: PI: Cristina Nerin; Data collector: QiZhi Su, GUIA, University of Zaragoza, Spain; Collision energy: 20-40 V; Instrument: Waters HPLC-QTOF-MS (Xevo G2 QTof); Ionization: ESI; Deconvoluted by MS-DIAL; Column: Waters AtlantisTM premier BEH C18 AX column (2.1 × 100mm x 1.7μm); Flow rate: 0.3mL/min; Mobile phase A and B are water and methnaol, respectively, both with 0.1% formic acid; Gradient elution: from A/B (95/5) to A/B (100/0) in 7min, kept for 4 min, then back to A/B (95/5) in 0.1 min, and maintained for additional 1.9 min (13min in total).; Injection volume: 10 μL
Num peaks: 52
71.01307 526
71.0196 526
73.02943 211
85.02811 306
96.95853 354
96.97162 376
101.00655 463
101.02458 697
101.0288 690
101.03563 697
108.02123 13548
109.02731 2709
110.02054 204
110.03436 227
113.00471 294
113.02515 573
113.03963 540
121.03007 149
123.03912 228
123.04546 228
123.05333 226
133.01976 144
133.02895 147
133.03528 141
143.01877 137
143.03055 157
143.03748 157
151.03648 647
151.04968 624
159.02589 317
159.03238 317
159.04007 318
161.04489 2215
162.04619 160
162.05409 158
163.03369 274
163.04237 313
163.0565 280
271.08112 3657
272.07031 341
272.08389 420
272.10104 335
297.07019 224
297.08286 269
297.10068 137
331.08411 187
331.09598 196
440.12164 151
440.14133 141
441.11591 845
441.13873 555
543.1748 4325
Name: "2-(2H-Benzotriazol-2-yl)-4,6-bis(1-methyl-1-phenylethyl)phenol"
PrecursorMZ: 446.2233
PrecursorType: [M-H]-
IonMode: Negative
Formula: C30H29N3O
SMILES: CC(C)(C1=CC=CC=C1)C2=CC(=C(C(=C2)N3N=C4C=CC=CC4=N3)O)C(C)(C)C5=CC=CC=C5
InChI: 
InChIKey: OLFNXLXEGXRUOI-UHFFFAOYSA-N
RetentionTime: 9.14805
CCS: 
CollisionEnergy: 20-40 eV
InstrumentType: UPLC-QTOF-MS
Comment: PI: Cristina Nerin; Data collector: QiZhi Su, GUIA, University of Zaragoza, Spain; Collision energy: 20-40 V; Instrument: Waters HPLC-QTOF-MS (Xevo G2 QTof); Ionization: ESI; Deconvoluted by MS-DIAL; Column: Waters AtlantisTM premier BEH C18 AX column (2.1 × 100mm x 1.7μm); Flow rate: 0.3mL/min; Mobile phase A and B are water and methnaol, respectively, both with 0.1% formic acid; Gradient elution: from A/B (95/5) to A/B (100/0) in 7min, kept for 4 min, then back to A/B (95/5) in 0.1 min, and maintained for additional 1.9 min (13min in total).; Injection volume: 10 μL
Num peaks: 71
96.96001 627
96.9716 49
100.04095 38
108.11062 43
109.01728 44
109.02695 37
118.99166 691
121.02431 54
137.04562 46
152.99243 53
153.00159 44
164.9369 34
168.98804 3380
169.98854 87
169.9971 82
183.00963 814
183.0255 118
184.01161 151
184.02805 74
185.00909 93
185.01527 51
189.11423 41
194.06911 41
195.0457 103
197.01822 96
197.04356 55
198.03923 44
218.98601 459
255.1246 87
264.48428 39
265.13806 49
265.2453 49
267.1644 40
268.97092 125
268.98837 352
269.01703 49
279.229 39
287.13516 39
295.12509 45
311.15948 120
311.17334 250
311.22702 41
316.9313 36
318.98477 584
321.22574 50
325.17612 419
325.20007 216
325.21109 84
326.19284 126
327.177 72
333.19434 42
337.20227 110
339.14877 36
339.18579 90
339.20093 289
339.21927 139
339.24136 39
340.19168 94
341.18881 70
350.02063 57
368.97226 63
418.9444 41
422.95432 46
430.17874 58
430.19583 53
430.95233 43
430.9664 45
431.20273 46
431.22018 36
446.21988 2354
446.28018 81
Name: Arbutin
PrecursorMZ: 543.17
PrecursorType: [2M-H]-
IonMode: Negative
Formula: C12H16O7
SMILES: C1=CC(=CC=C1O)OC2C(C(C(C(O2)CO)O)O)O
InChI: 
InChIKey: BJRNKVDFDLYUGJ-RMPHRYRLSA-N
RetentionTime: 0.94325
CCS: 
CollisionEnergy: 20-40 eV
InstrumentType: UPLC-QTOF-MS
Comment: PI: Cristina Nerin; Data collector: QiZhi Su, GUIA, University of Zaragoza, Spain; Collision energy: 20-40 V; Instrument: Waters HPLC-QTOF-MS (Xevo G2 QTof); Ionization: ESI; Deconvoluted by MS-DIAL; Column: Waters AtlantisTM premier BEH C18 AX column (2.1 × 100mm x 1.7μm); Flow rate: 0.3mL/min; Mobile phase A and B are water and methnaol, respectively, both with 0.1% formic acid; Gradient elution: from A/B (95/5) to A/B (100/0) in 7min, kept for 4 min, then back to A/B (95/5) in 0.1 min, and maintained for additional 1.9 min (13min in total).; Injection volume: 10 μL
Num peaks: 41
71.00347 370
71.01171 373
71.02109 373
73.0264 208
73.03389 208
85.02734 194
85.03568 192
96.95421 233
96.9631 238
96.96923 239
101.02042 472
101.02531 472
108.02076 10281
109.02369 2186
109.03125 2190
110.01845 134
110.02579 138
110.03564 148
113.02449 418
113.03365 414
123.04288 125
123.05663 123
143.03024 119
151.01697 175
151.03345 463
151.04201 466
151.0493 463
159.03113 159
161.0434 1554
161.05336 1589
162.04166 132
162.05849 155
163.03702 177
163.04762 190
271.0806 2748
271.1001 2329
272.06396 212
272.08386 277
369.06329 137
543.16577 3380
543.20428 306
Name: Ethylene dioleamide
PrecursorMZ: 633.559
PrecursorType: [M+FA-H]-
IonMode: Negative
Formula: C38H72N2O2
SMILES: CCCCCCCCC=CCCCCCCCC(=O)NCCNC(=O)CCCCCCCC=CCCCCCCCC
InChI: 
InChIKey: OXDXXMDEEFOVHR-CLFAGFIQSA-N
RetentionTime: 11.02263
CCS: 
CollisionEnergy: 20-40 eV
InstrumentType: UPLC-QTOF-MS
Comment: PI: Cristina Nerin; Data collector: QiZhi Su, GUIA, University of Zaragoza, Spain; Collision energy: 20-40 V; Instrument: Waters HPLC-QTOF-MS (Xevo G2 QTof); Ionization: ESI; Deconvoluted by MS-DIAL; Column: Waters AtlantisTM premier BEH C18 AX column (2.1 × 100mm x 1.7μm); Flow rate: 0.3mL/min; Mobile phase A and B are water and methnaol, respectively, both with 0.1% formic acid; Gradient elution: from A/B (95/5) to A/B (100/0) in 7min, kept for 4 min, then back to A/B (95/5) in 0.1 min, and maintained for additional 1.9 min (13min in total).; Injection volume: 10 μL
Num peaks: 53
89.02087 118
89.02747 120
96.95839 339
96.96756 119
117.05379 150
118.99265 639
149.1049 180
168.98312 1598
168.99199 2562
173.11577 200
183.01125 839
183.02271 273
185.07649 185
218.98083 884
218.99396 514
268.97821 707
268.99231 591
269.00174 178
293.18384 221
309.16922 140
311.15161 142
311.17047 212
318.97583 774
323.30563 3272
324.3103 574
325.17075 367
325.18622 529
325.21146 229
337.19562 178
339.19916 980
340.19308 121
340.20505 174
355.31473 254
355.33981 224
368.97742 379
368.99814 151
568.96301 6773
568.98596 1810
569.0282 296
569.97211 814
587.55292 11468
587.6178 400
588.55884 4274
589.53485 204
589.55914 248
589.58435 263
612.94379 784
612.9859 180
613.96069 154
627.51453 125
633.56219 7494
633.6156 416
633.64929 157
Name: Irganox 1076
PrecursorMZ: 529.463
PrecursorType: [M-H]-
IonMode: Negative
Formula: C35H62O3
SMILES: CCCCCCCCCCCCCCCCCCOC(=O)CCC1=CC(=C(C(=C1)C(C)(C)C)O)C(C)(C)C
InChI: 
InChIKey: SSDSCDGVMJFTEQ-UHFFFAOYSA-N
RetentionTime: 11.54468
CCS: 
CollisionEnergy: 20-40 eV
InstrumentType: UPLC-QTOF-MS
Comment: PI: Cristina Nerin; Data collector: QiZhi Su, GUIA, University of Zaragoza, Spain; Collision energy: 20-40 V; Instrument: Waters HPLC-QTOF-MS (Xevo G2 QTof); Ionization: ESI; Deconvoluted by MS-DIAL; Column: Waters AtlantisTM premier BEH C18 AX column (2.1 × 100mm x 1.7μm); Flow rate: 0.3mL/min; Mobile phase A and B are water and methnaol, respectively, both with 0.1% formic acid; Gradient elution: from A/B (95/5) to A/B (100/0) in 7min, kept for 4 min, then back to A/B (95/5) in 0.1 min, and maintained for additional 1.9 min (13min in total).; Injection volume: 10 μL
Num peaks: 145
58.31129 48
70.98333 49
71.05167 40
79.9588 40
80.98235 53
85.06342 50
86.93341 50
86.97213 80
96.9592 1475
97.06991 46
98.9649 48
99.00543 55
100.93188 53
106.40195 54
109.0275 89
113.98827 39
118.9909 877
118.99887 167
119.04358 66
119.05333 54
119.99631 39
122.03387 120
130.94383 118
134.03525 43
134.97661 39
137.09132 62
149.09248 51
152.99651 100
157.00546 63
165.03453 48
165.04379 68
168.98845 3837
169.01384 55
169.99596 95
170.00407 158
170.96584 51
174.95203 267
174.96228 113
178.06099 50
178.83855 39
182.95454 55
183.00526 1032
183.01366 3215
183.03639 60
184.01738 489
184.03229 162
185.01091 106
187.03008 41
190.92326 63
191.07935 40
193.10258 86
197.01804 41
197.03221 188
198.02672 44
198.0459 62
218.51262 55
218.98225 412
218.99548 269
219.01297 88
220.02242 47
221.10686 55
230.98332 94
235.13675 41
238.13658 40
239.06931 44
241.22429 78
246.12622 45
254.22803 117
261.2316 39
263.1723 47
264.9512 41
265.15424 66
268.97733 494
268.98917 263
269.98456 42
275.17029 57
293.181 60
296.23361 41
297.16916 56
297.29218 71
298.23984 44
298.72314 49
303.15421 46
304.91727 74
309.16953 65
309.31906 73
310.36111 45
310.98154 49
311.099 49
311.16345 296
311.17682 237
311.1954 47
312.16623 71
312.18246 68
313.14023 39
318.97678 313
318.99628 153
319.98111 54
321.19913 121
325.18195 1836
325.21841 79
326.17743 123
326.18951 161
326.34018 55
327.19028 62
337.1817 75
337.21606 173
339.1922 824
339.21094 977
340.19516 234
340.21909 117
341.19452 55
341.21683 42
352.26373 43
355.03333 54
355.33005 42
365.24942 54
368.957 84
371.20142 41
375.07993 40
381.23694 164
396.03668 60
397.22644 86
404.69064 55
409.25946 41
409.36923 46
411.28986 47
411.36624 43
430.93881 47
430.957 78
441.26495 94
442.97476 43
445.21768 75
456.18201 77
461.15503 39
462.24838 58
485.08542 42
496.97128 271
499.28415 52
510.45047 39
512.96179 59
529.4129 62
529.44177 434
529.45721 589
529.48193 642
Name: Irganox 1076
PrecursorMZ: 529.4626
PrecursorType: [M-H]-
IonMode: Negative
Formula: C35H62O3
SMILES: CCCCCCCCCCCCCCCCCCOC(=O)CCC1=CC(=C(C(=C1)C(C)(C)C)O)C(C)(C)C
InChI: 
InChIKey: SSDSCDGVMJFTEQ-UHFFFAOYSA-N
RetentionTime: 11.61702
CCS: 
CollisionEnergy: 20-40 eV
InstrumentType: UPLC-QTOF-MS
Comment: PI: Cristina Nerin; Data collector: QiZhi Su, GUIA, University of Zaragoza, Spain; Collision energy: 20-40 V; Instrument: Waters HPLC-QTOF-MS (Xevo G2 QTof); Ionization: ESI; Deconvoluted by MS-DIAL; Column: Waters AtlantisTM premier BEH C18 AX column (2.1 × 100mm x 1.7μm); Flow rate: 0.3mL/min; Mobile phase A and B are water and methnaol, respectively, both with 0.1% formic acid; Gradient elution: from A/B (95/5) to A/B (100/0) in 7min, kept for 4 min, then back to A/B (95/5) in 0.1 min, and maintained for additional 1.9 min (13min in total).; Injection volume: 10 μL
Num peaks: 148
68.99946 56
71.04551 50
85.03549 33
85.06977 34
86.9763 41
93.03328 52
96.9566 215
98.95206 32
101.02688 30
108.04546 40
115.0358 45
118.98502 241
118.99446 564
119.00451 76
123.04152 40
123.08647 33
125.0211 43
128.89755 70
130.95673 49
141.92702 38
146.9498 60
148.96997 60
149.09949 51
152.99893 116
155.08347 49
155.93834 29
156.00899 29
156.89568 28
159.10185 41
161.0565 28
165.10777 63
168.86314 28
168.98842 2745
168.99832 670
174.9622 77
176.90392 30
177.04712 32
181.1736 36
183.01013 756
183.02179 286
184.0146 209
184.02885 36
185.00612 47
185.02196 47
192.01894 32
192.07457 47
193.1357 43
195.13969 28
197.03218 86
198.9986 58
205.16591 29
205.7493 51
210.98766 35
211.04828 49
213.03152 41
215.11516 35
217.15254 57
218.98598 674
219.0013 155
225.07961 28
230.06717 39
230.22031 32
231.17488 49
235.05434 35
237.11674 31
243.05742 68
249.10419 30
253.054 34
255.12114 28
257.07242 54
258.02127 29
264.99982 28
265.13995 65
265.21051 32
267.27731 43
268.25806 33
268.98621 500
269.98254 37
275.05121 61
280.97812 46
285.08038 34
293.17548 51
293.19147 154
297.14957 56
297.28366 149
297.30688 68
298.28232 54
301.10379 44
302.9295 30
308.11353 38
308.26306 33
309.02939 30
310.16943 28
311.15213 92
311.16479 167
311.18097 34
312.15878 28
318.97397 227
319.22998 114
323.30951 43
323.9856 30
325.17691 282
325.19531 312
325.22 104
325.30283 74
325.32492 39
326.17538 57
326.18643 82
326.20407 76
327.07742 45
330.9584 45
337.18268 50
337.20215 71
337.2244 61
338.21423 82
339.18839 270
339.20575 252
339.61252 29
340.2272 62
341.2193 40
351.0665 40
367.22455 28
368.96564 425
369.9631 32
369.97455 41
372.90039 47
381.24088 49
385.20361 49
389.37375 30
391.31693 30
395.39603 34
397.2291 51
407.37567 46
408.98392 33
418.96466 41
421.17722 55
427.22986 28
439.21259 45
448.45889 30
448.52399 31
457.39047 60
482.24945 36
486.11493 55
517.19824 47
527.44043 115
529.44812 689
529.46631 1530
529.49023 361
Name: 12-Aminododecanoic acid
PrecursorMZ: 214.1808
PrecursorType: [M-H]-
IonMode: Negative
Formula: C12H25NO2
SMILES: C(CCCCCC(=O)O)CCCCCN
InChI: 
InChIKey: PBLZLIFKVPJDCO-UHFFFAOYSA-N
RetentionTime: 3.488733
CCS: 
CollisionEnergy: 20-40 eV
InstrumentType: UPLC-QTOF-MS
Comment: PI: Cristina Nerin; Data collector: QiZhi Su, GUIA, University of Zaragoza, Spain; Collision energy: 20-40 V; Instrument: Waters HPLC-QTOF-MS (Xevo G2 QTof); Ionization: ESI; Deconvoluted by MS-DIAL; Column: Waters AtlantisTM premier BEH C18 AX column (2.1 × 100mm x 1.7μm); Flow rate: 0.3mL/min; Mobile phase A and B are water and methnaol, respectively, both with 0.1% formic acid; Gradient elution: from A/B (95/5) to A/B (100/0) in 7min, kept for 4 min, then back to A/B (95/5) in 0.1 min, and maintained for additional 1.9 min (13min in total).; Injection volume: 10 μL
Num peaks: 12
73.03064 12
84.93768 31
99.92439 12
100.932 51
102.94187 13
113.03739 13
116.93211 94
121.02415 17
210.14763 16
214.17755 1154
214.19125 653
214.26057 23
Name: Terfenadine
PrecursorMZ: 516.3129
PrecursorType: [M+FA-H]-
IonMode: Negative
Formula: C32H41NO2
SMILES: CC(C)(C)C1=CC=C(C=C1)C(CCCN2CCC(CC2)C(C3=CC=CC=C3)(C4=CC=CC=C4)O)O
InChI: 
InChIKey: GUGOEEXESWIERI-UHFFFAOYSA-N
RetentionTime: 4.598017
CCS: 
CollisionEnergy: 20-40 eV
InstrumentType: UPLC-QTOF-MS
Comment: PI: Cristina Nerin; Data collector: QiZhi Su, GUIA, University of Zaragoza, Spain; Collision energy: 20-40 V; Instrument: Waters HPLC-QTOF-MS (Xevo G2 QTof); Ionization: ESI; Deconvoluted by MS-DIAL; Column: Waters AtlantisTM premier BEH C18 AX column (2.1 × 100mm x 1.7μm); Flow rate: 0.3mL/min; Mobile phase A and B are water and methnaol, respectively, both with 0.1% formic acid; Gradient elution: from A/B (95/5) to A/B (100/0) in 7min, kept for 4 min, then back to A/B (95/5) in 0.1 min, and maintained for additional 1.9 min (13min in total).; Injection volume: 10 μL
Num peaks: 2
470.31287 143
516.31232 11955
Name: Terfenadine
PrecursorMZ: 516.3129
PrecursorType: [M+FA-H]-
IonMode: Negative
Formula: C32H41NO2
SMILES: CC(C)(C)C1=CC=C(C=C1)C(CCCN2CCC(CC2)C(C3=CC=CC=C3)(C4=CC=CC=C4)O)O
InChI: 
InChIKey: GUGOEEXESWIERI-UHFFFAOYSA-N
RetentionTime: 4.7503
CCS: 
CollisionEnergy: 20-40 eV
InstrumentType: UPLC-QTOF-MS
Comment: PI: Cristina Nerin; Data collector: QiZhi Su, GUIA, University of Zaragoza, Spain; Collision energy: 20-40 V; Instrument: Waters HPLC-QTOF-MS (Xevo G2 QTof); Ionization: ESI; Deconvoluted by MS-DIAL; Column: Waters AtlantisTM premier BEH C18 AX column (2.1 × 100mm x 1.7μm); Flow rate: 0.3mL/min; Mobile phase A and B are water and methnaol, respectively, both with 0.1% formic acid; Gradient elution: from A/B (95/5) to A/B (100/0) in 7min, kept for 4 min, then back to A/B (95/5) in 0.1 min, and maintained for additional 1.9 min (13min in total).; Injection volume: 10 μL
Num peaks: 2
112.98701 226
516.31201 22241
Name: Benzoic acid
PrecursorMZ: 121.0291
PrecursorType: [M-H]-
IonMode: Negative
Formula: C7H6O2
SMILES: C1=CC=C(C=C1)C(=O)O
InChI: 
InChIKey: WPYMKLBDIGXBTP-UHFFFAOYSA-N
RetentionTime: 5.428417
CCS: 
CollisionEnergy: 20-40 eV
InstrumentType: UPLC-QTOF-MS
Comment: PI: Cristina Nerin; Data collector: QiZhi Su, GUIA, University of Zaragoza, Spain; Collision energy: 20-40 V; Instrument: Waters HPLC-QTOF-MS (Xevo G2 QTof); Ionization: ESI; Deconvoluted by MS-DIAL; Column: Waters AtlantisTM premier BEH C18 AX column (2.1 × 100mm x 1.7μm); Flow rate: 0.3mL/min; Mobile phase A and B are water and methnaol, respectively, both with 0.1% formic acid; Gradient elution: from A/B (95/5) to A/B (100/0) in 7min, kept for 4 min, then back to A/B (95/5) in 0.1 min, and maintained for additional 1.9 min (13min in total).; Injection volume: 10 μL
Num peaks: 9
96.95733 33
96.96243 37
99.00894 33
99.92013 47
99.92849 47
99.93475 46
119.05442 23
121.02909 2085
121.46037 25
Name: Corticosterone
PrecursorMZ: 345.2042
PrecursorType: [M-H]-
IonMode: Negative
Formula: C21H30O4
SMILES: CC12CCC(=O)C=C1CCC3C2C(CC4(C3CCC4C(=O)CO)C)O
InChI: 
InChIKey: OMFXVFTZEKFJBZ-HJTSIMOOSA-N
RetentionTime: 6.14895
CCS: 
CollisionEnergy: 20-40 eV
InstrumentType: UPLC-QTOF-MS
Comment: PI: Cristina Nerin; Data collector: QiZhi Su, GUIA, University of Zaragoza, Spain; Collision energy: 20-40 V; Instrument: Waters HPLC-QTOF-MS (Xevo G2 QTof); Ionization: ESI; Deconvoluted by MS-DIAL; Column: Waters AtlantisTM premier BEH C18 AX column (2.1 × 100mm x 1.7μm); Flow rate: 0.3mL/min; Mobile phase A and B are water and methnaol, respectively, both with 0.1% formic acid; Gradient elution: from A/B (95/5) to A/B (100/0) in 7min, kept for 4 min, then back to A/B (95/5) in 0.1 min, and maintained for additional 1.9 min (13min in total).; Injection volume: 10 μL
Num peaks: 418
49.87421 20
49.95745 20
50.01562 46
50.0257 33
50.78477 20
50.9165 19
50.98355 21
51.08221 20
51.43333 24
54.28434 26
55.2104 23
58.69263 20
59.01777 41
61.0874 25
64.97497 21
68.78619 23
69.03699 25
71.00861 60
73.00777 20
73.02576 106
73.03389 30
73.10814 26
74.03191 67
75.00616 19
79.98551 20
80.09856 20
80.17554 22
80.19859 28
80.26201 22
80.30617 20
80.32735 29
80.48947 42
80.49551 27
80.5675 21
80.61967 30
80.63202 25
80.97325 27
81.06741 42
81.93363 20
83.02518 44
83.04353 30
84.02341 30
85.02817 40
85.88455 20
86.74769 19
87.00723 21
89.02344 43
91.25809 26
91.92385 23
93.03341 41
95.46808 31
95.56235 23
96.95795 194
96.96605 85
97.06488 19
99.05148 25
100.19125 22
100.21333 37
100.936 20
103.0351 36
104.8235 30
109.02717 20
110.02901 55
110.97538 25
111.09507 27
112.97332 21
112.98242 302
112.99104 59
112.99886 25
113.00561 20
114.29961 20
115.02 21
115.04368 20
115.50423 26
116.05177 20
116.34992 21
116.44664 19
116.92761 38
116.93338 20
117.01496 27
117.06978 21
118.02009 19
118.99105 46
121.02782 174
121.04182 31
121.35279 20
122.03098 26
122.04011 33
123.01204 20
123.04288 20
123.07803 127
123.08478 52
123.20797 25
124.08825 24
125.05562 27
125.0991 30
125.11183 33
126.04316 40
126.9863 20
127.04751 32
127.06754 22
129.02473 22
129.06485 45
129.09691 82
130.05046 71
130.94135 31
131.00456 62
131.07263 25
132.01869 38
132.03157 34
132.08244 68
132.60655 22
134.03964 48
134.87532 20
135.08092 47
135.09547 27
136.116 27
137.0963 62
139.89594 41
142.96205 20
143.041 25
144.03125 26
145.01704 23
145.07874 58
145.09085 23
145.61288 30
147.03896 21
147.05014 82
147.0705 22
149.98169 21
150.99789 44
151.00565 45
151.06834 57
151.08299 30
152.07774 22
152.53813 88
152.99646 88
153.05345 71
157.09206 21
157.41692 20
157.60373 21
157.88042 22
158.35974 28
159.01221 20
159.03143 26
159.63246 20
160.26337 20
161.00928 63
161.05576 28
162.00516 25
162.07608 55
162.89288 21
163.0746 22
163.99477 28
164.08546 20
165.02626 40
167.05481 22
167.45659 20
168.10791 29
168.74281 27
168.98605 154
168.99435 120
169.00388 59
169.02155 21
169.08241 30
170.0791 21
171.01459 19
171.09366 22
171.11371 20
172.68912 20
173.04854 21
173.06311 27
173.09016 40
174.00655 62
174.0686 19
174.61597 21
174.94441 21
174.95888 78
175.01776 35
175.08238 97
175.10387 23
175.61534 28
175.97046 42
176.974 33
177.04868 44
177.09387 20
177.73195 87
178.00592 27
178.0688 19
178.09187 26
179.02859 26
179.12697 37
180.5202 20
181.08865 19
182.07301 38
182.83173 21
183.0009 44
183.00986 123
183.01987 70
184.01112 33
184.02156 128
184.03154 25
185.00337 33
185.02206 33
185.07597 22
185.09564 55
185.11084 20
185.12195 20
187.08058 20
187.09959 45
187.14191 19
187.96851 20
188.09431 50
188.54366 21
189.09392 25
189.104 50
189.71407 32
190.09087 46
191.08743 24
192.0177 24
192.04736 21
193.09856 51
194.71599 20
195.01173 21
195.13568 28
196.09163 41
197.04201 23
197.05682 19
197.15614 24
198.99911 28
199.13211 20
199.14209 20
199.16046 21
201.07906 23
201.10194 31
201.11043 43
201.58313 57
202.12657 30
203.10628 34
203.11719 21
205.05405 25
206.98668 20
207.06645 24
208.47305 26
209.02745 19
210.22787 23
210.53169 30
211.03339 66
212.04424 27
213.08536 24
213.15274 166
214.08037 23
214.19917 25
214.98572 28
216.14853 38
217.14262 30
217.15146 21
218.5997 21
218.89079 22
219.13213 54
220.04785 20
220.48415 21
221.07664 42
221.1161 30
221.571 22
223.02751 25
223.05367 20
223.07133 21
223.36787 20
224.03712 27
225.03651 19
227.13481 22
228.03882 19
229.14934 20
229.51381 22
230.0235 33
230.039 22
232.06967 26
232.14503 25
233.99736 51
236.60091 31
238.04231 21
238.72368 29
239.13327 39
239.16026 58
240.62511 41
241.15472 231
241.1651 209
241.18466 53
241.21574 31
242.15788 20
242.17337 70
243.12251 26
244.07954 25
245.1707 19
249.10635 20
250.15398 35
250.92714 24
252.05623 23
252.10201 22
252.96097 20
255.14795 20
255.23682 20
255.39398 28
257.14377 33
258.30515 23
259.14749 27
259.16071 39
259.99615 27
260.99899 125
261.01877 21
261.74945 28
264.06909 57
265.10406 19
265.12341 26
265.15543 25
265.68393 24
266.21225 20
267.12155 38
267.18216 50
267.20291 30
267.92487 19
268.01663 20
268.99088 55
269.19336 61
270.14285 20
273.16144 20
273.46899 58
275.56512 20
275.83606 33
276.14969 22
276.1991 20
277.13623 33
279.02509 22
279.06271 20
279.10767 33
279.12854 146
279.14569 26
279.23865 26
280.11401 24
280.12741 76
281.2117 22
281.36124 45
283.24506 20
287.06189 21
289.14185 20
291.0719 23
291.26297 28
292.00708 41
292.76462 21
293.08127 30
293.18686 25
294.19177 23
295.13339 19
295.20523 33
295.97931 21
296.13522 69
297.15173 41
297.18253 27
298.15356 26
299.01096 54
299.21243 30
300.07953 27
301.21429 51
303.05048 35
303.18338 21
304.14023 20
305.04697 20
305.32678 46
307.05157 21
307.10754 20
308.1026 36
309.06888 84
309.17825 29
309.19482 76
311.15842 60
311.17096 45
311.18121 27
311.21188 18
311.2225 33
312.16818 25
312.25153 36
319.99927 21
320.0488 28
321.11713 29
321.96484 32
321.98907 20
322.05334 34
323.13651 51
323.67282 29
325.18356 296
325.27084 33
326.08423 26
326.19595 89
326.21289 21
327.17889 60
327.19336 154
327.21173 97
327.2319 20
328.20389 77
330.11319 22
331.16974 54
331.1976 20
332.62775 33
335.75674 51
337.20642 58
338.20526 20
339.20673 249
339.22751 33
340.6123 21
342.05716 23
343.19235 20
345.00198 62
345.13577 24
345.15881 48
345.19891 533
345.21613 565
345.6394 23
Name: Corticosterone
PrecursorMZ: 391.2122
PrecursorType: [M+FA-H]-
IonMode: Negative
Formula: C21H30O4
SMILES: CC12CCC(=O)C=C1CCC3C2C(CC4(C3CCC4C(=O)CO)C)O
InChI: 
InChIKey: OMFXVFTZEKFJBZ-HJTSIMOOSA-N
RetentionTime: 6.14895
CCS: 
CollisionEnergy: 20-40 eV
InstrumentType: UPLC-QTOF-MS
Comment: PI: Cristina Nerin; Data collector: QiZhi Su, GUIA, University of Zaragoza, Spain; Collision energy: 20-40 V; Instrument: Waters HPLC-QTOF-MS (Xevo G2 QTof); Ionization: ESI; Deconvoluted by MS-DIAL; Column: Waters AtlantisTM premier BEH C18 AX column (2.1 × 100mm x 1.7μm); Flow rate: 0.3mL/min; Mobile phase A and B are water and methnaol, respectively, both with 0.1% formic acid; Gradient elution: from A/B (95/5) to A/B (100/0) in 7min, kept for 4 min, then back to A/B (95/5) in 0.1 min, and maintained for additional 1.9 min (13min in total).; Injection volume: 10 μL
Num peaks: 3
345.19891 1058
345.21613 974
391.21271 60178
Name: Corticosterone
PrecursorMZ: 737.4269
PrecursorType: [2M+FA-H]-
IonMode: Negative
Formula: C21H30O4
SMILES: CC12CCC(=O)C=C1CCC3C2C(CC4(C3CCC4C(=O)CO)C)O
InChI: 
InChIKey: OMFXVFTZEKFJBZ-HJTSIMOOSA-N
RetentionTime: 6.152767
CCS: 
CollisionEnergy: 20-40 eV
InstrumentType: UPLC-QTOF-MS
Comment: PI: Cristina Nerin; Data collector: QiZhi Su, GUIA, University of Zaragoza, Spain; Collision energy: 20-40 V; Instrument: Waters HPLC-QTOF-MS (Xevo G2 QTof); Ionization: ESI; Deconvoluted by MS-DIAL; Column: Waters AtlantisTM premier BEH C18 AX column (2.1 × 100mm x 1.7μm); Flow rate: 0.3mL/min; Mobile phase A and B are water and methnaol, respectively, both with 0.1% formic acid; Gradient elution: from A/B (95/5) to A/B (100/0) in 7min, kept for 4 min, then back to A/B (95/5) in 0.1 min, and maintained for additional 1.9 min (13min in total).; Injection volume: 10 μL
Num peaks: 8
345.19452 868
345.21173 1058
391.21222 56037
392.21472 9849
393.20273 821
393.21793 1086
393.23148 894
737.42639 15430
Name: Trolox
PrecursorMZ: 249.1133
PrecursorType: [M-H]-
IonMode: Negative
Formula: C14H18O4
SMILES: CC1=C(C2=C(CCC(O2)(C)C(=O)O)C(=C1O)C)C
InChI: 
InChIKey: GLEVLJDDWXEYCO-UHFFFAOYSA-N
RetentionTime: 6.571533
CCS: 
CollisionEnergy: 20-40 eV
InstrumentType: UPLC-QTOF-MS
Comment: PI: Cristina Nerin; Data collector: QiZhi Su, GUIA, University of Zaragoza, Spain; Collision energy: 20-40 V; Instrument: Waters HPLC-QTOF-MS (Xevo G2 QTof); Ionization: ESI; Deconvoluted by MS-DIAL; Column: Waters AtlantisTM premier BEH C18 AX column (2.1 × 100mm x 1.7μm); Flow rate: 0.3mL/min; Mobile phase A and B are water and methnaol, respectively, both with 0.1% formic acid; Gradient elution: from A/B (95/5) to A/B (100/0) in 7min, kept for 4 min, then back to A/B (95/5) in 0.1 min, and maintained for additional 1.9 min (13min in total).; Injection volume: 10 μL
Num peaks: 22
85.02882 5635
135.08215 1018
149.04135 1987
149.0594 1558
150.05055 1599
150.06784 1474
163.07639 32878
164.08205 3081
173.06108 857
173.07396 921
174.06496 1146
175.07294 1493
175.08327 1578
176.08411 26754
177.08476 3131
177.09358 3206
189.09206 4710
190.09973 9124
204.11533 6222
205.1234 83489
206.12781 8233
249.11317 36353
Name: Trolox
PrecursorMZ: 499.2326
PrecursorType: [2M-H]-
IonMode: Negative
Formula: C14H18O4
SMILES: CC1=C(C2=C(CCC(O2)(C)C(=O)O)C(=C1O)C)C
InChI: 
InChIKey: GLEVLJDDWXEYCO-UHFFFAOYSA-N
RetentionTime: 6.571533
CCS: 
CollisionEnergy: 20-40 eV
InstrumentType: UPLC-QTOF-MS
Comment: PI: Cristina Nerin; Data collector: QiZhi Su, GUIA, University of Zaragoza, Spain; Collision energy: 20-40 V; Instrument: Waters HPLC-QTOF-MS (Xevo G2 QTof); Ionization: ESI; Deconvoluted by MS-DIAL; Column: Waters AtlantisTM premier BEH C18 AX column (2.1 × 100mm x 1.7μm); Flow rate: 0.3mL/min; Mobile phase A and B are water and methnaol, respectively, both with 0.1% formic acid; Gradient elution: from A/B (95/5) to A/B (100/0) in 7min, kept for 4 min, then back to A/B (95/5) in 0.1 min, and maintained for additional 1.9 min (13min in total).; Injection volume: 10 μL
Num peaks: 27
85.02882 4697
135.08215 1021
149.04135 1789
149.0594 1614
150.05055 1599
150.06784 2041
160.05081 832
163.07639 34353
164.08205 3395
173.06108 865
173.07396 932
174.06496 1144
175.07294 1720
175.08327 1712
176.08411 29778
177.08476 3124
177.09358 3208
189.09206 4711
190.09973 9123
204.11533 7067
205.1234 83037
206.12781 8578
249.11317 36666
250.11487 4088
250.12683 4144
250.1433 850
499.22327 880
Name: Arbutin
PrecursorMZ: 271.0822
PrecursorType: [M-H]-
IonMode: Negative
Formula: C12H16O7
SMILES: C1=CC(=CC=C1O)OC2C(C(C(C(O2)CO)O)O)O
InChI: 
InChIKey: BJRNKVDFDLYUGJ-RMPHRYRLSA-N
RetentionTime: 0.8747166
CCS: 
CollisionEnergy: 20-40 eV
InstrumentType: UPLC-QTOF-MS
Comment: PI: Cristina Nerin; Data collector: QiZhi Su, GUIA, University of Zaragoza, Spain; Collision energy: 20-40 V; Instrument: Waters HPLC-QTOF-MS (Xevo G2 QTof); Ionization: ESI; Deconvoluted by MS-DIAL; Column: Waters AtlantisTM premier BEH C18 AX column (2.1 × 100mm x 1.7μm); Flow rate: 0.3mL/min; Mobile phase A and B are water and methnaol, respectively, both with 0.1% formic acid; Gradient elution: from A/B (95/5) to A/B (100/0) in 7min, kept for 4 min, then back to A/B (95/5) in 0.1 min, and maintained for additional 1.9 min (13min in total).; Injection volume: 10 μL
Num peaks: 39
71.01307 526
71.0196 526
73.02943 211
85.02811 306
96.95853 354
96.97162 376
101.00655 463
101.02458 697
101.0288 690
101.03563 697
108.02123 13548
109.02731 2709
110.02054 204
110.03436 227
113.00471 294
113.02515 573
113.03963 540
121.03007 149
123.03912 228
123.04546 228
123.05333 226
133.01976 144
133.02895 147
133.03528 141
143.01877 137
143.03055 157
143.03748 157
151.03648 647
151.04968 624
159.02589 317
159.03238 317
159.04007 318
161.04489 2215
162.04619 160
162.05409 158
163.03369 274
163.04237 313
163.0565 280
271.08112 3889
Name: Arbutin
PrecursorMZ: 317.0864
PrecursorType: [M+FA-H]-
IonMode: Negative
Formula: C12H16O7
SMILES: C1=CC(=CC=C1O)OC2C(C(C(C(O2)CO)O)O)O
InChI: 
InChIKey: BJRNKVDFDLYUGJ-RMPHRYRLSA-N
RetentionTime: 0.8747166
CCS: 
CollisionEnergy: 20-40 eV
InstrumentType: UPLC-QTOF-MS
Comment: PI: Cristina Nerin; Data collector: QiZhi Su, GUIA, University of Zaragoza, Spain; Collision energy: 20-40 V; Instrument: Waters HPLC-QTOF-MS (Xevo G2 QTof); Ionization: ESI; Deconvoluted by MS-DIAL; Column: Waters AtlantisTM premier BEH C18 AX column (2.1 × 100mm x 1.7μm); Flow rate: 0.3mL/min; Mobile phase A and B are water and methnaol, respectively, both with 0.1% formic acid; Gradient elution: from A/B (95/5) to A/B (100/0) in 7min, kept for 4 min, then back to A/B (95/5) in 0.1 min, and maintained for additional 1.9 min (13min in total).; Injection volume: 10 μL
Num peaks: 45
71.01307 526
71.0196 526
73.02943 211
85.02811 306
96.95853 354
96.97162 376
101.00655 463
101.02458 697
101.0288 690
101.03563 697
108.02123 13548
109.02731 2709
110.02054 204
110.03436 227
113.00471 294
113.02515 573
113.03963 540
121.03007 149
123.03912 228
123.04546 228
123.05333 226
133.01976 144
133.02895 147
133.03528 141
143.01877 137
143.03055 157
143.03748 157
151.03648 647
151.04968 624
159.02589 317
159.03238 317
159.04007 318
161.04489 2215
162.04619 160
162.05409 158
163.03369 274
163.04237 313
163.0565 280
271.08112 3657
272.07031 341
272.08389 420
272.10104 335
297.07019 224
297.08286 269
297.10068 137
Name: Triclosan
PrecursorMZ: 286.9432
PrecursorType: [M-H]-
IonMode: Negative
Formula: C12H7Cl3O2
SMILES: C1=CC(=C(C=C1Cl)O)OC2=C(C=C(C=C2)Cl)Cl
InChI: 
InChIKey: XEFQLINVKFYRCS-UHFFFAOYSA-N
RetentionTime: 7.394834
CCS: 
CollisionEnergy: 20-40 eV
InstrumentType: UPLC-QTOF-MS
Comment: PI: Cristina Nerin; Data collector: QiZhi Su, GUIA, University of Zaragoza, Spain; Collision energy: 20-40 V; Instrument: Waters HPLC-QTOF-MS (Xevo G2 QTof); Ionization: ESI; Deconvoluted by MS-DIAL; Column: Waters AtlantisTM premier BEH C18 AX column (2.1 × 100mm x 1.7μm); Flow rate: 0.3mL/min; Mobile phase A and B are water and methnaol, respectively, both with 0.1% formic acid; Gradient elution: from A/B (95/5) to A/B (100/0) in 7min, kept for 4 min, then back to A/B (95/5) in 0.1 min, and maintained for additional 1.9 min (13min in total).; Injection volume: 10 μL
Num peaks: 52
79.96065 81
85.46631 54
96.95942 2309
98.95501 77
112.98283 92
118.99107 231
118.99708 157
119.05621 117
121.07098 110
130.93956 181
131.94702 64
141.97714 54
141.98692 91
149.09476 66
152.99518 229
153.00554 74
164.07709 63
165.09171 181
166.09999 87
168.98637 570
168.99573 507
171.06314 85
174.95782 107
174.96829 56
177.05127 86
177.08847 90
177.13091 76
183.01152 5263
184.01266 540
184.02565 199
185.01144 152
193.05377 91
213.05658 87
213.07443 56
216.96716 154
218.98477 282
221.12323 58
228.89507 101
230.88597 91
231.07791 62
233.16089 80
239.06407 98
242.12347 85
246.88979 56
249.0379 72
253.07712 77
256.33597 62
257.92993 60
265.15109 127
268.96954 124
268.98965 223
286.94086 133
Name: levadopa
PrecursorMZ: 196.0613
PrecursorType: [M-H]-
IonMode: Negative
Formula: C9H11NO4
SMILES: C1=CC(=C(C=C1CC(C(=O)O)N)O)O
InChI: 
InChIKey: WTDRDQBEARUVNC-LURJTMIESA-N
RetentionTime: 0.8556833
CCS: 
CollisionEnergy: 20-40 eV
InstrumentType: UPLC-QTOF-MS
Comment: PI: Cristina Nerin; Data collector: QiZhi Su, GUIA, University of Zaragoza, Spain; Collision energy: 20-40 V; Instrument: Waters HPLC-QTOF-MS (Xevo G2 QTof); Ionization: ESI; Deconvoluted by MS-DIAL; Column: Waters AtlantisTM premier BEH C18 AX column (2.1 × 100mm x 1.7μm); Flow rate: 0.3mL/min; Mobile phase A and B are water and methnaol, respectively, both with 0.1% formic acid; Gradient elution: from A/B (95/5) to A/B (100/0) in 7min, kept for 4 min, then back to A/B (95/5) in 0.1 min, and maintained for additional 1.9 min (13min in total).; Injection volume: 10 μL
Num peaks: 21
72.00893 681
74.0239 703
74.03428 686
107.04897 812
107.06049 797
109.02982 2035
122.03603 3131
123.04202 1006
134.03537 1412
134.06003 753
134.07599 523
135.04468 13879
136.04601 865
136.05516 887
136.06303 769
150.05617 1056
152.07072 1274
152.0789 1274
179.03352 4854
179.04291 4892
196.06108 48401
Name: "2,2'-Methylenebis(6-tert-butyl-4-ethylphenol)"
PrecursorMZ: 367.2654
PrecursorType: [M-H]-
IonMode: Negative
Formula: C25H36O2
SMILES: CCC1=CC(=C(C(=C1)C(C)(C)C)O)CC2=C(C(=CC(=C2)CC)C(C)(C)C)O
InChI: 
InChIKey: GPNYZBKIGXGYNU-UHFFFAOYSA-N
RetentionTime: 8.23335
CCS: 
CollisionEnergy: 20-40 eV
InstrumentType: UPLC-QTOF-MS
Comment: PI: Cristina Nerin; Data collector: QiZhi Su, GUIA, University of Zaragoza, Spain; Collision energy: 20-40 V; Instrument: Waters HPLC-QTOF-MS (Xevo G2 QTof); Ionization: ESI; Deconvoluted by MS-DIAL; Column: Waters AtlantisTM premier BEH C18 AX column (2.1 × 100mm x 1.7μm); Flow rate: 0.3mL/min; Mobile phase A and B are water and methnaol, respectively, both with 0.1% formic acid; Gradient elution: from A/B (95/5) to A/B (100/0) in 7min, kept for 4 min, then back to A/B (95/5) in 0.1 min, and maintained for additional 1.9 min (13min in total).; Injection volume: 10 μL
Num peaks: 10
177.12917 1531236
177.19447 26864
177.24586 26283
177.26437 52515
177.27473 36799
177.33218 23608
177.34164 19103
177.37413 17060
178.13179 216507
367.26486 331027
Name: 11-Aminoundecanoic acid
PrecursorMZ: 200.1654
PrecursorType: [M-H]-
IonMode: Negative
Formula: C11H23NO2
SMILES: C(CCCCCN)CCCCC(=O)O
InChI: 
InChIKey: GUOSQNAUYHMCRU-UHFFFAOYSA-N
RetentionTime: 2.97815
CCS: 
CollisionEnergy: 20-40 eV
InstrumentType: UPLC-QTOF-MS
Comment: PI: Cristina Nerin; Data collector: QiZhi Su, GUIA, University of Zaragoza, Spain; Collision energy: 20-40 V; Instrument: Waters HPLC-QTOF-MS (Xevo G2 QTof); Ionization: ESI; Deconvoluted by MS-DIAL; Column: Waters AtlantisTM premier BEH C18 AX column (2.1 × 100mm x 1.7μm); Flow rate: 0.3mL/min; Mobile phase A and B are water and methnaol, respectively, both with 0.1% formic acid; Gradient elution: from A/B (95/5) to A/B (100/0) in 7min, kept for 4 min, then back to A/B (95/5) in 0.1 min, and maintained for additional 1.9 min (13min in total).; Injection volume: 10 μL
Num peaks: 13
78.9575 48
78.96497 50
99.92385 22
100.93496 18
105.62947 16
116.92696 80
133.0177 15
158.93019 17
193.01041 15
200.16002 628
200.16821 1421
200.18739 48
200.23589 20
Name: Vanillin
PrecursorMZ: 151.0403
PrecursorType: [M-H]-
IonMode: Negative
Formula: C8H8O3
SMILES: COC1=C(C=CC(=C1)C=O)O
InChI: 
InChIKey: MWOOGOJBHIARFG-UHFFFAOYSA-N
RetentionTime: 3.97655
CCS: 
CollisionEnergy: 20-40 eV
InstrumentType: UPLC-QTOF-MS
Comment: PI: Cristina Nerin; Data collector: QiZhi Su, GUIA, University of Zaragoza, Spain; Collision energy: 20-40 V; Instrument: Waters HPLC-QTOF-MS (Xevo G2 QTof); Ionization: ESI; Deconvoluted by MS-DIAL; Column: Waters AtlantisTM premier BEH C18 AX column (2.1 × 100mm x 1.7μm); Flow rate: 0.3mL/min; Mobile phase A and B are water and methnaol, respectively, both with 0.1% formic acid; Gradient elution: from A/B (95/5) to A/B (100/0) in 7min, kept for 4 min, then back to A/B (95/5) in 0.1 min, and maintained for additional 1.9 min (13min in total).; Injection volume: 10 μL
Num peaks: 45
54.64885 20
65.01617 33
72.46471 53
72.69759 20
85.03059 23
85.06122 36
85.48566 23
90.99664 39
92.02748 128
92.05608 28
94.09019 22
96.95756 25
99.01027 20
99.92769 21
99.95999 23
100.93693 42
108.01996 114
108.02887 26
110.0297 22
110.9824 26
112.99463 23
114.93079 20
118.89676 27
119.04609 24
121.02897 39
121.95786 20
123.91027 24
125.99382 36
129.04962 25
130.96275 33
134.01927 79
135.07985 20
136.00816 150
136.01659 303
136.02705 42
137.01729 97
143.87935 24
144.035 47
144.08295 29
144.96095 19
148.95323 23
149.04889 27
151.03838 555
151.05737 21
151.11839 23
Name: "4,4'-Sulfonyldiphenol"
PrecursorMZ: 499.0503
PrecursorType: [2M-H]-
IonMode: Negative
Formula: C12H10O4S
SMILES: C1=CC(=CC=C1O)S(=O)(=O)C2=CC=C(C=C2)O
InChI: 
InChIKey: VPWNQTHUCYMVMZ-UHFFFAOYSA-N
RetentionTime: 4.392
CCS: 
CollisionEnergy: 20-40 eV
InstrumentType: UPLC-QTOF-MS
Comment: PI: Cristina Nerin; Data collector: QiZhi Su, GUIA, University of Zaragoza, Spain; Collision energy: 20-40 V; Instrument: Waters HPLC-QTOF-MS (Xevo G2 QTof); Ionization: ESI; Deconvoluted by MS-DIAL; Column: Waters AtlantisTM premier BEH C18 AX column (2.1 × 100mm x 1.7μm); Flow rate: 0.3mL/min; Mobile phase A and B are water and methnaol, respectively, both with 0.1% formic acid; Gradient elution: from A/B (95/5) to A/B (100/0) in 7min, kept for 4 min, then back to A/B (95/5) in 0.1 min, and maintained for additional 1.9 min (13min in total).; Injection volume: 10 μL
Num peaks: 19
92.02614 12790
93.03133 596
93.04809 534
108.02113 28677
108.03905 28685
109.02432 1475
155.98769 5908
156.99071 370
157.00244 380
184.05064 1153
184.06398 1160
185.0426 627
185.05997 673
249.02162 26374
250.02452 2605
251.00111 877
251.01695 1068
251.03035 1068
499.04282 671
Name: Irganox 1010
PrecursorMZ: 1175.779
PrecursorType: [M-H]-
IonMode: Negative
Formula: C73H108O12
SMILES: CC(C)(C)C1=CC(=CC(=C1O)C(C)(C)C)CCC(=O)OCC(COC(=O)CCC2=CC(=C(C(=C2)C(C)(C)C)O)C(C)(C)C)(COC(=O)CCC3=CC(=C(C(=C3)C(C)(C)C)O)C(C)(C)C)COC(=O)CCC4=CC(=C(C(=C4)C(C)(C)C)O)C(C)(C)C
InChI: 
InChIKey: BGYHLZZASRKEJE-UHFFFAOYSA-N
RetentionTime: 9.4069
CCS: 
CollisionEnergy: 20-40 eV
InstrumentType: UPLC-QTOF-MS
Comment: PI: Cristina Nerin; Data collector: QiZhi Su, GUIA, University of Zaragoza, Spain; Collision energy: 20-40 V; Instrument: Waters HPLC-QTOF-MS (Xevo G2 QTof); Ionization: ESI; Deconvoluted by MS-DIAL; Column: Waters AtlantisTM premier BEH C18 AX column (2.1 × 100mm x 1.7μm); Flow rate: 0.3mL/min; Mobile phase A and B are water and methnaol, respectively, both with 0.1% formic acid; Gradient elution: from A/B (95/5) to A/B (100/0) in 7min, kept for 4 min, then back to A/B (95/5) in 0.1 min, and maintained for additional 1.9 min (13min in total).; Injection volume: 10 μL
Num peaks: 9
205.15442 213
205.16524 210
589.3866 158
957.60675 352
958.60785 206
1173.76184 132
1174.74817 149
1175.77344 12973
1175.88855 238
Name: "4,4'-Sulfonyldiphenol"
PrecursorMZ: 249.0224
PrecursorType: [M-H]-
IonMode: Negative
Formula: C12H10O4S
SMILES: C1=CC(=CC=C1O)S(=O)(=O)C2=CC=C(C=C2)O
InChI: 
InChIKey: VPWNQTHUCYMVMZ-UHFFFAOYSA-N
RetentionTime: 4.407217
CCS: 
CollisionEnergy: 20-40 eV
InstrumentType: UPLC-QTOF-MS
Comment: PI: Cristina Nerin; Data collector: QiZhi Su, GUIA, University of Zaragoza, Spain; Collision energy: 20-40 V; Instrument: Waters HPLC-QTOF-MS (Xevo G2 QTof); Ionization: ESI; Deconvoluted by MS-DIAL; Column: Waters AtlantisTM premier BEH C18 AX column (2.1 × 100mm x 1.7μm); Flow rate: 0.3mL/min; Mobile phase A and B are water and methnaol, respectively, both with 0.1% formic acid; Gradient elution: from A/B (95/5) to A/B (100/0) in 7min, kept for 4 min, then back to A/B (95/5) in 0.1 min, and maintained for additional 1.9 min (13min in total).; Injection volume: 10 μL
Num peaks: 9
92.02613 24242
93.03136 1549
108.02114 62129
109.02286 1455
109.02907 1131
155.98831 11950
184.0502 1852
185.06114 1836
249.02206 45213
Name: "4,4'-Sulfonyldiphenol"
PrecursorMZ: 249.0222
PrecursorType: [M-H]-
IonMode: Negative
Formula: C12H10O4S
SMILES: C1=CC(=CC=C1O)S(=O)(=O)C2=CC=C(C=C2)O
InChI: 
InChIKey: VPWNQTHUCYMVMZ-UHFFFAOYSA-N
RetentionTime: 4.544267
CCS: 
CollisionEnergy: 20-40 eV
InstrumentType: UPLC-QTOF-MS
Comment: PI: Cristina Nerin; Data collector: QiZhi Su, GUIA, University of Zaragoza, Spain; Collision energy: 20-40 V; Instrument: Waters HPLC-QTOF-MS (Xevo G2 QTof); Ionization: ESI; Deconvoluted by MS-DIAL; Column: Waters AtlantisTM premier BEH C18 AX column (2.1 × 100mm x 1.7μm); Flow rate: 0.3mL/min; Mobile phase A and B are water and methnaol, respectively, both with 0.1% formic acid; Gradient elution: from A/B (95/5) to A/B (100/0) in 7min, kept for 4 min, then back to A/B (95/5) in 0.1 min, and maintained for additional 1.9 min (13min in total).; Injection volume: 10 μL
Num peaks: 11
92.02602 33474
93.02753 2004
93.03429 2006
93.04483 2016
108.02102 79167
108.03905 79197
109.02425 3522
155.98796 17690
184.05266 3708
185.05968 2183
249.02226 160559
Name: "4,4'-Sulfonyldiphenol"
PrecursorMZ: 499.0519
PrecursorType: [2M-H]-
IonMode: Negative
Formula: C12H10O4S
SMILES: C1=CC(=CC=C1O)S(=O)(=O)C2=CC=C(C=C2)O
InChI: 
InChIKey: VPWNQTHUCYMVMZ-UHFFFAOYSA-N
RetentionTime: 4.544267
CCS: 
CollisionEnergy: 20-40 eV
InstrumentType: UPLC-QTOF-MS
Comment: PI: Cristina Nerin; Data collector: QiZhi Su, GUIA, University of Zaragoza, Spain; Collision energy: 20-40 V; Instrument: Waters HPLC-QTOF-MS (Xevo G2 QTof); Ionization: ESI; Deconvoluted by MS-DIAL; Column: Waters AtlantisTM premier BEH C18 AX column (2.1 × 100mm x 1.7μm); Flow rate: 0.3mL/min; Mobile phase A and B are water and methnaol, respectively, both with 0.1% formic acid; Gradient elution: from A/B (95/5) to A/B (100/0) in 7min, kept for 4 min, then back to A/B (95/5) in 0.1 min, and maintained for additional 1.9 min (13min in total).; Injection volume: 10 μL
Num peaks: 14
92.02602 36190
93.02753 2157
93.03429 2159
93.04483 2130
108.02102 85381
108.03905 85414
109.02425 3752
155.98796 19001
184.05266 4043
185.05968 2292
249.02226 132357
250.02469 13991
251.0199 5496
499.05115 4823
Name: "2,4-Dihydroxybenzophenone"
PrecursorMZ: 213.056
PrecursorType: [M-H]-
IonMode: Negative
Formula: C13H10O3
SMILES: C1=CC=C(C=C1)C(=O)C2=C(C=C(C=C2)O)O
InChI: 
InChIKey: ZXDDPOHVAMWLBH-UHFFFAOYSA-N
RetentionTime: 6.19845
CCS: 
CollisionEnergy: 20-40 eV
InstrumentType: UPLC-QTOF-MS
Comment: PI: Cristina Nerin; Data collector: QiZhi Su, GUIA, University of Zaragoza, Spain; Collision energy: 20-40 V; Instrument: Waters HPLC-QTOF-MS (Xevo G2 QTof); Ionization: ESI; Deconvoluted by MS-DIAL; Column: Waters AtlantisTM premier BEH C18 AX column (2.1 × 100mm x 1.7μm); Flow rate: 0.3mL/min; Mobile phase A and B are water and methnaol, respectively, both with 0.1% formic acid; Gradient elution: from A/B (95/5) to A/B (100/0) in 7min, kept for 4 min, then back to A/B (95/5) in 0.1 min, and maintained for additional 1.9 min (13min in total).; Injection volume: 10 μL
Num peaks: 13
91.01857 205345
92.02197 7763
121.03001 2057
135.00853 146138
136.01146 7823
141.0706 2702
143.05057 4111
169.06592 43229
170.06947 2613
170.0883 3472
171.04555 2486
171.058 2481
213.05579 44722
Name: levadopa
PrecursorMZ: 393.1296
PrecursorType: [2M+FA-H]-
IonMode: Negative
Formula: C9H11NO4
SMILES: C1=CC(=C(C=C1CC(C(=O)O)N)O)O
InChI: 
InChIKey: WTDRDQBEARUVNC-LURJTMIESA-N
RetentionTime: 0.8518834
CCS: 
CollisionEnergy: 20-40 eV
InstrumentType: UPLC-QTOF-MS
Comment: PI: Cristina Nerin; Data collector: QiZhi Su, GUIA, University of Zaragoza, Spain; Collision energy: 20-40 V; Instrument: Waters HPLC-QTOF-MS (Xevo G2 QTof); Ionization: ESI; Deconvoluted by MS-DIAL; Column: Waters AtlantisTM premier BEH C18 AX column (2.1 × 100mm x 1.7μm); Flow rate: 0.3mL/min; Mobile phase A and B are water and methnaol, respectively, both with 0.1% formic acid; Gradient elution: from A/B (95/5) to A/B (100/0) in 7min, kept for 4 min, then back to A/B (95/5) in 0.1 min, and maintained for additional 1.9 min (13min in total).; Injection volume: 10 μL
Num peaks: 25
72.00624 681
72.01141 681
74.01343 692
74.02191 703
74.02672 703
107.04915 812
109.03065 2035
122.03284 3091
122.04058 3127
122.05494 2878
123.042 1006
134.03461 1369
134.04199 1640
134.0609 758
134.07256 565
135.04422 13880
136.04915 873
150.05354 1064
150.06511 1021
152.06038 1268
152.07161 1274
179.0349 4876
196.06111 47047
197.06422 2950
393.13016 27857
Name: cresol red
PrecursorMZ: 381.0791
PrecursorType: [M-H]-
IonMode: Negative
Formula: C21H18O5S
SMILES: CC1=C(C=CC(=C1)C2(C3=CC=CC=C3S(=O)(=O)O2)C4=CC(=C(C=C4)O)C)O
InChI: 
InChIKey: OBRMNDMBJQTZHV-UHFFFAOYSA-N
RetentionTime: 6.461133
CCS: 
CollisionEnergy: 20-40 eV
InstrumentType: UPLC-QTOF-MS
Comment: PI: Cristina Nerin; Data collector: QiZhi Su, GUIA, University of Zaragoza, Spain; Collision energy: 20-40 V; Instrument: Waters HPLC-QTOF-MS (Xevo G2 QTof); Ionization: ESI; Deconvoluted by MS-DIAL; Column: Waters AtlantisTM premier BEH C18 AX column (2.1 × 100mm x 1.7μm); Flow rate: 0.3mL/min; Mobile phase A and B are water and methnaol, respectively, both with 0.1% formic acid; Gradient elution: from A/B (95/5) to A/B (100/0) in 7min, kept for 4 min, then back to A/B (95/5) in 0.1 min, and maintained for additional 1.9 min (13min in total).; Injection volume: 10 μL
Num peaks: 49
78.95249 23
78.959 23
78.97025 29
79.9604 32
102.94373 23
102.95212 27
107.04269 1568
107.0508 1583
108.04543 83
108.052 133
122.97162 27
143.0407 65
169.11778 23
169.12537 22
171.03368 28
171.04294 28
181.00948 17
184.05312 28
192.00873 19
198.03214 24
198.04546 30
198.98148 16
207.05325 17
209.04721 193
209.06169 275
209.07947 197
210.05937 66
223.05945 26
223.07364 21
265.13821 26
273.08032 23
273.10172 24
309.19897 16
311.16266 22
311.1777 36
325.0433 17
326.17587 42
326.21552 27
327.10754 20
330.13943 27
331.12958 211
331.14474 250
331.16916 26
332.14313 24
339.18378 79
339.20624 32
340.19388 32
381.08954 21
381.21719 20
Name: Anthrone
PrecursorMZ: 193.0658
PrecursorType: [M-H]-
IonMode: Negative
Formula: C14H10O
SMILES: C1C2=CC=CC=C2C(=O)C3=CC=CC=C31
InChI: 
InChIKey: RJGDLRCDCYRQOQ-UHFFFAOYSA-N
RetentionTime: 6.64435
CCS: 
CollisionEnergy: 20-40 eV
InstrumentType: UPLC-QTOF-MS
Comment: PI: Cristina Nerin; Data collector: QiZhi Su, GUIA, University of Zaragoza, Spain; Collision energy: 20-40 V; Instrument: Waters HPLC-QTOF-MS (Xevo G2 QTof); Ionization: ESI; Deconvoluted by MS-DIAL; Column: Waters AtlantisTM premier BEH C18 AX column (2.1 × 100mm x 1.7μm); Flow rate: 0.3mL/min; Mobile phase A and B are water and methnaol, respectively, both with 0.1% formic acid; Gradient elution: from A/B (95/5) to A/B (100/0) in 7min, kept for 4 min, then back to A/B (95/5) in 0.1 min, and maintained for additional 1.9 min (13min in total).; Injection volume: 10 μL
Num peaks: 3
183.01276 163
193.06651 13772
193.08978 240
Name: Oxybenzone
PrecursorMZ: 227.0707
PrecursorType: [M-H]-
IonMode: Negative
Formula: C14H12O3
SMILES: COC1=CC(=C(C=C1)C(=O)C2=CC=CC=C2)O
InChI: 
InChIKey: DXGLGDHPHMLXJC-UHFFFAOYSA-N
RetentionTime: 6.903234
CCS: 
CollisionEnergy: 20-40 eV
InstrumentType: UPLC-QTOF-MS
Comment: PI: Cristina Nerin; Data collector: QiZhi Su, GUIA, University of Zaragoza, Spain; Collision energy: 20-40 V; Instrument: Waters HPLC-QTOF-MS (Xevo G2 QTof); Ionization: ESI; Deconvoluted by MS-DIAL; Column: Waters AtlantisTM premier BEH C18 AX column (2.1 × 100mm x 1.7μm); Flow rate: 0.3mL/min; Mobile phase A and B are water and methnaol, respectively, both with 0.1% formic acid; Gradient elution: from A/B (95/5) to A/B (100/0) in 7min, kept for 4 min, then back to A/B (95/5) in 0.1 min, and maintained for additional 1.9 min (13min in total).; Injection volume: 10 μL
Num peaks: 70
91.011 66
96.96055 1327
96.97165 1335
97.06052 159
97.06872 163
98.95162 94
98.95977 99
101.02176 94
101.03195 99
108.0172 75
108.02347 75
108.03249 76
112.9838 182
113.00616 100
119.04268 90
119.04977 83
121.03156 99
122.03156 68
122.04287 72
122.9757 97
148.05061 98
149.05508 80
149.06328 70
149.07092 105
149.09633 67
152.98792 143
152.99928 154
153.01712 102
167.04613 160
167.06792 94
169.06277 79
174.95158 149
174.96111 150
177.05061 100
177.06003 130
177.07951 73
177.09978 73
183.01103 3040
183.0452 70
183.05457 146
184.01331 438
184.02626 475
184.04594 167
184.05824 182
185.00079 98
185.02196 142
185.03395 103
192.10759 67
192.12201 74
193.06348 112
197.01909 89
197.03148 102
198.02121 86
198.03127 81
205.12575 77
210.02983 82
211.03996 6213
211.12462 65
212.03831 929
212.05002 934
213.03613 76
213.05565 149
220.14374 348
220.15878 347
221.14822 443
221.16013 453
222.17018 64
227.06012 111
227.07166 267
227.08092 150
Name: acetaminophen
PrecursorMZ: 150.056
PrecursorType: [M-H]-
IonMode: Negative
Formula: C8H9NO2
SMILES: CC(=O)NC1=CC=C(C=C1)O
InChI: 
InChIKey: RZVAJINKPMORJF-UHFFFAOYSA-N
RetentionTime: 2.608867
CCS: 
CollisionEnergy: 20-40 eV
InstrumentType: UPLC-QTOF-MS
Comment: PI: Cristina Nerin; Data collector: QiZhi Su, GUIA, University of Zaragoza, Spain; Collision energy: 20-40 V; Instrument: Waters HPLC-QTOF-MS (Xevo G2 QTof); Ionization: ESI; Deconvoluted by MS-DIAL; Column: Waters AtlantisTM premier BEH C18 AX column (2.1 × 100mm x 1.7μm); Flow rate: 0.3mL/min; Mobile phase A and B are water and methnaol, respectively, both with 0.1% formic acid; Gradient elution: from A/B (95/5) to A/B (100/0) in 7min, kept for 4 min, then back to A/B (95/5) in 0.1 min, and maintained for additional 1.9 min (13min in total).; Injection volume: 10 μL
Num peaks: 25
66.91145 31
71.01025 22
75.01156 24
78.95816 64
78.96532 20
86.9757 25
94.02249 20
101.94239 24
103.00597 32
106.02315 115
107.03929 586
108.04418 22
112.98886 20
116.93388 20
121.96788 20
131.05493 24
134.02879 66
135.04459 27
136.94035 20
142.89125 20
149.04068 17
149.04715 31
150.05663 547
150.06502 129
150.07381 28
Name: "2,2'-methylenebis(6-tert-butyl-4-methylphenol)"
PrecursorMZ: 339.2347
PrecursorType: [M-H]-
IonMode: Negative
Formula: C23H32O2
SMILES: CC1=CC(=C(C(=C1)C(C)(C)C)O)CC2=C(C(=CC(=C2)C)C(C)(C)C)O
InChI: 
InChIKey: KGRVJHAUYBGFFP-UHFFFAOYSA-N
RetentionTime: 8.065367
CCS: 
CollisionEnergy: 20-40 eV
InstrumentType: UPLC-QTOF-MS
Comment: PI: Cristina Nerin; Data collector: QiZhi Su, GUIA, University of Zaragoza, Spain; Collision energy: 20-40 V; Instrument: Waters HPLC-QTOF-MS (Xevo G2 QTof); Ionization: ESI; Deconvoluted by MS-DIAL; Column: Waters AtlantisTM premier BEH C18 AX column (2.1 × 100mm x 1.7μm); Flow rate: 0.3mL/min; Mobile phase A and B are water and methnaol, respectively, both with 0.1% formic acid; Gradient elution: from A/B (95/5) to A/B (100/0) in 7min, kept for 4 min, then back to A/B (95/5) in 0.1 min, and maintained for additional 1.9 min (13min in total).; Injection volume: 10 μL
Num peaks: 6
163.11346 1626862
163.1763 20752
163.24234 31163
163.25349 22918
164.11588 192735
339.23352 306908
Name: sulfadimethoxine
PrecursorMZ: 309.0663
PrecursorType: [M-H]-
IonMode: Negative
Formula: C12H14N4O4S
SMILES: COC1=NC(=NC(=C1)NS(=O)(=O)C2=CC=C(C=C2)N)OC
InChI: 
InChIKey: ZZORFUFYDOWNEF-UHFFFAOYSA-N
RetentionTime: 4.37675
CCS: 
CollisionEnergy: 20-40 eV
InstrumentType: UPLC-QTOF-MS
Comment: PI: Cristina Nerin; Data collector: QiZhi Su, GUIA, University of Zaragoza, Spain; Collision energy: 20-40 V; Instrument: Waters HPLC-QTOF-MS (Xevo G2 QTof); Ionization: ESI; Deconvoluted by MS-DIAL; Column: Waters AtlantisTM premier BEH C18 AX column (2.1 × 100mm x 1.7μm); Flow rate: 0.3mL/min; Mobile phase A and B are water and methnaol, respectively, both with 0.1% formic acid; Gradient elution: from A/B (95/5) to A/B (100/0) in 7min, kept for 4 min, then back to A/B (95/5) in 0.1 min, and maintained for additional 1.9 min (13min in total).; Injection volume: 10 μL
Num peaks: 29
66.00959 1527
122.03176 888
122.03819 612
124.01727 258
130.0542 369
131.03302 275
131.05742 501
131.06572 385
132.05522 251
139.03831 517
144.05618 413
153.05618 267
154.06125 1334
171.0253 695
171.04106 233
174.06024 407
174.07086 650
188.04918 438
195.0195 565
195.02823 599
199.05482 345
200.06955 240
215.05453 1020
229.07248 1139
229.08266 314
230.07181 406
230.0822 1047
230.09731 256
309.06567 21651
Name: sulfadimethoxine
PrecursorMZ: 309.0663
PrecursorType: [M-H]-
IonMode: Negative
Formula: C12H14N4O4S
SMILES: COC1=NC(=NC(=C1)NS(=O)(=O)C2=CC=C(C=C2)N)OC
InChI: 
InChIKey: ZZORFUFYDOWNEF-UHFFFAOYSA-N
RetentionTime: 4.594234
CCS: 
CollisionEnergy: 20-40 eV
InstrumentType: UPLC-QTOF-MS
Comment: PI: Cristina Nerin; Data collector: QiZhi Su, GUIA, University of Zaragoza, Spain; Collision energy: 20-40 V; Instrument: Waters HPLC-QTOF-MS (Xevo G2 QTof); Ionization: ESI; Deconvoluted by MS-DIAL; Column: Waters AtlantisTM premier BEH C18 AX column (2.1 × 100mm x 1.7μm); Flow rate: 0.3mL/min; Mobile phase A and B are water and methnaol, respectively, both with 0.1% formic acid; Gradient elution: from A/B (95/5) to A/B (100/0) in 7min, kept for 4 min, then back to A/B (95/5) in 0.1 min, and maintained for additional 1.9 min (13min in total).; Injection volume: 10 μL
Num peaks: 20
65.99678 3225
66.0097 3062
66.02354 2960
130.04677 1234
130.05373 1117
131.03801 1232
131.0578 2600
139.03764 1104
144.04393 1442
144.05338 1072
144.06224 1209
171.02434 1252
174.06667 2060
195.02402 1862
199.05672 1039
199.06786 1149
215.05797 3007
215.07474 3281
229.07207 1878
309.06635 93568
Name: sulfadimethoxine
PrecursorMZ: 619.1395
PrecursorType: [2M-H]-
IonMode: Negative
Formula: C12H14N4O4S
SMILES: COC1=NC(=NC(=C1)NS(=O)(=O)C2=CC=C(C=C2)N)OC
InChI: 
InChIKey: ZZORFUFYDOWNEF-UHFFFAOYSA-N
RetentionTime: 4.598033
CCS: 
CollisionEnergy: 20-40 eV
InstrumentType: UPLC-QTOF-MS
Comment: PI: Cristina Nerin; Data collector: QiZhi Su, GUIA, University of Zaragoza, Spain; Collision energy: 20-40 V; Instrument: Waters HPLC-QTOF-MS (Xevo G2 QTof); Ionization: ESI; Deconvoluted by MS-DIAL; Column: Waters AtlantisTM premier BEH C18 AX column (2.1 × 100mm x 1.7μm); Flow rate: 0.3mL/min; Mobile phase A and B are water and methnaol, respectively, both with 0.1% formic acid; Gradient elution: from A/B (95/5) to A/B (100/0) in 7min, kept for 4 min, then back to A/B (95/5) in 0.1 min, and maintained for additional 1.9 min (13min in total).; Injection volume: 10 μL
Num peaks: 23
66.0098 4016
122.03543 1246
124.03245 864
130.05438 1330
130.06247 1330
131.04643 905
131.05969 783
139.03806 1104
144.05681 1154
154.06143 1798
171.02333 1009
171.03978 2094
174.0665 2576
195.02327 2269
199.06357 843
215.05705 2481
229.07263 2213
230.07983 1522
309.06644 75173
310.0687 7196
311.0639 2738
619.12073 802
619.14539 1231
Name: Tinuvin 327
PrecursorMZ: 356.1536
PrecursorType: [M-H]-
IonMode: Negative
Formula: C20H24ClN3O
SMILES: CC(C)(C)C1=CC(=C(C(=C1)N2N=C3C=CC(=CC3=N2)Cl)O)C(C)(C)C
InChI: 
InChIKey: UWSMKYBKUPAEJQ-UHFFFAOYSA-N
RetentionTime: 9.505967
CCS: 
CollisionEnergy: 20-40 eV
InstrumentType: UPLC-QTOF-MS
Comment: PI: Cristina Nerin; Data collector: QiZhi Su, GUIA, University of Zaragoza, Spain; Collision energy: 20-40 V; Instrument: Waters HPLC-QTOF-MS (Xevo G2 QTof); Ionization: ESI; Deconvoluted by MS-DIAL; Column: Waters AtlantisTM premier BEH C18 AX column (2.1 × 100mm x 1.7μm); Flow rate: 0.3mL/min; Mobile phase A and B are water and methnaol, respectively, both with 0.1% formic acid; Gradient elution: from A/B (95/5) to A/B (100/0) in 7min, kept for 4 min, then back to A/B (95/5) in 0.1 min, and maintained for additional 1.9 min (13min in total).; Injection volume: 10 μL
Num peaks: 20
149.11436 141
151.98967 270
152.00319 266
153.99377 63
154.00603 76
256.05939 59
256.07108 84
305.13467 187
305.15488 556
306.14182 86
306.1622 127
340.10196 742
340.12518 633
340.15356 92
340.2262 136
341.12997 262
342.11609 193
343.12741 69
356.15326 5529
356.1824 286
Name: "2,2',4,4'-Tetrahydroxybenzophenone"
PrecursorMZ: 245.0457
PrecursorType: [M-H]-
IonMode: Negative
Formula: C13H10O5
SMILES: C1=CC(=C(C=C1O)O)C(=O)C2=C(C=C(C=C2)O)O
InChI: 
InChIKey: WXNRYSGJLQFHBR-UHFFFAOYSA-N
RetentionTime: 5.192467
CCS: 
CollisionEnergy: 20-40 eV
InstrumentType: UPLC-QTOF-MS
Comment: PI: Cristina Nerin; Data collector: QiZhi Su, GUIA, University of Zaragoza, Spain; Collision energy: 20-40 V; Instrument: Waters HPLC-QTOF-MS (Xevo G2 QTof); Ionization: ESI; Deconvoluted by MS-DIAL; Column: Waters AtlantisTM premier BEH C18 AX column (2.1 × 100mm x 1.7μm); Flow rate: 0.3mL/min; Mobile phase A and B are water and methnaol, respectively, both with 0.1% formic acid; Gradient elution: from A/B (95/5) to A/B (100/0) in 7min, kept for 4 min, then back to A/B (95/5) in 0.1 min, and maintained for additional 1.9 min (13min in total).; Injection volume: 10 μL
Num peaks: 10
65.04016 1777
91.01888 28010
92.02343 1152
109.02934 68907
110.03082 1575
110.03904 819
135.0089 34994
136.01234 1617
159.04404 1801
245.04523 4912
Name: "2,2',4,4'-Tetrahydroxybenzophenone"
PrecursorMZ: 245.0459
PrecursorType: [M-H]-
IonMode: Negative
Formula: C13H10O5
SMILES: C1=CC(=C(C=C1O)O)C(=O)C2=C(C=C(C=C2)O)O
InChI: 
InChIKey: WXNRYSGJLQFHBR-UHFFFAOYSA-N
RetentionTime: 5.2686
CCS: 
CollisionEnergy: 20-40 eV
InstrumentType: UPLC-QTOF-MS
Comment: PI: Cristina Nerin; Data collector: QiZhi Su, GUIA, University of Zaragoza, Spain; Collision energy: 20-40 V; Instrument: Waters HPLC-QTOF-MS (Xevo G2 QTof); Ionization: ESI; Deconvoluted by MS-DIAL; Column: Waters AtlantisTM premier BEH C18 AX column (2.1 × 100mm x 1.7μm); Flow rate: 0.3mL/min; Mobile phase A and B are water and methnaol, respectively, both with 0.1% formic acid; Gradient elution: from A/B (95/5) to A/B (100/0) in 7min, kept for 4 min, then back to A/B (95/5) in 0.1 min, and maintained for additional 1.9 min (13min in total).; Injection volume: 10 μL
Num peaks: 12
65.04042 902
91.01894 16706
92.02206 495
108.02025 459
108.02891 464
109.0296 42265
110.03252 1504
135.00909 21556
136.01024 1243
136.01959 1262
159.0461 1272
245.04576 16341
Name: "2,2',4,4'-Tetrahydroxybenzophenone"
PrecursorMZ: 491.0969
PrecursorType: [2M-H]-
IonMode: Negative
Formula: C13H10O5
SMILES: C1=CC(=C(C=C1O)O)C(=O)C2=C(C=C(C=C2)O)O
InChI: 
InChIKey: WXNRYSGJLQFHBR-UHFFFAOYSA-N
RetentionTime: 5.2686
CCS: 
CollisionEnergy: 20-40 eV
InstrumentType: UPLC-QTOF-MS
Comment: PI: Cristina Nerin; Data collector: QiZhi Su, GUIA, University of Zaragoza, Spain; Collision energy: 20-40 V; Instrument: Waters HPLC-QTOF-MS (Xevo G2 QTof); Ionization: ESI; Deconvoluted by MS-DIAL; Column: Waters AtlantisTM premier BEH C18 AX column (2.1 × 100mm x 1.7μm); Flow rate: 0.3mL/min; Mobile phase A and B are water and methnaol, respectively, both with 0.1% formic acid; Gradient elution: from A/B (95/5) to A/B (100/0) in 7min, kept for 4 min, then back to A/B (95/5) in 0.1 min, and maintained for additional 1.9 min (13min in total).; Injection volume: 10 μL
Num peaks: 15
65.04042 958
91.01894 18375
92.02206 582
108.02025 505
108.02891 509
109.0296 46381
110.03252 1691
135.00909 23808
136.01024 1354
136.01959 1370
159.0461 1400
245.04576 11440
246.04819 1102
491.08533 478
491.10803 813
Name: "2,2'-Dihydroxy-4-Methoxybenzophenone(Cyasorb UV 24)"
PrecursorMZ: 243.0665
PrecursorType: [M-H]-
IonMode: Negative
Formula: C14H12O4
SMILES: COC1=CC(=C(C=C1)C(=O)C2=CC=CC=C2O)O
InChI: 
InChIKey: MEZZCSHVIGVWFI-UHFFFAOYSA-N
RetentionTime: 6.369783
CCS: 
CollisionEnergy: 20-40 eV
InstrumentType: UPLC-QTOF-MS
Comment: PI: Cristina Nerin; Data collector: QiZhi Su, GUIA, University of Zaragoza, Spain; Collision energy: 20-40 V; Instrument: Waters HPLC-QTOF-MS (Xevo G2 QTof); Ionization: ESI; Deconvoluted by MS-DIAL; Column: Waters AtlantisTM premier BEH C18 AX column (2.1 × 100mm x 1.7μm); Flow rate: 0.3mL/min; Mobile phase A and B are water and methnaol, respectively, both with 0.1% formic acid; Gradient elution: from A/B (95/5) to A/B (100/0) in 7min, kept for 4 min, then back to A/B (95/5) in 0.1 min, and maintained for additional 1.9 min (13min in total).; Injection volume: 10 μL
Num peaks: 52
80.02149 205
80.02832 204
80.03947 203
91.01704 95
93.03479 8169
94.03214 385
94.03837 385
96.95891 433
96.96949 435
108.02192 5193
108.04044 5221
109.01839 416
109.02532 414
109.03049 415
123.045 6248
124.0261 148
124.04337 381
124.0512 372
137.01279 172
137.03029 171
151.03035 91
151.03792 90
151.04491 96
156.05533 83
178.06386 149
178.07233 144
181.0778 130
182.0309 158
182.0432 163
183.00616 569
183.01613 691
183.03481 1803
183.04433 1571
184.01157 118
184.04842 575
184.06839 515
191.09996 116
193.08708 449
195.05096 302
195.06335 118
196.03529 87
210.01617 294
210.02605 352
210.03554 378
210.04684 316
211.03389 607
211.04823 596
211.06538 132
225.0459 97
225.06346 83
243.05894 102
243.0672 259
Name: "Bisphenol A (3-chloro-2-hydroxypropyl) (2,3-dihydroxypropyl) ether"
PrecursorMZ: 439.1531
PrecursorType: [M+FA-H]-
IonMode: Negative
Formula: C21H27ClO5
SMILES: CC(C)(C1=CC=C(C=C1)OCC(CO)O)C2=CC=C(C=C2)OCC(CCl)O
InChI: 
InChIKey: HDTYUHNZRYZEEB-UHFFFAOYSA-N
RetentionTime: 6.476383
CCS: 
CollisionEnergy: 20-40 eV
InstrumentType: UPLC-QTOF-MS
Comment: PI: Cristina Nerin; Data collector: QiZhi Su, GUIA, University of Zaragoza, Spain; Collision energy: 20-40 V; Instrument: Waters HPLC-QTOF-MS (Xevo G2 QTof); Ionization: ESI; Deconvoluted by MS-DIAL; Column: Waters AtlantisTM premier BEH C18 AX column (2.1 × 100mm x 1.7μm); Flow rate: 0.3mL/min; Mobile phase A and B are water and methnaol, respectively, both with 0.1% formic acid; Gradient elution: from A/B (95/5) to A/B (100/0) in 7min, kept for 4 min, then back to A/B (95/5) in 0.1 min, and maintained for additional 1.9 min (13min in total).; Injection volume: 10 μL
Num peaks: 4
183.00868 2323
431.12128 2293
433.12506 846
439.15308 76145
Name: "Bisphenol A (3-chloro-2-hydroxypropyl) (2,3-dihydroxypropyl) ether"
PrecursorMZ: 833.3056
PrecursorType: [2M+FA-H]-
IonMode: Negative
Formula: C21H27ClO5
SMILES: CC(C)(C1=CC=C(C=C1)OCC(CO)O)C2=CC=C(C=C2)OCC(CCl)O
InChI: 
InChIKey: HDTYUHNZRYZEEB-UHFFFAOYSA-N
RetentionTime: 6.480183
CCS: 
CollisionEnergy: 20-40 eV
InstrumentType: UPLC-QTOF-MS
Comment: PI: Cristina Nerin; Data collector: QiZhi Su, GUIA, University of Zaragoza, Spain; Collision energy: 20-40 V; Instrument: Waters HPLC-QTOF-MS (Xevo G2 QTof); Ionization: ESI; Deconvoluted by MS-DIAL; Column: Waters AtlantisTM premier BEH C18 AX column (2.1 × 100mm x 1.7μm); Flow rate: 0.3mL/min; Mobile phase A and B are water and methnaol, respectively, both with 0.1% formic acid; Gradient elution: from A/B (95/5) to A/B (100/0) in 7min, kept for 4 min, then back to A/B (95/5) in 0.1 min, and maintained for additional 1.9 min (13min in total).; Injection volume: 10 μL
Num peaks: 10
429.12238 8933
430.11969 1184
431.12149 5925
431.13608 2855
432.11716 921
439.15335 79986
440.15567 8460
441.15112 23621
442.14853 3948
833.30438 4870
Name: (L)-Dehydroascorbic acid
PrecursorMZ: 173.0093
PrecursorType: [M-H]-
IonMode: Negative
Formula: C6H6O6
SMILES: C(C(C1C(=O)C(=O)C(=O)O1)O)O
InChI: 
InChIKey: SBJKKFFYIZUCET-JLAZNSOCSA-N
RetentionTime: 0.8633
CCS: 
CollisionEnergy: 20-40 eV
InstrumentType: UPLC-QTOF-MS
Comment: PI: Cristina Nerin; Data collector: QiZhi Su, GUIA, University of Zaragoza, Spain; Collision energy: 20-40 V; Instrument: Waters HPLC-QTOF-MS (Xevo G2 QTof); Ionization: ESI; Deconvoluted by MS-DIAL; Column: Waters AtlantisTM premier BEH C18 AX column (2.1 × 100mm x 1.7μm); Flow rate: 0.3mL/min; Mobile phase A and B are water and methnaol, respectively, both with 0.1% formic acid; Gradient elution: from A/B (95/5) to A/B (100/0) in 7min, kept for 4 min, then back to A/B (95/5) in 0.1 min, and maintained for additional 1.9 min (13min in total).; Injection volume: 10 μL
Num peaks: 94
55.01898 69
68.99562 61
69.00051 61
71.01359 210
71.01836 210
72.99178 22
73.02697 26
78.95463 93
78.96223 93
83.01127 618
83.01593 620
83.02445 615
84.01645 45
84.9951 75
85.00014 91
85.00964 102
85.0184 78
85.02685 86
86.00596 35
86.02761 40
87.00733 127
87.01905 117
96.96159 137
96.9678 136
96.97472 178
96.99186 60
99.00739 566
99.01493 580
99.02063 581
99.03696 55
100.00206 33
100.01524 30
105.01303 35
111.00351 360
111.01092 372
112.00997 117
112.98662 2014
113.00313 2029
113.0223 263
114.99392 126
114.99924 123
115.0088 185
115.02007 145
116.9257 61
124.99008 231
124.99963 248
125.02185 89
125.03077 59
125.0411 34
126.98676 151
126.99554 175
127.00093 185
127.01991 128
129.01643 140
130.01442 143
130.02119 152
131.02022 175
134.03859 22
137.00574 27
139.00317 45
140.9881 35
141.92789 31
142.99329 595
143.00217 629
143.02089 201
143.99892 55
144.99028 61
145.00708 123
145.0201 136
145.03528 90
145.04767 26
152.9856 51
153.00163 88
153.02245 48
154.01599 42
154.02443 47
154.99471 1003
155.00206 1080
155.01797 739
155.99812 122
156.01596 114
156.95836 36
157.01575 70
157.03612 41
158.9189 37
158.92914 39
161.04611 46
171.0103 107
171.02426 96
172.02238 51
173.00223 126
173.01247 66
173.02133 88
173.032 29
Name: "3,5-ditert-butylhydroxybenzaldehyde"
PrecursorMZ: 233.1546
PrecursorType: [M-H]-
IonMode: Negative
Formula: C15H22O2
SMILES: CC(C)(C)C1=CC(=CC(=C1O)C(C)(C)C)C=O
InChI: 
InChIKey: DOZRDZLFLOODMB-UHFFFAOYSA-N
RetentionTime: 7.143583
CCS: 
CollisionEnergy: 20-40 eV
InstrumentType: UPLC-QTOF-MS
Comment: PI: Cristina Nerin; Data collector: QiZhi Su, GUIA, University of Zaragoza, Spain; Collision energy: 20-40 V; Instrument: Waters HPLC-QTOF-MS (Xevo G2 QTof); Ionization: ESI; Deconvoluted by MS-DIAL; Column: Waters AtlantisTM premier BEH C18 AX column (2.1 × 100mm x 1.7μm); Flow rate: 0.3mL/min; Mobile phase A and B are water and methnaol, respectively, both with 0.1% formic acid; Gradient elution: from A/B (95/5) to A/B (100/0) in 7min, kept for 4 min, then back to A/B (95/5) in 0.1 min, and maintained for additional 1.9 min (13min in total).; Injection volume: 10 μL
Num peaks: 2
217.12303 9378
233.15486 347341
Name: Ralox 35
PrecursorMZ: 337.2049
PrecursorType: [M+FA-H]-
IonMode: Negative
Formula: C18H28O3
SMILES: CC(C)(C)C1=CC(=CC(=C1O)C(C)(C)C)CCC(=O)OC
InChI: 
InChIKey: PXMJCECEFTYEKE-UHFFFAOYSA-N
RetentionTime: 7.486166
CCS: 
CollisionEnergy: 20-40 eV
InstrumentType: UPLC-QTOF-MS
Comment: PI: Cristina Nerin; Data collector: QiZhi Su, GUIA, University of Zaragoza, Spain; Collision energy: 20-40 V; Instrument: Waters HPLC-QTOF-MS (Xevo G2 QTof); Ionization: ESI; Deconvoluted by MS-DIAL; Column: Waters AtlantisTM premier BEH C18 AX column (2.1 × 100mm x 1.7μm); Flow rate: 0.3mL/min; Mobile phase A and B are water and methnaol, respectively, both with 0.1% formic acid; Gradient elution: from A/B (95/5) to A/B (100/0) in 7min, kept for 4 min, then back to A/B (95/5) in 0.1 min, and maintained for additional 1.9 min (13min in total).; Injection volume: 10 μL
Num peaks: 51
59.01551 164
71.05067 174
72.99294 128
73.02412 169
73.03074 623
79.9584 283
87.00712 384
91.05643 237
93.03552 159
96.95974 4909
98.95604 178
99.03898 173
99.0475 691
118.99492 179
119.05492 214
122.03796 136
123.07923 125
143.03735 200
149.05949 187
149.0948 288
149.10397 162
152.99901 202
169.9987 153
183.01192 12360
184.01956 1669
185.00345 235
185.02295 208
187.13049 149
197.02559 284
198.02667 187
205.1564 233
225.05508 138
241.12396 318
241.15176 158
259.13004 126
291.19086 525
292.19507 217
293.16769 272
293.1825 190
293.19571 157
297.14996 193
309.16159 226
309.17529 419
311.16727 2363
312.16245 309
325.18539 6780
326.17889 407
326.19501 422
327.20071 274
335.34503 183
337.20389 791
Name: Ralox 35
PrecursorMZ: 291.1962
PrecursorType: [M-H]-
IonMode: Negative
Formula: C18H28O3
SMILES: CC(C)(C)C1=CC(=CC(=C1O)C(C)(C)C)CCC(=O)OC
InChI: 
InChIKey: PXMJCECEFTYEKE-UHFFFAOYSA-N
RetentionTime: 7.493783
CCS: 
CollisionEnergy: 20-40 eV
InstrumentType: UPLC-QTOF-MS
Comment: PI: Cristina Nerin; Data collector: QiZhi Su, GUIA, University of Zaragoza, Spain; Collision energy: 20-40 V; Instrument: Waters HPLC-QTOF-MS (Xevo G2 QTof); Ionization: ESI; Deconvoluted by MS-DIAL; Column: Waters AtlantisTM premier BEH C18 AX column (2.1 × 100mm x 1.7μm); Flow rate: 0.3mL/min; Mobile phase A and B are water and methnaol, respectively, both with 0.1% formic acid; Gradient elution: from A/B (95/5) to A/B (100/0) in 7min, kept for 4 min, then back to A/B (95/5) in 0.1 min, and maintained for additional 1.9 min (13min in total).; Injection volume: 10 μL
Num peaks: 36
59.01199 138
73.0283 330
79.95909 265
83.05072 151
87.00624 145
87.04435 143
96.95995 4870
99.04595 557
111.08099 125
115.039 153
119.05408 191
122.03999 117
127.03711 215
137.07199 119
149.09596 766
152.99695 125
168.98944 161
170.00336 183
177.05608 121
181.15402 219
183.01198 11658
183.03465 389
184.01715 1676
184.03339 170
185.00148 165
185.00954 220
197.03081 527
198.03314 218
205.15497 151
220.14699 130
233.14467 136
241.12317 688
247.21898 121
255.22215 122
265.15482 145
291.20337 214
Name: "4-benzyl-2,6-di-tert-butyl-phenol"
PrecursorMZ: 295.2075
PrecursorType: [M-H]-
IonMode: Negative
Formula: C21H28O
SMILES: CC(C)(C)C1=CC(=CC(=C1O)C(C)(C)C)CC2=CC=CC=C2
InChI: 
InChIKey: ZAAQJFLUOUQAOG-UHFFFAOYSA-N
RetentionTime: 8.072933
CCS: 
CollisionEnergy: 20-40 eV
InstrumentType: UPLC-QTOF-MS
Comment: PI: Cristina Nerin; Data collector: QiZhi Su, GUIA, University of Zaragoza, Spain; Collision energy: 20-40 V; Instrument: Waters HPLC-QTOF-MS (Xevo G2 QTof); Ionization: ESI; Deconvoluted by MS-DIAL; Column: Waters AtlantisTM premier BEH C18 AX column (2.1 × 100mm x 1.7μm); Flow rate: 0.3mL/min; Mobile phase A and B are water and methnaol, respectively, both with 0.1% formic acid; Gradient elution: from A/B (95/5) to A/B (100/0) in 7min, kept for 4 min, then back to A/B (95/5) in 0.1 min, and maintained for additional 1.9 min (13min in total).; Injection volume: 10 μL
Num peaks: 52
71.04349 117
71.04978 111
83.04996 150
83.05588 150
91.05462 158
96.96001 3383
96.97487 3406
97.06672 148
119.04635 165
119.0525 156
119.05677 144
125.09794 116
125.11203 119
149.09718 2024
149.10555 2028
149.12263 105
150.09804 145
150.10626 158
152.07341 181
152.08589 175
163.1396 221
164.1167 125
169.9935 117
170.00598 129
183.01242 10187
184.01778 1934
185.01289 481
185.02275 495
197.01775 312
197.03479 288
205.15201 149
209.18048 125
231.16832 286
231.18184 275
233.1501 103
233.16637 104
237.22668 121
239.06642 141
239.07887 168
253.18449 107
255.23962 122
271.22125 177
271.24078 150
283.20908 129
283.23291 162
283.24802 246
283.26526 252
283.28189 145
293.1586 225
293.1821 291
295.20856 284
295.22513 228
Name: Irganox 1330
PrecursorMZ: 773.5891
PrecursorType: [M-H]-
IonMode: Negative
Formula: C54H78O3
SMILES: CC1=C(C(=C(C(=C1CC2=CC(=C(C(=C2)C(C)(C)C)O)C(C)(C)C)C)CC3=CC(=C(C(=C3)C(C)(C)C)O)C(C)(C)C)C)CC4=CC(=C(C(=C4)C(C)(C)C)O)C(C)(C)C
InChI: 
InChIKey: VSAWBBYYMBQKIK-UHFFFAOYSA-N
RetentionTime: 9.807117
CCS: 
CollisionEnergy: 20-40 eV
InstrumentType: UPLC-QTOF-MS
Comment: PI: Cristina Nerin; Data collector: QiZhi Su, GUIA, University of Zaragoza, Spain; Collision energy: 20-40 V; Instrument: Waters HPLC-QTOF-MS (Xevo G2 QTof); Ionization: ESI; Deconvoluted by MS-DIAL; Column: Waters AtlantisTM premier BEH C18 AX column (2.1 × 100mm x 1.7μm); Flow rate: 0.3mL/min; Mobile phase A and B are water and methnaol, respectively, both with 0.1% formic acid; Gradient elution: from A/B (95/5) to A/B (100/0) in 7min, kept for 4 min, then back to A/B (95/5) in 0.1 min, and maintained for additional 1.9 min (13min in total).; Injection volume: 10 μL
Num peaks: 7
96.95969 581
183.0078 444
183.02228 278
325.177 339
339.19934 216
773.58844 15810
773.65497 574
Name: Irganox 1330
PrecursorMZ: 773.5861
PrecursorType: [M-H]-
IonMode: Negative
Formula: C54H78O3
SMILES: CC1=C(C(=C(C(=C1CC2=CC(=C(C(=C2)C(C)(C)C)O)C(C)(C)C)C)CC3=CC(=C(C(=C3)C(C)(C)C)O)C(C)(C)C)C)CC4=CC(=C(C(=C4)C(C)(C)C)O)C(C)(C)C
InChI: 
InChIKey: VSAWBBYYMBQKIK-UHFFFAOYSA-N
RetentionTime: 9.833767
CCS: 
CollisionEnergy: 20-40 eV
InstrumentType: UPLC-QTOF-MS
Comment: PI: Cristina Nerin; Data collector: QiZhi Su, GUIA, University of Zaragoza, Spain; Collision energy: 20-40 V; Instrument: Waters HPLC-QTOF-MS (Xevo G2 QTof); Ionization: ESI; Deconvoluted by MS-DIAL; Column: Waters AtlantisTM premier BEH C18 AX column (2.1 × 100mm x 1.7μm); Flow rate: 0.3mL/min; Mobile phase A and B are water and methnaol, respectively, both with 0.1% formic acid; Gradient elution: from A/B (95/5) to A/B (100/0) in 7min, kept for 4 min, then back to A/B (95/5) in 0.1 min, and maintained for additional 1.9 min (13min in total).; Injection volume: 10 μL
Num peaks: 5
183.00919 914
183.01846 656
325.18823 435
339.2041 322
773.58972 21698
Name: "L-ascorbic acid,"
PrecursorMZ: 175.0242
PrecursorType: [M-H]-
IonMode: Negative
Formula: C6H8O6
SMILES: C(C(C1C(=C(C(=O)O1)O)O)O)O
InChI: 
InChIKey: CIWBSHSKHKDKBQ-JLAZNSOCSA-N
RetentionTime: 1.2597
CCS: 
CollisionEnergy: 20-40 eV
InstrumentType: UPLC-QTOF-MS
Comment: PI: Cristina Nerin; Data collector: QiZhi Su, GUIA, University of Zaragoza, Spain; Collision energy: 20-40 V; Instrument: Waters HPLC-QTOF-MS (Xevo G2 QTof); Ionization: ESI; Deconvoluted by MS-DIAL; Column: Waters AtlantisTM premier BEH C18 AX column (2.1 × 100mm x 1.7μm); Flow rate: 0.3mL/min; Mobile phase A and B are water and methnaol, respectively, both with 0.1% formic acid; Gradient elution: from A/B (95/5) to A/B (100/0) in 7min, kept for 4 min, then back to A/B (95/5) in 0.1 min, and maintained for additional 1.9 min (13min in total).; Injection volume: 10 μL
Num peaks: 14
59.01315 168
71.00595 403
71.01308 410
71.02642 380
83.01517 41
87.00842 2566
88.00658 89
114.99815 1435
115.00617 1435
115.01447 1435
116.00183 84
116.01192 86
175.02525 3484
175.04628 88
Name: "L-ascorbic acid,"
PrecursorMZ: 351.0573
PrecursorType: [2M-H]-
IonMode: Negative
Formula: C6H8O6
SMILES: C(C(C1C(=C(C(=O)O1)O)O)O)O
InChI: 
InChIKey: CIWBSHSKHKDKBQ-JLAZNSOCSA-N
RetentionTime: 1.267317
CCS: 
CollisionEnergy: 20-40 eV
InstrumentType: UPLC-QTOF-MS
Comment: PI: Cristina Nerin; Data collector: QiZhi Su, GUIA, University of Zaragoza, Spain; Collision energy: 20-40 V; Instrument: Waters HPLC-QTOF-MS (Xevo G2 QTof); Ionization: ESI; Deconvoluted by MS-DIAL; Column: Waters AtlantisTM premier BEH C18 AX column (2.1 × 100mm x 1.7μm); Flow rate: 0.3mL/min; Mobile phase A and B are water and methnaol, respectively, both with 0.1% formic acid; Gradient elution: from A/B (95/5) to A/B (100/0) in 7min, kept for 4 min, then back to A/B (95/5) in 0.1 min, and maintained for additional 1.9 min (13min in total).; Injection volume: 10 μL
Num peaks: 29
59.01299 166
59.01569 166
71.00887 397
71.0141 397
73.02666 39
83.01237 51
85.02066 40
85.02553 40
85.03242 40
87.00895 2700
88.00852 91
88.01402 91
115.00259 1494
115.01255 1494
116.00712 98
175.02641 3497
176.01549 158
176.02805 174
176.03987 155
177.0228 56
212.96284 77
212.97052 84
212.97861 84
228.93481 79
228.95441 70
328.96918 62
328.98901 70
351.05896 1113
351.09018 146
Name: Ac-Val-OH
PrecursorMZ: 158.082
PrecursorType: [M-H]-
IonMode: Negative
Formula: C7H13NO3
SMILES: CC(C)C(C(=O)O)NC(=O)C
InChI: 
InChIKey: IHYJTAOFMMMOPX-LURJTMIESA-N
RetentionTime: 3.9232
CCS: 
CollisionEnergy: 20-40 eV
InstrumentType: UPLC-QTOF-MS
Comment: PI: Cristina Nerin; Data collector: QiZhi Su, GUIA, University of Zaragoza, Spain; Collision energy: 20-40 V; Instrument: Waters HPLC-QTOF-MS (Xevo G2 QTof); Ionization: ESI; Deconvoluted by MS-DIAL; Column: Waters AtlantisTM premier BEH C18 AX column (2.1 × 100mm x 1.7μm); Flow rate: 0.3mL/min; Mobile phase A and B are water and methnaol, respectively, both with 0.1% formic acid; Gradient elution: from A/B (95/5) to A/B (100/0) in 7min, kept for 4 min, then back to A/B (95/5) in 0.1 min, and maintained for additional 1.9 min (13min in total).; Injection volume: 10 μL
Num peaks: 24
73.02983 70
73.04001 57
83.93051 73
83.93614 73
85.03232 50
87.00921 73
87.04082 62
87.04591 63
96.97644 49
98.01657 48
99.04757 60
101.02234 83
111.0467 45
114.08825 108
116.07178 4476
116.93194 45
117.07635 100
127.03748 88
127.87197 56
142.0325 59
145.04225 53
154.83778 50
158.07953 730
158.08803 329
Name: "Bisphenol F Bis(2,3-dihydroxypropyl) Ether"
PrecursorMZ: 393.1551
PrecursorType: [M+FA-H]-
IonMode: Negative
Formula: C19H24O6
SMILES: C1=CC(=CC=C1CC2=CC=C(C=C2)OCC(CO)O)OCC(CO)O
InChI: 
InChIKey: VGJRHUPDMVWBFM-UHFFFAOYSA-N
RetentionTime: 5.15815
CCS: 
CollisionEnergy: 20-40 eV
InstrumentType: UPLC-QTOF-MS
Comment: PI: Cristina Nerin; Data collector: QiZhi Su, GUIA, University of Zaragoza, Spain; Collision energy: 20-40 V; Instrument: Waters HPLC-QTOF-MS (Xevo G2 QTof); Ionization: ESI; Deconvoluted by MS-DIAL; Column: Waters AtlantisTM premier BEH C18 AX column (2.1 × 100mm x 1.7μm); Flow rate: 0.3mL/min; Mobile phase A and B are water and methnaol, respectively, both with 0.1% formic acid; Gradient elution: from A/B (95/5) to A/B (100/0) in 7min, kept for 4 min, then back to A/B (95/5) in 0.1 min, and maintained for additional 1.9 min (13min in total).; Injection volume: 10 μL
Num peaks: 20
112.98389 305
115.03727 100
115.05106 105
117.01991 77
171.10164 261
171.11839 210
197.05074 79
199.07797 1038
200.08156 128
273.11398 738
274.11542 88
347.14685 1558
348.13895 172
348.15012 278
348.16364 248
383.11548 192
383.13342 131
393.15564 6792
393.18564 516
393.21576 141
Name: Bisphenol B
PrecursorMZ: 241.1239
PrecursorType: [M-H]-
IonMode: Negative
Formula: C16H18O2
SMILES: CCC(C)(C1=CC=C(C=C1)O)C2=CC=C(C=C2)O
InChI: 
InChIKey: HTVITOHKHWFJKO-UHFFFAOYSA-N
RetentionTime: 6.312634
CCS: 
CollisionEnergy: 20-40 eV
InstrumentType: UPLC-QTOF-MS
Comment: PI: Cristina Nerin; Data collector: QiZhi Su, GUIA, University of Zaragoza, Spain; Collision energy: 20-40 V; Instrument: Waters HPLC-QTOF-MS (Xevo G2 QTof); Ionization: ESI; Deconvoluted by MS-DIAL; Column: Waters AtlantisTM premier BEH C18 AX column (2.1 × 100mm x 1.7μm); Flow rate: 0.3mL/min; Mobile phase A and B are water and methnaol, respectively, both with 0.1% formic acid; Gradient elution: from A/B (95/5) to A/B (100/0) in 7min, kept for 4 min, then back to A/B (95/5) in 0.1 min, and maintained for additional 1.9 min (13min in total).; Injection volume: 10 μL
Num peaks: 35
93.02961 245
93.03814 244
112.98328 87
112.99142 91
117.02576 97
117.03867 93
132.05455 95
132.06683 95
147.05869 246
147.07475 603
147.08357 643
147.09128 618
196.04219 179
196.05605 193
197.05357 317
197.06366 326
197.07823 283
198.0611 107
198.07616 115
199.07121 326
199.0826 353
199.08937 244
211.07668 5607
212.08368 5367
213.0838 573
226.04649 134
226.05937 188
226.07278 222
226.10318 354
226.11885 239
227.06334 98
227.08195 127
227.09691 166
227.11185 155
241.12314 8496
Name: Bisphenol B
PrecursorMZ: 483.2533
PrecursorType: [2M-H]-
IonMode: Negative
Formula: C16H18O2
SMILES: CCC(C)(C1=CC=C(C=C1)O)C2=CC=C(C=C2)O
InChI: 
InChIKey: HTVITOHKHWFJKO-UHFFFAOYSA-N
RetentionTime: 6.312634
CCS: 
CollisionEnergy: 20-40 eV
InstrumentType: UPLC-QTOF-MS
Comment: PI: Cristina Nerin; Data collector: QiZhi Su, GUIA, University of Zaragoza, Spain; Collision energy: 20-40 V; Instrument: Waters HPLC-QTOF-MS (Xevo G2 QTof); Ionization: ESI; Deconvoluted by MS-DIAL; Column: Waters AtlantisTM premier BEH C18 AX column (2.1 × 100mm x 1.7μm); Flow rate: 0.3mL/min; Mobile phase A and B are water and methnaol, respectively, both with 0.1% formic acid; Gradient elution: from A/B (95/5) to A/B (100/0) in 7min, kept for 4 min, then back to A/B (95/5) in 0.1 min, and maintained for additional 1.9 min (13min in total).; Injection volume: 10 μL
Num peaks: 29
93.02961 245
93.03814 244
147.05869 246
147.07475 603
147.08357 643
147.09128 618
196.05605 193
197.05357 317
197.06366 326
197.07823 283
199.07121 326
199.0826 353
199.08937 244
211.07668 5607
212.08368 5367
213.0838 573
226.05937 188
226.07278 222
226.10318 354
226.11885 239
241.12314 18563
242.12587 2342
243.12183 221
243.14293 216
263.09167 359
263.11563 462
325.06683 247
481.23895 313
483.25046 395
Name: "L-ascorbic acid,"
PrecursorMZ: 175.0247
PrecursorType: [M-H]-
IonMode: Negative
Formula: C6H8O6
SMILES: C(C(C1C(=C(C(=O)O1)O)O)O)O
InChI: 
InChIKey: CIWBSHSKHKDKBQ-JLAZNSOCSA-N
RetentionTime: 0.8709
CCS: 
CollisionEnergy: 20-40 eV
InstrumentType: UPLC-QTOF-MS
Comment: PI: Cristina Nerin; Data collector: QiZhi Su, GUIA, University of Zaragoza, Spain; Collision energy: 20-40 V; Instrument: Waters HPLC-QTOF-MS (Xevo G2 QTof); Ionization: ESI; Deconvoluted by MS-DIAL; Column: Waters AtlantisTM premier BEH C18 AX column (2.1 × 100mm x 1.7μm); Flow rate: 0.3mL/min; Mobile phase A and B are water and methnaol, respectively, both with 0.1% formic acid; Gradient elution: from A/B (95/5) to A/B (100/0) in 7min, kept for 4 min, then back to A/B (95/5) in 0.1 min, and maintained for additional 1.9 min (13min in total).; Injection volume: 10 μL
Num peaks: 131
59.01204 136
59.01687 136
60.02139 31
61.01474 65
67.0184 109
67.02284 109
71.01241 235
71.02077 235
72.99567 37
73.01633 26
78.95612 71
78.96496 70
78.97359 82
83.01175 687
84.00999 38
84.98841 32
85.00593 83
85.01553 373
85.02935 370
85.03764 334
86.00596 95
86.01126 107
86.01607 107
87.00886 2358
88.00919 56
88.01479 57
95.01402 1012
95.02688 1001
95.04543 47
96.01254 54
96.02172 58
96.95433 60
96.96096 64
96.9892 29
97.01919 39
97.03548 26
99.00464 27
99.01112 37
99.01711 37
105.01449 46
110.03461 66
111.00846 836
111.02634 794
111.03326 281
112.00924 108
112.98572 66
112.99786 138
113.0023 347
113.01558 424
113.02158 430
113.0278 398
113.03587 342
113.04271 119
114.95008 40
114.96771 29
115.00306 1022
115.01768 975
115.02596 81
116.0044 54
116.00977 48
116.0175 46
121.00048 31
122.96923 27
125.029 24
126.9836 100
127.00006 177
127.00843 219
127.02462 130
129.01857 94
129.03162 121
129.04091 59
130.01115 119
130.02676 127
131.00848 244
131.02391 244
135.03249 24
136.01358 64
136.02747 70
137.02176 165
137.0405 76
138.00104 68
138.02496 161
138.04106 110
138.95959 25
139.00267 1915
139.01253 2048
139.02182 2027
139.02965 809
139.03952 451
140.01068 102
140.02124 129
140.9892 61
141.00569 78
141.01155 88
141.02592 30
143.00841 24
145.00197 45
145.01384 28
152.01328 55
152.02724 68
152.03488 49
152.99719 44
153.01122 133
153.01892 126
153.02753 142
153.04105 53
154.02681 46
154.03775 47
154.05043 31
154.99414 68
155.0014 115
155.01096 139
155.02292 132
156.01151 97
156.02116 101
156.03801 27
157.00587 314
157.0127 314
157.01935 354
157.03386 167
158.01808 30
159.0204 36
161.02467 31
161.04277 34
170.021 24
171.02347 50
171.03487 36
173.02817 57
173.04063 41
175.02318 1775
175.40744 35
Name: Diflufenican
PrecursorMZ: 393.0662
PrecursorType: [M-H]-
IonMode: Negative
Formula: C19H11F5N2O2
SMILES: C1=CC(=CC(=C1)OC2=C(C=CC=N2)C(=O)NC3=C(C=C(C=C3)F)F)C(F)(F)F
InChI: 
InChIKey: WYEHFWKAOXOVJD-UHFFFAOYSA-N
RetentionTime: 7.22365
CCS: 
CollisionEnergy: 20-40 eV
InstrumentType: UPLC-QTOF-MS
Comment: PI: Cristina Nerin; Data collector: QiZhi Su, GUIA, University of Zaragoza, Spain; Collision energy: 20-40 V; Instrument: Waters HPLC-QTOF-MS (Xevo G2 QTof); Ionization: ESI; Deconvoluted by MS-DIAL; Column: Waters AtlantisTM premier BEH C18 AX column (2.1 × 100mm x 1.7μm); Flow rate: 0.3mL/min; Mobile phase A and B are water and methnaol, respectively, both with 0.1% formic acid; Gradient elution: from A/B (95/5) to A/B (100/0) in 7min, kept for 4 min, then back to A/B (95/5) in 0.1 min, and maintained for additional 1.9 min (13min in total).; Injection volume: 10 μL
Num peaks: 76
96.01706 624
96.02629 640
161.01892 2075
161.02562 2049
165.04494 2216
166.03821 779
185.05165 40456
186.04877 3424
186.05965 3415
192.02437 5631
193.02419 612
193.03232 598
212.03146 28464
213.03387 2438
213.04953 2532
229.03137 1339
229.04292 1611
230.02298 695
232.03801 8542
232.06322 607
233.03206 809
233.04364 974
233.05634 664
249.03674 912
249.05266 672
250.02069 695
250.03923 891
250.0495 599
251.02463 2162
251.03781 2159
252.04407 59253
253.04677 5989
257.05322 1091
263.04153 611
269.05139 4018
270.03586 3674
270.05588 2604
272.05023 40329
273.05243 4475
285.04776 1274
288.04822 2606
289.05841 11576
290.05545 1629
290.06873 1382
297.06375 1616
302.05359 1420
302.0672 1508
303.05743 948
303.0766 824
305.05109 1283
307.03894 770
307.05313 836
309.06436 14676
310.04803 1749
310.06573 2520
310.07858 2231
324.03894 2185
324.05655 2356
325.05872 9320
326.06168 1837
327.04883 593
327.0643 869
328.0611 2823
328.08313 770
329.07034 24608
330.07321 3536
333.05106 1163
335.04156 1669
335.05551 1468
345.06485 1309
353.05423 15185
354.05548 2527
355.05536 813
373.05975 5228
374.06122 911
374.07504 827
Name: "1,4-Cyclohexanedicarboxylic acid"
PrecursorMZ: 171.0658
PrecursorType: [M-H]-
IonMode: Negative
Formula: C8H12O4
SMILES: C1CC(CCC1C(=O)O)C(=O)O
InChI: 
InChIKey: PXGZQGDTEZPERC-UHFFFAOYSA-N
RetentionTime: 4.1979
CCS: 
CollisionEnergy: 20-40 eV
InstrumentType: UPLC-QTOF-MS
Comment: PI: Cristina Nerin; Data collector: QiZhi Su, GUIA, University of Zaragoza, Spain; Collision energy: 20-40 V; Instrument: Waters HPLC-QTOF-MS (Xevo G2 QTof); Ionization: ESI; Deconvoluted by MS-DIAL; Column: Waters AtlantisTM premier BEH C18 AX column (2.1 × 100mm x 1.7μm); Flow rate: 0.3mL/min; Mobile phase A and B are water and methnaol, respectively, both with 0.1% formic acid; Gradient elution: from A/B (95/5) to A/B (100/0) in 7min, kept for 4 min, then back to A/B (95/5) in 0.1 min, and maintained for additional 1.9 min (13min in total).; Injection volume: 10 μL
Num peaks: 14
79.95639 29
111.01653 30
111.02463 30
125.04897 62
125.06085 69
125.06935 62
127.07619 2606
128.0726 153
128.08841 153
158.92343 27
158.92958 27
171.05969 417
171.07011 554
171.08536 31
Name: "3-(3,5-Di-tert-butyl-4-hydroxyphenyl)propionic acid"
PrecursorMZ: 277.1818
PrecursorType: [M-H]-
IonMode: Negative
Formula: C17H26O3
SMILES: CC(C)(C)C1=CC(=CC(=C1O)C(C)(C)C)CCC(=O)O
InChI: 
InChIKey: WPMYUUITDBHVQZ-UHFFFAOYSA-N
RetentionTime: 7.43685
CCS: 
CollisionEnergy: 20-40 eV
InstrumentType: UPLC-QTOF-MS
Comment: PI: Cristina Nerin; Data collector: QiZhi Su, GUIA, University of Zaragoza, Spain; Collision energy: 20-40 V; Instrument: Waters HPLC-QTOF-MS (Xevo G2 QTof); Ionization: ESI; Deconvoluted by MS-DIAL; Column: Waters AtlantisTM premier BEH C18 AX column (2.1 × 100mm x 1.7μm); Flow rate: 0.3mL/min; Mobile phase A and B are water and methnaol, respectively, both with 0.1% formic acid; Gradient elution: from A/B (95/5) to A/B (100/0) in 7min, kept for 4 min, then back to A/B (95/5) in 0.1 min, and maintained for additional 1.9 min (13min in total).; Injection volume: 10 μL
Num peaks: 22
59.01372 7063
89.02414 312
89.0381 322
96.96037 2726
119.05074 1097
175.11302 1124
176.11926 439
183.01224 5588
184.0166 746
205.16013 19231
206.16267 2171
206.17567 2236
221.1073 478
221.11621 506
221.12694 522
231.16747 778
231.18364 785
233.19217 6788
234.19312 941
234.20241 969
234.21393 496
277.18152 28976
Name: "1,2-Bis(3,5-di-tert-butyl-4-hydroxyhydrocinnamoyl)hydrazine"
PrecursorMZ: 551.3856
PrecursorType: [M-H]-
IonMode: Negative
Formula: C34H52N2O4
SMILES: CC(C)(C)C1=CC(=CC(=C1O)C(C)(C)C)CCC(=O)NNC(=O)CCC2=CC(=C(C(=C2)C(C)(C)C)O)C(C)(C)C
InChI: 
InChIKey: HCILJBJJZALOAL-UHFFFAOYSA-N
RetentionTime: 7.6924
CCS: 
CollisionEnergy: 20-40 eV
InstrumentType: UPLC-QTOF-MS
Comment: PI: Cristina Nerin; Data collector: QiZhi Su, GUIA, University of Zaragoza, Spain; Collision energy: 20-40 V; Instrument: Waters HPLC-QTOF-MS (Xevo G2 QTof); Ionization: ESI; Deconvoluted by MS-DIAL; Column: Waters AtlantisTM premier BEH C18 AX column (2.1 × 100mm x 1.7μm); Flow rate: 0.3mL/min; Mobile phase A and B are water and methnaol, respectively, both with 0.1% formic acid; Gradient elution: from A/B (95/5) to A/B (100/0) in 7min, kept for 4 min, then back to A/B (95/5) in 0.1 min, and maintained for additional 1.9 min (13min in total).; Injection volume: 10 μL
Num peaks: 7
73.04058 15467
115.05119 82930
259.17068 5359
291.20688 9651
333.21823 124634
334.2211 22068
551.38531 242831
Name: Isophtalamide
PrecursorMZ: 163.051
PrecursorType: [M-H]-
IonMode: Negative
Formula: C8H8N2O2
SMILES: C1=CC(=CC(=C1)C(=O)N)C(=O)N
InChI: 
InChIKey: QZUPTXGVPYNUIT-UHFFFAOYSA-N
RetentionTime: 0.94705
CCS: 
CollisionEnergy: 20-40 eV
InstrumentType: UPLC-QTOF-MS
Comment: PI: Cristina Nerin; Data collector: QiZhi Su, GUIA, University of Zaragoza, Spain; Collision energy: 20-40 V; Instrument: Waters HPLC-QTOF-MS (Xevo G2 QTof); Ionization: ESI; Deconvoluted by MS-DIAL; Column: Waters AtlantisTM premier BEH C18 AX column (2.1 × 100mm x 1.7μm); Flow rate: 0.3mL/min; Mobile phase A and B are water and methnaol, respectively, both with 0.1% formic acid; Gradient elution: from A/B (95/5) to A/B (100/0) in 7min, kept for 4 min, then back to A/B (95/5) in 0.1 min, and maintained for additional 1.9 min (13min in total).; Injection volume: 10 μL
Num peaks: 64
62.96417 28
66.62463 20
67.01155 26
71.01057 44
71.84345 32
73.03022 58
74.02762 21
74.99924 21
78.95705 238
79.95777 30
83.01375 33
84.93916 31
87.00725 19
87.05704 27
95.01241 20
96.95488 166
96.96168 194
96.97001 202
96.97906 20
98.95737 19
99.9153 24
100.73169 34
100.93106 26
101.01567 31
101.0362 28
109.02277 23
111.02319 47
113.02102 26
116.07679 37
116.9264 29
117.89837 33
118.03014 36
120.96423 22
124.94492 20
125.01704 30
127.1031 25
129.90784 30
129.99205 19
129.99902 20
130.03215 28
132.91214 21
134.05017 21
138.97427 36
141.80753 30
142.8105 25
143.0414 21
146.92892 21
148.95111 29
149.01443 20
149.05707 20
150.94713 20
150.97858 63
151.04172 19
152.99278 27
154.01433 39
154.85875 27
156.87788 23
158.91673 98
158.93443 37
159.89139 48
161.04866 28
163.04567 386
163.06004 92
163.10735 23
Name: "Bisphenol A (2,3-dihydroxypropyl) glycidyl ether (BADGE-glycidyl)"
PrecursorMZ: 715.3514
PrecursorType: [2M-H]-
IonMode: Negative
Formula: C21H26O5
SMILES: CC(C)(C1=CC=C(C=C1)OCC2CO2)C3=CC=C(C=C3)OCC(CO)O
InChI: 
InChIKey: NBLIPZBCGXIEFO-UHFFFAOYSA-N
RetentionTime: 6.316534
CCS: 
CollisionEnergy: 20-40 eV
InstrumentType: UPLC-QTOF-MS
Comment: PI: Cristina Nerin; Data collector: QiZhi Su, GUIA, University of Zaragoza, Spain; Collision energy: 20-40 V; Instrument: Waters HPLC-QTOF-MS (Xevo G2 QTof); Ionization: ESI; Deconvoluted by MS-DIAL; Column: Waters AtlantisTM premier BEH C18 AX column (2.1 × 100mm x 1.7μm); Flow rate: 0.3mL/min; Mobile phase A and B are water and methnaol, respectively, both with 0.1% formic acid; Gradient elution: from A/B (95/5) to A/B (100/0) in 7min, kept for 4 min, then back to A/B (95/5) in 0.1 min, and maintained for additional 1.9 min (13min in total).; Injection volume: 10 μL
Num peaks: 12
112.98533 280
189.05167 258
189.06273 267
211.07635 470
283.13348 3380
284.13913 617
403.1756 19149
404.16901 3451
404.18613 3571
405.18033 516
715.33203 2220
715.36328 1937
Name: "Bisphenol A (2,3-dihydroxypropyl) glycidyl ether (BADGE-glycidyl)"
PrecursorMZ: 761.3503
PrecursorType: [2M+FA-H]-
IonMode: Negative
Formula: C21H26O5
SMILES: CC(C)(C1=CC=C(C=C1)OCC2CO2)C3=CC=C(C=C3)OCC(CO)O
InChI: 
InChIKey: NBLIPZBCGXIEFO-UHFFFAOYSA-N
RetentionTime: 6.316534
CCS: 
CollisionEnergy: 20-40 eV
InstrumentType: UPLC-QTOF-MS
Comment: PI: Cristina Nerin; Data collector: QiZhi Su, GUIA, University of Zaragoza, Spain; Collision energy: 20-40 V; Instrument: Waters HPLC-QTOF-MS (Xevo G2 QTof); Ionization: ESI; Deconvoluted by MS-DIAL; Column: Waters AtlantisTM premier BEH C18 AX column (2.1 × 100mm x 1.7μm); Flow rate: 0.3mL/min; Mobile phase A and B are water and methnaol, respectively, both with 0.1% formic acid; Gradient elution: from A/B (95/5) to A/B (100/0) in 7min, kept for 4 min, then back to A/B (95/5) in 0.1 min, and maintained for additional 1.9 min (13min in total).; Injection volume: 10 μL
Num peaks: 17
112.98533 280
189.05167 258
189.06273 267
211.07635 470
283.13348 3380
284.13913 617
403.1756 19149
404.16901 3451
404.18613 3571
405.18033 516
715.33203 2532
715.36328 2936
716.34375 897
716.37854 472
717.34485 344
761.35223 8717
761.41974 295
Name: "Bisphenol A (2,3-dihydroxypropyl) glycidyl ether (BADGE-glycidyl)"
PrecursorMZ: 403.1768
PrecursorType: [M+FA-H]-
IonMode: Negative
Formula: C21H26O5
SMILES: CC(C)(C1=CC=C(C=C1)OCC2CO2)C3=CC=C(C=C3)OCC(CO)O
InChI: 
InChIKey: NBLIPZBCGXIEFO-UHFFFAOYSA-N
RetentionTime: 6.32035
CCS: 
CollisionEnergy: 20-40 eV
InstrumentType: UPLC-QTOF-MS
Comment: PI: Cristina Nerin; Data collector: QiZhi Su, GUIA, University of Zaragoza, Spain; Collision energy: 20-40 V; Instrument: Waters HPLC-QTOF-MS (Xevo G2 QTof); Ionization: ESI; Deconvoluted by MS-DIAL; Column: Waters AtlantisTM premier BEH C18 AX column (2.1 × 100mm x 1.7μm); Flow rate: 0.3mL/min; Mobile phase A and B are water and methnaol, respectively, both with 0.1% formic acid; Gradient elution: from A/B (95/5) to A/B (100/0) in 7min, kept for 4 min, then back to A/B (95/5) in 0.1 min, and maintained for additional 1.9 min (13min in total).; Injection volume: 10 μL
Num peaks: 9
112.99233 281
189.05435 256
189.06471 267
211.06856 459
211.08363 352
283.13205 3204
284.13562 571
284.15735 497
403.17529 22578
Name: Curcumine
PrecursorMZ: 367.1185
PrecursorType: [M-H]-
IonMode: Negative
Formula: C21H20O6
SMILES: COC1=C(C=CC(=C1)C=CC(=O)CC(=O)C=CC2=CC(=C(C=C2)O)OC)O
InChI: 
InChIKey: VFLDPWHFBUODDF-FCXRPNKRSA-N
RetentionTime: 6.529783
CCS: 
CollisionEnergy: 20-40 eV
InstrumentType: UPLC-QTOF-MS
Comment: PI: Cristina Nerin; Data collector: QiZhi Su, GUIA, University of Zaragoza, Spain; Collision energy: 20-40 V; Instrument: Waters HPLC-QTOF-MS (Xevo G2 QTof); Ionization: ESI; Deconvoluted by MS-DIAL; Column: Waters AtlantisTM premier BEH C18 AX column (2.1 × 100mm x 1.7μm); Flow rate: 0.3mL/min; Mobile phase A and B are water and methnaol, respectively, both with 0.1% formic acid; Gradient elution: from A/B (95/5) to A/B (100/0) in 7min, kept for 4 min, then back to A/B (95/5) in 0.1 min, and maintained for additional 1.9 min (13min in total).; Injection volume: 10 μL
Num peaks: 75
93.0323 70
103.03615 40
103.05096 38
114.04763 72
114.05247 61
115.05069 284
115.05669 282
117.0314 461
117.03691 476
117.0537 331
118.01588 62
118.0325 111
119.04952 2665
119.06704 3300
119.08601 39
121.04234 79
121.06004 69
121.07235 56
129.05399 248
133.02397 226
133.03181 376
135.02991 142
135.04221 147
144.93993 40
145.03018 3651
147.03961 91
147.0477 86
147.05672 78
149.07677 1702
150.05595 142
150.06789 242
157.03613 82
159.03006 359
159.04491 189
160.01648 3001
160.03371 1818
161.01622 1103
161.02435 1244
161.04024 445
161.0571 312
161.07208 334
163.01544 96
163.0256 208
163.03329 221
163.04715 222
174.9393 44
174.95651 39
175.03893 1431
176.04425 413
176.06117 1436
187.03952 407
191.06248 73
191.07249 243
191.08789 741
191.10426 266
191.11279 194
193.02319 91
201.04134 169
202.04654 322
203.03172 113
203.04854 97
228.04475 45
241.03555 111
241.04922 96
256.07355 95
307.08713 171
337.10623 513
337.1575 68
338.08459 86
344.07327 94
344.09283 57
359.04312 81
367.11499 3325
367.14447 456
367.17001 39
Name: 9-phenanthrol
PrecursorMZ: 193.0657
PrecursorType: [M-H]-
IonMode: Negative
Formula: C14H10O
SMILES: C1=CC=C2C(=C1)C=C(C3=CC=CC=C23)O
InChI: 
InChIKey: DZKIUEHLEXLYKM-UHFFFAOYSA-N
RetentionTime: 6.713017
CCS: 
CollisionEnergy: 20-40 eV
InstrumentType: UPLC-QTOF-MS
Comment: PI: Cristina Nerin; Data collector: QiZhi Su, GUIA, University of Zaragoza, Spain; Collision energy: 20-40 V; Instrument: Waters HPLC-QTOF-MS (Xevo G2 QTof); Ionization: ESI; Deconvoluted by MS-DIAL; Column: Waters AtlantisTM premier BEH C18 AX column (2.1 × 100mm x 1.7μm); Flow rate: 0.3mL/min; Mobile phase A and B are water and methnaol, respectively, both with 0.1% formic acid; Gradient elution: from A/B (95/5) to A/B (100/0) in 7min, kept for 4 min, then back to A/B (95/5) in 0.1 min, and maintained for additional 1.9 min (13min in total).; Injection volume: 10 μL
Num peaks: 7
89.02496 946
89.03615 943
161.03566 395
165.07129 5628
166.07158 708
166.08128 716
193.06618 35542
Name: Bisphenol A bis(3-chloro-2-hydroxypropyl) ether
PrecursorMZ: 869.2363
PrecursorType: [2M+FA-H]-
IonMode: Negative
Formula: C21H26Cl2O4
SMILES: CC(C)(C1=CC=C(C=C1)OCC(CCl)O)C2=CC=C(C=C2)OCC(CCl)O
InChI: 
InChIKey: PTCFDJRJOGPUFE-UHFFFAOYSA-N
RetentionTime: 7.044233
CCS: 
CollisionEnergy: 20-40 eV
InstrumentType: UPLC-QTOF-MS
Comment: PI: Cristina Nerin; Data collector: QiZhi Su, GUIA, University of Zaragoza, Spain; Collision energy: 20-40 V; Instrument: Waters HPLC-QTOF-MS (Xevo G2 QTof); Ionization: ESI; Deconvoluted by MS-DIAL; Column: Waters AtlantisTM premier BEH C18 AX column (2.1 × 100mm x 1.7μm); Flow rate: 0.3mL/min; Mobile phase A and B are water and methnaol, respectively, both with 0.1% formic acid; Gradient elution: from A/B (95/5) to A/B (100/0) in 7min, kept for 4 min, then back to A/B (95/5) in 0.1 min, and maintained for additional 1.9 min (13min in total).; Injection volume: 10 μL
Num peaks: 79
79.94996 45
80.97533 21
114.98348 24
115.00231 23
116.01362 44
128.02643 42
128.03384 42
133.06117 21
135.04333 27
150.03664 22
174.07549 28
179.10272 38
179.1163 34
183.55721 80
184.0612 43
185.03497 75
185.04895 32
185.06378 31
186.04729 55
186.0555 63
186.06879 62
191.063 30
210.03262 39
217.15822 21
218.98853 31
218.99615 31
221.13255 27
242.9442 24
242.95662 26
245.0717 24
249.10571 25
249.19044 26
265.05563 39
265.06924 24
269.02707 20
272.05829 41
272.07092 197
273.07773 40
277.05441 36
277.07736 31
277.08966 65
294.0463 124
294.06082 96
300.06961 64
340.07245 46
340.10309 45
341.241 20
360.08087 36
360.10391 21
367.13281 39
375.09863 46
377.10706 43
377.12161 25
395.23178 20
395.2489 20
397.23444 28
411.10648 78
447.08682 1604
448.08685 46
449.08517 1585
449.1449 22
451.08289 432
457.17621 324
457.27744 21
459.18433 44
460.1153 139
460.19113 26
462.10242 58
462.12012 84
462.14487 176
529.0907 26
595.20917 20
711.24127 38
803.20239 25
824.258 22
825.72253 20
826.21954 24
869.24268 1950
869.30792 119
Name: "1,4-Cyclohexanedicarboxylic acid"
PrecursorMZ: 171.0662
PrecursorType: [M-H]-
IonMode: Negative
Formula: C8H12O4
SMILES: C1CC(CCC1C(=O)O)C(=O)O
InChI: 
InChIKey: PXGZQGDTEZPERC-UHFFFAOYSA-N
RetentionTime: 4.045117
CCS: 
CollisionEnergy: 20-40 eV
InstrumentType: UPLC-QTOF-MS
Comment: PI: Cristina Nerin; Data collector: QiZhi Su, GUIA, University of Zaragoza, Spain; Collision energy: 20-40 V; Instrument: Waters HPLC-QTOF-MS (Xevo G2 QTof); Ionization: ESI; Deconvoluted by MS-DIAL; Column: Waters AtlantisTM premier BEH C18 AX column (2.1 × 100mm x 1.7μm); Flow rate: 0.3mL/min; Mobile phase A and B are water and methnaol, respectively, both with 0.1% formic acid; Gradient elution: from A/B (95/5) to A/B (100/0) in 7min, kept for 4 min, then back to A/B (95/5) in 0.1 min, and maintained for additional 1.9 min (13min in total).; Injection volume: 10 μL
Num peaks: 65
54.06096 30
54.61136 23
56.14945 22
60.89958 24
61.87273 24
71.00988 27
71.0495 20
78.96233 260
87.02224 33
95.04773 21
96.96265 55
96.9684 87
96.97726 39
100.92667 24
100.93695 20
102.90924 20
105.34673 34
108.46703 20
111.01775 22
112.01043 20
116.92716 20
116.94157 21
117.92913 74
118.92495 22
122.02168 23
124.00932 21
125.02821 46
125.04202 30
125.06943 49
125.87356 27
127.07683 1843
127.09955 22
127.87359 21
128.04889 26
128.07217 30
128.08493 86
132.89867 20
134.99698 22
136.02696 33
137.03139 25
137.0959 42
140.91678 39
144.9846 21
147.33682 35
148.99155 20
150.03915 19
151.03418 30
151.88728 36
156.07513 20
157.23035 33
158.92067 66
158.93495 47
160.85286 20
162.83853 74
163.04881 31
165.02299 50
166.05716 20
167.03271 38
169.01994 23
170.05525 36
171.02213 21
171.05965 93
171.06694 188
171.07747 86
171.4108 55
Name: Bisphenol A bis(3-chloro-2-hydroxypropyl) ether
PrecursorMZ: 457.1191
PrecursorType: [M+FA-H]-
IonMode: Negative
Formula: C21H26Cl2O4
SMILES: CC(C)(C1=CC=C(C=C1)OCC(CCl)O)C2=CC=C(C=C2)OCC(CCl)O
InChI: 
InChIKey: PTCFDJRJOGPUFE-UHFFFAOYSA-N
RetentionTime: 7.051833
CCS: 
CollisionEnergy: 20-40 eV
InstrumentType: UPLC-QTOF-MS
Comment: PI: Cristina Nerin; Data collector: QiZhi Su, GUIA, University of Zaragoza, Spain; Collision energy: 20-40 V; Instrument: Waters HPLC-QTOF-MS (Xevo G2 QTof); Ionization: ESI; Deconvoluted by MS-DIAL; Column: Waters AtlantisTM premier BEH C18 AX column (2.1 × 100mm x 1.7μm); Flow rate: 0.3mL/min; Mobile phase A and B are water and methnaol, respectively, both with 0.1% formic acid; Gradient elution: from A/B (95/5) to A/B (100/0) in 7min, kept for 4 min, then back to A/B (95/5) in 0.1 min, and maintained for additional 1.9 min (13min in total).; Injection volume: 10 μL
Num peaks: 3
447.08743 1490
449.08246 1495
457.11841 33230
Name: "6-Amino-1,3-dimethyluracil"
PrecursorMZ: 154.0621
PrecursorType: [M-H]-
IonMode: Negative
Formula: C6H9N3O2
SMILES: CN1C(=CC(=O)N(C1=O)C)N
InChI: 
InChIKey: VFGRNTYELNYSKJ-UHFFFAOYSA-N
RetentionTime: 0.9623333
CCS: 
CollisionEnergy: 20-40 eV
InstrumentType: UPLC-QTOF-MS
Comment: PI: Cristina Nerin; Data collector: QiZhi Su, GUIA, University of Zaragoza, Spain; Collision energy: 20-40 V; Instrument: Waters HPLC-QTOF-MS (Xevo G2 QTof); Ionization: ESI; Deconvoluted by MS-DIAL; Column: Waters AtlantisTM premier BEH C18 AX column (2.1 × 100mm x 1.7μm); Flow rate: 0.3mL/min; Mobile phase A and B are water and methnaol, respectively, both with 0.1% formic acid; Gradient elution: from A/B (95/5) to A/B (100/0) in 7min, kept for 4 min, then back to A/B (95/5) in 0.1 min, and maintained for additional 1.9 min (13min in total).; Injection volume: 10 μL
Num peaks: 66
53.70027 22
55.00454 20
66.00378 79
67.15675 39
69.01376 21
69.0341 21
71.01232 47
75.01067 20
76.9725 59
76.97598 23
78.95838 1430
78.98206 40
79.25304 20
80.04665 214
80.9657 23
83.01219 22
83.04723 20
86.45306 28
86.63235 52
89.02734 19
94.95904 22
96.95667 158
96.96536 376
96.97063 863
97.0432 500
97.05266 29
97.06248 20
98.03777 21
98.04546 27
98.9436 23
99.04324 23
105.01086 21
108.03005 68
109.0572 21
110.97303 26
110.98065 20
111.02026 535
111.02885 163
111.06374 22
114.88238 21
115.07027 20
115.93903 24
118.98714 20
119.98436 42
120.97176 29
122.35616 28
123.0062 27
124.01153 24
125.02701 58
125.09609 64
129.02328 34
134.98445 73
136.96233 30
137.09673 42
138.96651 44
138.97888 112
138.99184 21
139.03308 33
140.06831 22
141.59941 33
144.92339 19
150.03004 22
150.98291 72
151.05193 27
154.06294 945
154.07845 48
Name: NX8000
PrecursorMZ: 529.2825
PrecursorType: [M+FA-H]-
IonMode: Negative
Formula: C29H40O6
SMILES: CCCC1C2C(C(OC(O2)C3=CC=C(C=C3)CCC)C(CO)O)OC(O1)C4=CC=C(C=C4)CCC
InChI: 
InChIKey: PIYNPBVOTLQBTC-UHFFFAOYSA-N
RetentionTime: 7.79905
CCS: 
CollisionEnergy: 20-40 eV
InstrumentType: UPLC-QTOF-MS
Comment: PI: Cristina Nerin; Data collector: QiZhi Su, GUIA, University of Zaragoza, Spain; Collision energy: 20-40 V; Instrument: Waters HPLC-QTOF-MS (Xevo G2 QTof); Ionization: ESI; Deconvoluted by MS-DIAL; Column: Waters AtlantisTM premier BEH C18 AX column (2.1 × 100mm x 1.7μm); Flow rate: 0.3mL/min; Mobile phase A and B are water and methnaol, respectively, both with 0.1% formic acid; Gradient elution: from A/B (95/5) to A/B (100/0) in 7min, kept for 4 min, then back to A/B (95/5) in 0.1 min, and maintained for additional 1.9 min (13min in total).; Injection volume: 10 μL
Num peaks: 1
529.28192 17838
Name: NX8000
PrecursorMZ: 1013.565
PrecursorType: [2M+FA-H]-
IonMode: Negative
Formula: C29H40O6
SMILES: CCCC1C2C(C(OC(O2)C3=CC=C(C=C3)CCC)C(CO)O)OC(O1)C4=CC=C(C=C4)CCC
InChI: 
InChIKey: PIYNPBVOTLQBTC-UHFFFAOYSA-N
RetentionTime: 7.806667
CCS: 
CollisionEnergy: 20-40 eV
InstrumentType: UPLC-QTOF-MS
Comment: PI: Cristina Nerin; Data collector: QiZhi Su, GUIA, University of Zaragoza, Spain; Collision energy: 20-40 V; Instrument: Waters HPLC-QTOF-MS (Xevo G2 QTof); Ionization: ESI; Deconvoluted by MS-DIAL; Column: Waters AtlantisTM premier BEH C18 AX column (2.1 × 100mm x 1.7μm); Flow rate: 0.3mL/min; Mobile phase A and B are water and methnaol, respectively, both with 0.1% formic acid; Gradient elution: from A/B (95/5) to A/B (100/0) in 7min, kept for 4 min, then back to A/B (95/5) in 0.1 min, and maintained for additional 1.9 min (13min in total).; Injection volume: 10 μL
Num peaks: 8
529.28021 15002
530.28796 4068
531.28912 689
967.57056 1598
968.56433 952
969.5675 292
1013.53552 340
1013.5752 2545
Name: "6-Amino-1,3-dimethyluracil"
PrecursorMZ: 154.0628
PrecursorType: [M-H]-
IonMode: Negative
Formula: C6H9N3O2
SMILES: CN1C(=CC(=O)N(C1=O)C)N
InChI: 
InChIKey: VFGRNTYELNYSKJ-UHFFFAOYSA-N
RetentionTime: 2.300067
CCS: 
CollisionEnergy: 20-40 eV
InstrumentType: UPLC-QTOF-MS
Comment: PI: Cristina Nerin; Data collector: QiZhi Su, GUIA, University of Zaragoza, Spain; Collision energy: 20-40 V; Instrument: Waters HPLC-QTOF-MS (Xevo G2 QTof); Ionization: ESI; Deconvoluted by MS-DIAL; Column: Waters AtlantisTM premier BEH C18 AX column (2.1 × 100mm x 1.7μm); Flow rate: 0.3mL/min; Mobile phase A and B are water and methnaol, respectively, both with 0.1% formic acid; Gradient elution: from A/B (95/5) to A/B (100/0) in 7min, kept for 4 min, then back to A/B (95/5) in 0.1 min, and maintained for additional 1.9 min (13min in total).; Injection volume: 10 μL
Num peaks: 32
51.93804 25
54.21273 20
62.97067 37
65.99634 42
76.73536 31
77.54135 30
78.88265 46
78.95982 743
82.06297 24
87.0478 20
91.39187 34
96.95982 83
96.96793 131
96.97512 121
97.03916 158
111.01618 79
111.02178 202
112.95891 24
112.98174 24
118.93882 91
124.00532 44
124.94402 33
136.97913 21
138.46507 22
138.9752 22
138.98651 52
150.9863 126
150.99942 23
152.92688 23
153.661 21
154.06146 111
154.0708 22
Name: 3-Carbamoylbenzoic acid
PrecursorMZ: 164.0352
PrecursorType: [M-H]-
IonMode: Negative
Formula: C8H7NO3
SMILES: C1=CC(=CC(=C1)C(=O)O)C(=O)N
InChI: 
InChIKey: FVUKYCZRWSQGAS-UHFFFAOYSA-N
RetentionTime: 3.439333
CCS: 
CollisionEnergy: 20-40 eV
InstrumentType: UPLC-QTOF-MS
Comment: PI: Cristina Nerin; Data collector: QiZhi Su, GUIA, University of Zaragoza, Spain; Collision energy: 20-40 V; Instrument: Waters HPLC-QTOF-MS (Xevo G2 QTof); Ionization: ESI; Deconvoluted by MS-DIAL; Column: Waters AtlantisTM premier BEH C18 AX column (2.1 × 100mm x 1.7μm); Flow rate: 0.3mL/min; Mobile phase A and B are water and methnaol, respectively, both with 0.1% formic acid; Gradient elution: from A/B (95/5) to A/B (100/0) in 7min, kept for 4 min, then back to A/B (95/5) in 0.1 min, and maintained for additional 1.9 min (13min in total).; Injection volume: 10 μL
Num peaks: 14
78.9604 66
96.94999 100
96.96833 68
96.97646 59
111.01528 55
111.02151 59
111.03751 80
118.02692 26
120.06049 2209
121.04755 185
152.99905 24
158.91542 92
164.03508 1370
164.05074 324
Name: propyl gallate
PrecursorMZ: 211.0623
PrecursorType: [M-H]-
IonMode: Negative
Formula: C10H12O5
SMILES: CCCOC(=O)C1=CC(=C(C(=C1)O)O)O
InChI: 
InChIKey: ZTHYODDOHIVTJV-UHFFFAOYSA-N
RetentionTime: 4.620966
CCS: 
CollisionEnergy: 20-40 eV
InstrumentType: UPLC-QTOF-MS
Comment: PI: Cristina Nerin; Data collector: QiZhi Su, GUIA, University of Zaragoza, Spain; Collision energy: 20-40 V; Instrument: Waters HPLC-QTOF-MS (Xevo G2 QTof); Ionization: ESI; Deconvoluted by MS-DIAL; Column: Waters AtlantisTM premier BEH C18 AX column (2.1 × 100mm x 1.7μm); Flow rate: 0.3mL/min; Mobile phase A and B are water and methnaol, respectively, both with 0.1% formic acid; Gradient elution: from A/B (95/5) to A/B (100/0) in 7min, kept for 4 min, then back to A/B (95/5) in 0.1 min, and maintained for additional 1.9 min (13min in total).; Injection volume: 10 μL
Num peaks: 7
78.01166 7022
123.00938 1475
124.01726 124966
125.02397 24259
168.00641 1982
169.01497 5150
211.06194 6072
Name: 4-(Dodecyloxy)benzoic acid
PrecursorMZ: 305.2129
PrecursorType: [M-H]-
IonMode: Negative
Formula: C19H30O3
SMILES: CCCCCCCCCCCCOC1=CC=C(C=C1)C(=O)O
InChI: 
InChIKey: ALQLYJHDBAKLBB-UHFFFAOYSA-N
RetentionTime: 9.597433
CCS: 
CollisionEnergy: 20-40 eV
InstrumentType: UPLC-QTOF-MS
Comment: PI: Cristina Nerin; Data collector: QiZhi Su, GUIA, University of Zaragoza, Spain; Collision energy: 20-40 V; Instrument: Waters HPLC-QTOF-MS (Xevo G2 QTof); Ionization: ESI; Deconvoluted by MS-DIAL; Column: Waters AtlantisTM premier BEH C18 AX column (2.1 × 100mm x 1.7μm); Flow rate: 0.3mL/min; Mobile phase A and B are water and methnaol, respectively, both with 0.1% formic acid; Gradient elution: from A/B (95/5) to A/B (100/0) in 7min, kept for 4 min, then back to A/B (95/5) in 0.1 min, and maintained for additional 1.9 min (13min in total).; Injection volume: 10 μL
Num peaks: 22
92.02735 2267
93.03116 144
96.96104 1952
124.01495 200
136.01143 192
152.99297 188
168.98944 259
183.01295 8059
184.0061 279
184.02184 944
185.00259 175
185.02107 226
191.94958 150
197.04248 203
198.02588 166
218.99635 150
239.07076 191
265.14545 152
279.228 170
295.22522 224
297.15466 142
305.21222 14133
Name: Vitamine E (alpha tocapherol)
PrecursorMZ: 429.3738
PrecursorType: [M-H]-
IonMode: Negative
Formula: C29H50O2
SMILES: CC1=C(C2=C(CCC(O2)(C)CCCC(C)CCCC(C)CCCC(C)C)C(=C1O)C)C
InChI: 
InChIKey: GVJHHUAWPYXKBD-UHFFFAOYSA-N
RetentionTime: 10.1309
CCS: 
CollisionEnergy: 20-40 eV
InstrumentType: UPLC-QTOF-MS
Comment: PI: Cristina Nerin; Data collector: QiZhi Su, GUIA, University of Zaragoza, Spain; Collision energy: 20-40 V; Instrument: Waters HPLC-QTOF-MS (Xevo G2 QTof); Ionization: ESI; Deconvoluted by MS-DIAL; Column: Waters AtlantisTM premier BEH C18 AX column (2.1 × 100mm x 1.7μm); Flow rate: 0.3mL/min; Mobile phase A and B are water and methnaol, respectively, both with 0.1% formic acid; Gradient elution: from A/B (95/5) to A/B (100/0) in 7min, kept for 4 min, then back to A/B (95/5) in 0.1 min, and maintained for additional 1.9 min (13min in total).; Injection volume: 10 μL
Num peaks: 15
96.96015 121
96.97124 119
124.01141 117
124.01907 115
135.07758 153
135.09029 151
163.07614 9880
164.0809 434
164.08861 411
326.16895 110
339.20181 157
414.3504 132
414.36499 101
429.35306 1120
429.37372 1746
Name: N-Icosanoylsphingosine
PrecursorMZ: 592.569
PrecursorType: [M-H]-
IonMode: Negative
Formula: C38H75NO3
SMILES: CCCCCCCCCCCCCCCCCCCC(=O)NC(CO)C(C=CCCCCCCCCCCCCC)O
InChI: 
InChIKey: XWBWIAOWSABHFI-NUKVNZTCSA-N
RetentionTime: 11.55628
CCS: 
CollisionEnergy: 20-40 eV
InstrumentType: UPLC-QTOF-MS
Comment: PI: Cristina Nerin; Data collector: QiZhi Su, GUIA, University of Zaragoza, Spain; Collision energy: 20-40 V; Instrument: Waters HPLC-QTOF-MS (Xevo G2 QTof); Ionization: ESI; Deconvoluted by MS-DIAL; Column: Waters AtlantisTM premier BEH C18 AX column (2.1 × 100mm x 1.7μm); Flow rate: 0.3mL/min; Mobile phase A and B are water and methnaol, respectively, both with 0.1% formic acid; Gradient elution: from A/B (95/5) to A/B (100/0) in 7min, kept for 4 min, then back to A/B (95/5) in 0.1 min, and maintained for additional 1.9 min (13min in total).; Injection volume: 10 μL
Num peaks: 22
183.00558 271
237.21716 638
237.22774 706
263.23679 1287
293.28546 1034
294.28278 288
310.31024 805
310.3273 540
311.29675 985
325.18982 246
336.32825 5566
337.32602 432
337.34174 313
339.19357 349
352.31595 402
544.54175 392
560.5437 571
562.55566 1552
562.57648 493
563.54456 347
592.56879 22431
592.62292 742
Name: N-Icosanoylsphingosine
PrecursorMZ: 638.5737
PrecursorType: [M+FA-H]-
IonMode: Negative
Formula: C38H75NO3
SMILES: CCCCCCCCCCCCCCCCCCCC(=O)NC(CO)C(C=CCCCCCCCCCCCCC)O
InChI: 
InChIKey: XWBWIAOWSABHFI-NUKVNZTCSA-N
RetentionTime: 11.5601
CCS: 
CollisionEnergy: 20-40 eV
InstrumentType: UPLC-QTOF-MS
Comment: PI: Cristina Nerin; Data collector: QiZhi Su, GUIA, University of Zaragoza, Spain; Collision energy: 20-40 V; Instrument: Waters HPLC-QTOF-MS (Xevo G2 QTof); Ionization: ESI; Deconvoluted by MS-DIAL; Column: Waters AtlantisTM premier BEH C18 AX column (2.1 × 100mm x 1.7μm); Flow rate: 0.3mL/min; Mobile phase A and B are water and methnaol, respectively, both with 0.1% formic acid; Gradient elution: from A/B (95/5) to A/B (100/0) in 7min, kept for 4 min, then back to A/B (95/5) in 0.1 min, and maintained for additional 1.9 min (13min in total).; Injection volume: 10 μL
Num peaks: 26
96.95911 316
183.01169 473
237.22284 1032
238.2272 277
263.23935 1486
268.25696 219
293.28461 1392
310.31497 1390
311.29483 358
311.31247 556
325.18188 391
336.3262 5904
337.32523 723
337.34131 523
339.185 312
352.32343 862
544.53357 400
544.55316 265
560.54462 785
562.5589 1441
592.56787 21275
592.62903 344
593.57172 7829
594.57635 1169
638.55487 2189
638.57843 4639
Name: N-Icosanoylsphingosine
PrecursorMZ: 638.5737
PrecursorType: [M+FA-H]-
IonMode: Negative
Formula: C38H75NO3
SMILES: CCCCCCCCCCCCCCCCCCCC(=O)NC(CO)C(C=CCCCCCCCCCCCCC)O
InChI: 
InChIKey: XWBWIAOWSABHFI-NUKVNZTCSA-N
RetentionTime: 11.5601
CCS: 
CollisionEnergy: 20-40 eV
InstrumentType: UPLC-QTOF-MS
Comment: PI: Cristina Nerin; Data collector: QiZhi Su, GUIA, University of Zaragoza, Spain; Collision energy: 20-40 V; Instrument: Waters HPLC-QTOF-MS (Xevo G2 QTof); Ionization: ESI; Deconvoluted by MS-DIAL; Column: Waters AtlantisTM premier BEH C18 AX column (2.1 × 100mm x 1.7μm); Flow rate: 0.3mL/min; Mobile phase A and B are water and methnaol, respectively, both with 0.1% formic acid; Gradient elution: from A/B (95/5) to A/B (100/0) in 7min, kept for 4 min, then back to A/B (95/5) in 0.1 min, and maintained for additional 1.9 min (13min in total).; Injection volume: 10 μL
Num peaks: 26
96.95911 316
183.01169 473
237.22284 1032
238.2272 277
263.23935 1486
268.25696 219
293.28461 1392
310.31497 1390
311.29483 358
311.31247 556
325.18188 391
336.3262 5904
337.32523 723
337.34131 523
339.185 312
352.32343 862
544.53357 400
544.55316 265
560.54462 785
562.5589 1441
592.56787 21275
592.62903 344
593.57172 7829
594.57635 1169
638.55487 2189
638.57843 4639
Name: N-Icosanoylsphingosine
PrecursorMZ: 592.5691
PrecursorType: [M-H]-
IonMode: Negative
Formula: C38H75NO3
SMILES: CCCCCCCCCCCCCCCCCCCC(=O)NC(CO)C(C=CCCCCCCCCCCCCC)O
InChI: 
InChIKey: XWBWIAOWSABHFI-NUKVNZTCSA-N
RetentionTime: 11.6705
CCS: 
CollisionEnergy: 20-40 eV
InstrumentType: UPLC-QTOF-MS
Comment: PI: Cristina Nerin; Data collector: QiZhi Su, GUIA, University of Zaragoza, Spain; Collision energy: 20-40 V; Instrument: Waters HPLC-QTOF-MS (Xevo G2 QTof); Ionization: ESI; Deconvoluted by MS-DIAL; Column: Waters AtlantisTM premier BEH C18 AX column (2.1 × 100mm x 1.7μm); Flow rate: 0.3mL/min; Mobile phase A and B are water and methnaol, respectively, both with 0.1% formic acid; Gradient elution: from A/B (95/5) to A/B (100/0) in 7min, kept for 4 min, then back to A/B (95/5) in 0.1 min, and maintained for additional 1.9 min (13min in total).; Injection volume: 10 μL
Num peaks: 36
96.9615 522
149.09161 287
183.00491 359
183.01393 1420
183.02754 207
184.01852 203
237.2197 933
237.23201 423
238.22124 357
263.23694 929
264.24014 285
293.27609 501
293.28827 460
310.30054 220
310.31415 727
311.1731 507
311.29669 480
325.18088 1371
325.20209 246
336.32739 5720
337.32825 986
337.34692 205
339.18539 404
339.20367 1143
340.19745 318
352.32358 611
485.2789 505
544.5304 246
544.56732 239
560.54114 321
560.56903 235
562.54749 680
562.57196 377
562.59906 250
592.56952 20165
592.62317 592
Name: propyl gallate
PrecursorMZ: 211.0614
PrecursorType: [M-H]-
IonMode: Negative
Formula: C10H12O5
SMILES: CCCOC(=O)C1=CC(=C(C(=C1)O)O)O
InChI: 
InChIKey: ZTHYODDOHIVTJV-UHFFFAOYSA-N
RetentionTime: 4.731367
CCS: 
CollisionEnergy: 20-40 eV
InstrumentType: UPLC-QTOF-MS
Comment: PI: Cristina Nerin; Data collector: QiZhi Su, GUIA, University of Zaragoza, Spain; Collision energy: 20-40 V; Instrument: Waters HPLC-QTOF-MS (Xevo G2 QTof); Ionization: ESI; Deconvoluted by MS-DIAL; Column: Waters AtlantisTM premier BEH C18 AX column (2.1 × 100mm x 1.7μm); Flow rate: 0.3mL/min; Mobile phase A and B are water and methnaol, respectively, both with 0.1% formic acid; Gradient elution: from A/B (95/5) to A/B (100/0) in 7min, kept for 4 min, then back to A/B (95/5) in 0.1 min, and maintained for additional 1.9 min (13min in total).; Injection volume: 10 μL
Num peaks: 13
78.01157 8060
78.02489 8060
123.00595 1612
123.01308 1611
124.01669 133615
125.02337 29529
126.01034 1509
126.02136 1502
126.02996 1502
167.98894 2310
168.0072 2454
169.01509 7209
211.06149 12196
Name: "Bisphenol A bis (2,3-dihydroxypropyl) ether (BADGE-diol)"
PrecursorMZ: 421.1862
PrecursorType: [M+FA-H]-
IonMode: Negative
Formula: C21H28O6
SMILES: CC(C)(C1=CC=C(C=C1)OCC(CO)O)C2=CC=C(C=C2)OCC(CO)O
InChI: 
InChIKey: NISVZEWKUNUGQQ-UHFFFAOYSA-N
RetentionTime: 5.687883
CCS: 
CollisionEnergy: 20-40 eV
InstrumentType: UPLC-QTOF-MS
Comment: PI: Cristina Nerin; Data collector: QiZhi Su, GUIA, University of Zaragoza, Spain; Collision energy: 20-40 V; Instrument: Waters HPLC-QTOF-MS (Xevo G2 QTof); Ionization: ESI; Deconvoluted by MS-DIAL; Column: Waters AtlantisTM premier BEH C18 AX column (2.1 × 100mm x 1.7μm); Flow rate: 0.3mL/min; Mobile phase A and B are water and methnaol, respectively, both with 0.1% formic acid; Gradient elution: from A/B (95/5) to A/B (100/0) in 7min, kept for 4 min, then back to A/B (95/5) in 0.1 min, and maintained for additional 1.9 min (13min in total).; Injection volume: 10 μL
Num peaks: 3
375.17871 8556
376.18314 1437
421.18567 105254
Name: "Bisphenol A bis (2,3-dihydroxypropyl) ether (BADGE-diol)"
PrecursorMZ: 797.3716
PrecursorType: [2M+FA-H]-
IonMode: Negative
Formula: C21H28O6
SMILES: CC(C)(C1=CC=C(C=C1)OCC(CO)O)C2=CC=C(C=C2)OCC(CO)O
InChI: 
InChIKey: NISVZEWKUNUGQQ-UHFFFAOYSA-N
RetentionTime: 5.6955
CCS: 
CollisionEnergy: 20-40 eV
InstrumentType: UPLC-QTOF-MS
Comment: PI: Cristina Nerin; Data collector: QiZhi Su, GUIA, University of Zaragoza, Spain; Collision energy: 20-40 V; Instrument: Waters HPLC-QTOF-MS (Xevo G2 QTof); Ionization: ESI; Deconvoluted by MS-DIAL; Column: Waters AtlantisTM premier BEH C18 AX column (2.1 × 100mm x 1.7μm); Flow rate: 0.3mL/min; Mobile phase A and B are water and methnaol, respectively, both with 0.1% formic acid; Gradient elution: from A/B (95/5) to A/B (100/0) in 7min, kept for 4 min, then back to A/B (95/5) in 0.1 min, and maintained for additional 1.9 min (13min in total).; Injection volume: 10 μL
Num peaks: 13
227.10829 751
227.12567 1354
301.13953 1076
301.15234 938
375.1803 8543
376.18118 1361
376.20288 794
421.18567 70425
422.18881 12829
423.18771 1426
751.3667 6859
752.36884 2396
797.37274 6947
Name: "2-diphenylacetyl-1,3-indandione-1-hydrazone"
PrecursorMZ: 353.1295
PrecursorType: [M-H]-
IonMode: Negative
Formula: C23H18N2O2
SMILES: C1=CC=C(C=C1)C(C2=CC=CC=C2)C(=O)C3C(=NN)C4=CC=CC=C4C3=O
InChI: 
InChIKey: QBGMRRUHCFHZLC-NJNXFGOHSA-N
RetentionTime: 6.686367
CCS: 
CollisionEnergy: 20-40 eV
InstrumentType: UPLC-QTOF-MS
Comment: PI: Cristina Nerin; Data collector: QiZhi Su, GUIA, University of Zaragoza, Spain; Collision energy: 20-40 V; Instrument: Waters HPLC-QTOF-MS (Xevo G2 QTof); Ionization: ESI; Deconvoluted by MS-DIAL; Column: Waters AtlantisTM premier BEH C18 AX column (2.1 × 100mm x 1.7μm); Flow rate: 0.3mL/min; Mobile phase A and B are water and methnaol, respectively, both with 0.1% formic acid; Gradient elution: from A/B (95/5) to A/B (100/0) in 7min, kept for 4 min, then back to A/B (95/5) in 0.1 min, and maintained for additional 1.9 min (13min in total).; Injection volume: 10 μL
Num peaks: 33
96.96046 464
101.03996 1837
101.05713 1951
129.03554 1412
129.0509 1316
140.0289 336
143.03781 3079
143.06133 537
144.03735 424
144.04716 414
157.03041 4728
158.0367 366
159.05664 8206
159.07382 7637
160.05952 547
160.06795 528
160.07831 332
165.06921 1205
167.0863 30691
168.09145 2908
170.0123 388
170.02632 490
185.03558 12596
186.02837 909
186.04155 973
260.06985 478
335.11813 1073
336.09656 494
336.12646 638
337.10092 836
337.11545 885
353.12949 15834
353.16583 364
Name: Lauric acid diethanolamide
PrecursorMZ: 332.244
PrecursorType: [M+FA-H]-
IonMode: Negative
Formula: C16H33NO3
SMILES: CCCCCCCCCCCC(=O)N(CCO)CCO
InChI: 
InChIKey: AOMUHOFOVNGZAN-UHFFFAOYSA-N
RetentionTime: 7.200817
CCS: 
CollisionEnergy: 20-40 eV
InstrumentType: UPLC-QTOF-MS
Comment: PI: Cristina Nerin; Data collector: QiZhi Su, GUIA, University of Zaragoza, Spain; Collision energy: 20-40 V; Instrument: Waters HPLC-QTOF-MS (Xevo G2 QTof); Ionization: ESI; Deconvoluted by MS-DIAL; Column: Waters AtlantisTM premier BEH C18 AX column (2.1 × 100mm x 1.7μm); Flow rate: 0.3mL/min; Mobile phase A and B are water and methnaol, respectively, both with 0.1% formic acid; Gradient elution: from A/B (95/5) to A/B (100/0) in 7min, kept for 4 min, then back to A/B (95/5) in 0.1 min, and maintained for additional 1.9 min (13min in total).; Injection volume: 10 μL
Num peaks: 155
59.01208 34
71.01163 21
71.01645 20
79.95755 55
83.0556 53
85.03338 53
96.96024 265
96.97313 279
97.03718 28
99.00143 21
99.01278 23
99.01883 23
99.04822 30
100.93528 27
100.94354 30
101.03979 28
101.07009 28
109.02065 20
109.02637 24
111.01831 48
111.07996 28
112.97766 184
112.98679 189
113.09703 20
113.11175 20
117.05717 28
121.02654 47
125.09351 48
125.10034 48
129.03416 27
129.04839 44
130.95084 23
130.95879 21
131.04628 27
131.05412 33
133.06102 22
139.11073 52
139.12679 57
140.03833 144
140.04796 141
155.12329 29
155.13817 30
157.02295 22
157.03435 39
157.98019 22
157.99234 22
158.92117 21
158.96382 20
159.03094 37
159.0484 131
159.05397 114
165.01422 184
165.02441 170
165.03313 162
167.08118 308
167.09067 310
167.11469 51
167.14397 27
168.08589 33
168.10628 33
168.97444 74
168.98595 54
169.99149 28
170.00424 39
171.09441 64
171.10396 78
171.11111 76
171.12352 63
171.13957 33
173.09415 22
174.95358 94
174.96025 98
179.09375 29
179.11275 34
181.16811 21
183.03294 457
184.01375 68
184.02496 58
184.99983 70
185.01418 218
185.03218 178
185.0408 174
185.16092 26
186.02472 24
186.03285 45
187.00027 183
187.01108 185
187.02061 132
187.09761 91
187.11037 78
187.13675 22
188.00139 24
193.0446 22
195.18373 26
198.02507 31
198.03828 36
199.15462 819
199.16768 1241
199.17827 1230
200.16609 101
209.03076 24
209.06932 23
209.16331 36
211.12292 21
227.07198 33
227.12054 62
233.10811 23
233.12753 32
233.14604 28
235.07339 29
235.15094 25
235.17767 21
241.16322 41
241.18454 58
242.93138 32
242.93997 34
243.16879 42
244.11964 28
247.15837 31
248.94363 36
248.95316 64
248.98085 44
251.14445 21
251.17592 27
255.21722 48
255.23691 69
257.14587 50
257.1644 40
260.07468 22
265.08041 23
281.2449 47
282.02216 24
283.2641 46
285.17047 23
286.23334 245
286.25238 245
287.22379 22
287.25 22
302.54633 51
309.19284 63
310.19565 39
311.17578 55
312.20203 39
313.18423 21
315.25806 30
318.97513 25
322.22742 31
323.01324 20
323.1369 20
323.18448 30
327.15994 45
331.25345 45
331.27005 92
332.2149 137
332.24606 1989
Name: Trichlorophenol
PrecursorMZ: 194.9172
PrecursorType: [M-H]-
IonMode: Negative
Formula: C6H3Cl3O
SMILES: C1=C(C=C(C(=C1Cl)O)Cl)Cl
InChI: 
InChIKey: LINPIYWFGCPVIE-UHFFFAOYSA-N
RetentionTime: 6.92995
CCS: 
CollisionEnergy: 20-40 eV
InstrumentType: UPLC-QTOF-MS
Comment: PI: Cristina Nerin; Data collector: QiZhi Su, GUIA, University of Zaragoza, Spain; Collision energy: 20-40 V; Instrument: Waters HPLC-QTOF-MS (Xevo G2 QTof); Ionization: ESI; Deconvoluted by MS-DIAL; Column: Waters AtlantisTM premier BEH C18 AX column (2.1 × 100mm x 1.7μm); Flow rate: 0.3mL/min; Mobile phase A and B are water and methnaol, respectively, both with 0.1% formic acid; Gradient elution: from A/B (95/5) to A/B (100/0) in 7min, kept for 4 min, then back to A/B (95/5) in 0.1 min, and maintained for additional 1.9 min (13min in total).; Injection volume: 10 μL
Num peaks: 16
94.96958 263
94.98232 263
122.9614 573
122.97991 502
124.95848 154
124.97379 142
148.04631 40
158.92365 539
158.9359 585
158.94279 602
160.93562 313
160.94894 321
160.95718 171
162.93687 42
175.12009 53
194.91748 3708
Name: 1-hydroxypyrene
PrecursorMZ: 217.0659
PrecursorType: [M-H]-
IonMode: Negative
Formula: C16H10O
SMILES: C1=CC2=C3C(=C1)C=CC4=C(C=CC(=C43)C=C2)O
InChI: 
InChIKey: BIJNHUAPTJVVNQ-UHFFFAOYSA-N
RetentionTime: 7.09745
CCS: 
CollisionEnergy: 20-40 eV
InstrumentType: UPLC-QTOF-MS
Comment: PI: Cristina Nerin; Data collector: QiZhi Su, GUIA, University of Zaragoza, Spain; Collision energy: 20-40 V; Instrument: Waters HPLC-QTOF-MS (Xevo G2 QTof); Ionization: ESI; Deconvoluted by MS-DIAL; Column: Waters AtlantisTM premier BEH C18 AX column (2.1 × 100mm x 1.7μm); Flow rate: 0.3mL/min; Mobile phase A and B are water and methnaol, respectively, both with 0.1% formic acid; Gradient elution: from A/B (95/5) to A/B (100/0) in 7min, kept for 4 min, then back to A/B (95/5) in 0.1 min, and maintained for additional 1.9 min (13min in total).; Injection volume: 10 μL
Num peaks: 2
189.0708 10274
217.06624 224247
Name: 4-hydroxybenzophenone
PrecursorMZ: 197.0614
PrecursorType: [M-H]-
IonMode: Negative
Formula: C13H10O2
SMILES: C1=CC=C(C=C1)C(=O)C2=CC=C(C=C2)O
InChI: 
InChIKey: NPFYZDNDJHZQKY-UHFFFAOYSA-N
RetentionTime: 5.756367
CCS: 
CollisionEnergy: 20-40 eV
InstrumentType: UPLC-QTOF-MS
Comment: PI: Cristina Nerin; Data collector: QiZhi Su, GUIA, University of Zaragoza, Spain; Collision energy: 20-40 V; Instrument: Waters HPLC-QTOF-MS (Xevo G2 QTof); Ionization: ESI; Deconvoluted by MS-DIAL; Column: Waters AtlantisTM premier BEH C18 AX column (2.1 × 100mm x 1.7μm); Flow rate: 0.3mL/min; Mobile phase A and B are water and methnaol, respectively, both with 0.1% formic acid; Gradient elution: from A/B (95/5) to A/B (100/0) in 7min, kept for 4 min, then back to A/B (95/5) in 0.1 min, and maintained for additional 1.9 min (13min in total).; Injection volume: 10 μL
Num peaks: 11
91.0008 14591
91.01872 14595
91.0341 14612
92.02638 122806
93.01282 3879
120.02147 19172
141.05225 2758
141.08849 2691
169.06563 8386
195.04544 8352
197.06073 240313
Name: Abietic acid
PrecursorMZ: 301.2162
PrecursorType: [M-H]-
IonMode: Negative
Formula: C20H30O2
SMILES: CC(C)C1=CC2=CCC3C(C2CC1)(CCCC3(C)C(=O)O)C
InChI: 
InChIKey: RSWGJHLUYNHPMX-ONCXSQPRSA-N
RetentionTime: 8.5571
CCS: 
CollisionEnergy: 20-40 eV
InstrumentType: UPLC-QTOF-MS
Comment: PI: Cristina Nerin; Data collector: QiZhi Su, GUIA, University of Zaragoza, Spain; Collision energy: 20-40 V; Instrument: Waters HPLC-QTOF-MS (Xevo G2 QTof); Ionization: ESI; Deconvoluted by MS-DIAL; Column: Waters AtlantisTM premier BEH C18 AX column (2.1 × 100mm x 1.7μm); Flow rate: 0.3mL/min; Mobile phase A and B are water and methnaol, respectively, both with 0.1% formic acid; Gradient elution: from A/B (95/5) to A/B (100/0) in 7min, kept for 4 min, then back to A/B (95/5) in 0.1 min, and maintained for additional 1.9 min (13min in total).; Injection volume: 10 μL
Num peaks: 7
96.96005 1450
183.01201 2961
183.03177 1986
184.01718 523
184.03598 702
301.21683 23940
301.25165 493
Name: Stearic acid
PrecursorMZ: 283.2643
PrecursorType: [M-H]-
IonMode: Negative
Formula: C18H36O2
SMILES: CCCCCCCCCCCCCCCCCC(=O)O
InChI: 
InChIKey: QIQXTHQIDYTFRH-UHFFFAOYSA-N
RetentionTime: 9.814934
CCS: 
CollisionEnergy: 20-40 eV
InstrumentType: UPLC-QTOF-MS
Comment: PI: Cristina Nerin; Data collector: QiZhi Su, GUIA, University of Zaragoza, Spain; Collision energy: 20-40 V; Instrument: Waters HPLC-QTOF-MS (Xevo G2 QTof); Ionization: ESI; Deconvoluted by MS-DIAL; Column: Waters AtlantisTM premier BEH C18 AX column (2.1 × 100mm x 1.7μm); Flow rate: 0.3mL/min; Mobile phase A and B are water and methnaol, respectively, both with 0.1% formic acid; Gradient elution: from A/B (95/5) to A/B (100/0) in 7min, kept for 4 min, then back to A/B (95/5) in 0.1 min, and maintained for additional 1.9 min (13min in total).; Injection volume: 10 μL
Num peaks: 9
96.96015 3802
183.0112 14759
184.00493 2683
184.01851 2673
184.02721 2615
184.99721 416
185.01094 518
197.02498 351
283.26392 34362
Name: "10,12-pentacosadiynoic acid"
PrecursorMZ: 373.3115
PrecursorType: [M-H]-
IonMode: Negative
Formula: C25H42O2
SMILES: CCCCCCCCCCCCC#CC#CCCCCCCCCC(=O)O
InChI: 
InChIKey: ZPUDRBWHCWYMQS-UHFFFAOYSA-N
RetentionTime: 10.07382
CCS: 
CollisionEnergy: 20-40 eV
InstrumentType: UPLC-QTOF-MS
Comment: PI: Cristina Nerin; Data collector: QiZhi Su, GUIA, University of Zaragoza, Spain; Collision energy: 20-40 V; Instrument: Waters HPLC-QTOF-MS (Xevo G2 QTof); Ionization: ESI; Deconvoluted by MS-DIAL; Column: Waters AtlantisTM premier BEH C18 AX column (2.1 × 100mm x 1.7μm); Flow rate: 0.3mL/min; Mobile phase A and B are water and methnaol, respectively, both with 0.1% formic acid; Gradient elution: from A/B (95/5) to A/B (100/0) in 7min, kept for 4 min, then back to A/B (95/5) in 0.1 min, and maintained for additional 1.9 min (13min in total).; Injection volume: 10 μL
Num peaks: 14
96.95983 473
177.1228 222
177.1338 226
183.01134 2791
184.02171 516
275.27551 251
325.18188 472
326.20059 222
329.30414 519
329.31625 882
329.32953 835
330.32397 238
339.20105 458
373.31085 21587
Name: "10,12-pentacosadiynoic acid"
PrecursorMZ: 747.6279
PrecursorType: [2M-H]-
IonMode: Negative
Formula: C25H42O2
SMILES: CCCCCCCCCCCCC#CC#CCCCCCCCCC(=O)O
InChI: 
InChIKey: ZPUDRBWHCWYMQS-UHFFFAOYSA-N
RetentionTime: 10.07762
CCS: 
CollisionEnergy: 20-40 eV
InstrumentType: UPLC-QTOF-MS
Comment: PI: Cristina Nerin; Data collector: QiZhi Su, GUIA, University of Zaragoza, Spain; Collision energy: 20-40 V; Instrument: Waters HPLC-QTOF-MS (Xevo G2 QTof); Ionization: ESI; Deconvoluted by MS-DIAL; Column: Waters AtlantisTM premier BEH C18 AX column (2.1 × 100mm x 1.7μm); Flow rate: 0.3mL/min; Mobile phase A and B are water and methnaol, respectively, both with 0.1% formic acid; Gradient elution: from A/B (95/5) to A/B (100/0) in 7min, kept for 4 min, then back to A/B (95/5) in 0.1 min, and maintained for additional 1.9 min (13min in total).; Injection volume: 10 μL
Num peaks: 22
96.95784 240
96.96321 242
177.13142 231
183.01231 2106
184.00735 381
184.01796 358
275.27341 240
325.18213 353
325.20197 584
329.30469 519
329.31854 884
329.3313 818
330.30728 191
330.32425 252
339.20023 319
373.31033 18840
374.31339 3807
375.30615 429
375.32272 483
441.28738 201
441.30875 226
747.62024 233
Name: Bisphenol A
PrecursorMZ: 455.22
PrecursorType: [2M-H]-
IonMode: Negative
Formula: C15H16O2
SMILES: CC(C)(C1=CC=C(C=C1)O)C2=CC=C(C=C2)O
InChI: 
InChIKey: IISBACLAFKSPIT-UHFFFAOYSA-N
RetentionTime: 5.96195
CCS: 
CollisionEnergy: 20-40 eV
InstrumentType: UPLC-QTOF-MS
Comment: PI: Cristina Nerin; Data collector: QiZhi Su, GUIA, University of Zaragoza, Spain; Collision energy: 20-40 V; Instrument: Waters HPLC-QTOF-MS (Xevo G2 QTof); Ionization: ESI; Deconvoluted by MS-DIAL; Column: Waters AtlantisTM premier BEH C18 AX column (2.1 × 100mm x 1.7μm); Flow rate: 0.3mL/min; Mobile phase A and B are water and methnaol, respectively, both with 0.1% formic acid; Gradient elution: from A/B (95/5) to A/B (100/0) in 7min, kept for 4 min, then back to A/B (95/5) in 0.1 min, and maintained for additional 1.9 min (13min in total).; Injection volume: 10 μL
Num peaks: 87
85.06599 121
85.07587 118
93.02781 296
93.03599 296
93.04381 302
96.95488 184
96.96317 194
96.97369 216
101.05804 122
101.06683 125
109.05732 77
120.02312 81
120.03851 115
133.05911 1034
133.06859 1062
133.07765 1267
134.06569 103
147.069 80
149.07193 90
151.11343 82
183.00771 257
183.01888 264
183.0303 229
189.12929 82
193.09604 75
197.09593 270
197.11589 87
205.11685 108
205.12784 129
211.09456 760
212.0676 164
212.09859 395
213.09152 172
214.09471 83
215.10277 125
217.11716 113
219.13715 107
219.15654 104
221.14651 99
223.12589 121
223.14178 97
226.10887 242
227.10854 7483
234.11302 117
234.12611 118
241.14995 85
243.10463 123
245.14464 320
245.15714 226
245.17024 686
246.1666 151
249.09494 110
258.11087 97
258.1427 91
265.15948 88
267.16742 108
267.1832 89
271.16205 83
275.1217 96
275.13513 86
275.15427 107
285.14532 112
285.15805 116
289.17197 317
299.16281 221
299.17902 366
301.16577 218
301.18512 132
312.04236 117
317.1413 94
317.15997 149
317.19028 109
325.17694 82
347.18143 204
347.20569 113
351.22516 115
351.24017 76
361.16266 348
361.1756 333
361.18707 268
363.17499 253
365.21136 388
366.21936 191
367.22427 208
384.98309 77
455.22018 483
455.24475 205
Name: Bisphenol A
PrecursorMZ: 227.1075
PrecursorType: [M-H]-
IonMode: Negative
Formula: C15H16O2
SMILES: CC(C)(C1=CC=C(C=C1)O)C2=CC=C(C=C2)O
InChI: 
InChIKey: IISBACLAFKSPIT-UHFFFAOYSA-N
RetentionTime: 5.965766
CCS: 
CollisionEnergy: 20-40 eV
InstrumentType: UPLC-QTOF-MS
Comment: PI: Cristina Nerin; Data collector: QiZhi Su, GUIA, University of Zaragoza, Spain; Collision energy: 20-40 V; Instrument: Waters HPLC-QTOF-MS (Xevo G2 QTof); Ionization: ESI; Deconvoluted by MS-DIAL; Column: Waters AtlantisTM premier BEH C18 AX column (2.1 × 100mm x 1.7μm); Flow rate: 0.3mL/min; Mobile phase A and B are water and methnaol, respectively, both with 0.1% formic acid; Gradient elution: from A/B (95/5) to A/B (100/0) in 7min, kept for 4 min, then back to A/B (95/5) in 0.1 min, and maintained for additional 1.9 min (13min in total).; Injection volume: 10 μL
Num peaks: 41
92.02551 127
92.0346 124
96.9617 195
96.97037 203
111.01576 90
133.06549 506
133.07332 417
134.0695 96
149.07149 93
150.05345 97
150.06198 100
150.07048 98
175.10547 94
175.12939 102
177.12064 131
177.13121 144
181.07867 88
183.03392 136
191.14035 107
197.14241 96
198.06061 147
201.1196 91
205.11461 91
205.13922 123
211.07106 971
211.0806 1031
212.08342 1692
213.08394 101
213.11111 149
213.12996 156
215.14017 106
217.12762 106
221.13269 205
223.12975 95
223.13968 92
226.08113 221
226.0959 213
226.1147 129
227.10768 8703
227.14476 284
227.16486 95
Name: 3[N-Morpholino]propane sulfonic acid
PrecursorMZ: 208.0647
PrecursorType: [M-H]-
IonMode: Negative
Formula: C7H15NO4S
SMILES: C1COCCN1CCCS(=O)(=O)O
InChI: 
InChIKey: DVLFYONBTKHTER-UHFFFAOYSA-N
RetentionTime: 0.8404833
CCS: 
CollisionEnergy: 20-40 eV
InstrumentType: UPLC-QTOF-MS
Comment: PI: Cristina Nerin; Data collector: QiZhi Su, GUIA, University of Zaragoza, Spain; Collision energy: 20-40 V; Instrument: Waters HPLC-QTOF-MS (Xevo G2 QTof); Ionization: ESI; Deconvoluted by MS-DIAL; Column: Waters AtlantisTM premier BEH C18 AX column (2.1 × 100mm x 1.7μm); Flow rate: 0.3mL/min; Mobile phase A and B are water and methnaol, respectively, both with 0.1% formic acid; Gradient elution: from A/B (95/5) to A/B (100/0) in 7min, kept for 4 min, then back to A/B (95/5) in 0.1 min, and maintained for additional 1.9 min (13min in total).; Injection volume: 10 μL
Num peaks: 10
79.95696 38943
79.97575 38958
80.96161 2127
80.96651 2127
80.97908 2082
81.93668 989
81.94672 1134
81.95389 1148
81.96068 1150
208.06462 86814
Name: butyl 4-hydroxybenzoate
PrecursorMZ: 193.087
PrecursorType: [M-H]-
IonMode: Negative
Formula: C11H14O3
SMILES: CCCCOC(=O)C1=CC=C(C=C1)O
InChI: 
InChIKey: QFOHBWFCKVYLES-UHFFFAOYSA-N
RetentionTime: 6.404067
CCS: 
CollisionEnergy: 20-40 eV
InstrumentType: UPLC-QTOF-MS
Comment: PI: Cristina Nerin; Data collector: QiZhi Su, GUIA, University of Zaragoza, Spain; Collision energy: 20-40 V; Instrument: Waters HPLC-QTOF-MS (Xevo G2 QTof); Ionization: ESI; Deconvoluted by MS-DIAL; Column: Waters AtlantisTM premier BEH C18 AX column (2.1 × 100mm x 1.7μm); Flow rate: 0.3mL/min; Mobile phase A and B are water and methnaol, respectively, both with 0.1% formic acid; Gradient elution: from A/B (95/5) to A/B (100/0) in 7min, kept for 4 min, then back to A/B (95/5) in 0.1 min, and maintained for additional 1.9 min (13min in total).; Injection volume: 10 μL
Num peaks: 5
91.01273 1774
91.02037 1772
92.02641 165955
93.03331 28843
193.08636 4647
Name: 3[N-Morpholino]propane sulfonic acid
PrecursorMZ: 417.135
PrecursorType: [2M-H]-
IonMode: Negative
Formula: C7H15NO4S
SMILES: C1COCCN1CCCS(=O)(=O)O
InChI: 
InChIKey: DVLFYONBTKHTER-UHFFFAOYSA-N
RetentionTime: 0.8404833
CCS: 
CollisionEnergy: 20-40 eV
InstrumentType: UPLC-QTOF-MS
Comment: PI: Cristina Nerin; Data collector: QiZhi Su, GUIA, University of Zaragoza, Spain; Collision energy: 20-40 V; Instrument: Waters HPLC-QTOF-MS (Xevo G2 QTof); Ionization: ESI; Deconvoluted by MS-DIAL; Column: Waters AtlantisTM premier BEH C18 AX column (2.1 × 100mm x 1.7μm); Flow rate: 0.3mL/min; Mobile phase A and B are water and methnaol, respectively, both with 0.1% formic acid; Gradient elution: from A/B (95/5) to A/B (100/0) in 7min, kept for 4 min, then back to A/B (95/5) in 0.1 min, and maintained for additional 1.9 min (13min in total).; Injection volume: 10 μL
Num peaks: 14
79.95696 38937
79.97575 38953
80.96161 2127
80.96651 2127
80.97908 2082
81.93668 989
81.94672 1134
81.95389 1148
81.96068 1150
208.06462 79490
209.06789 4630
210.05371 2631
210.06172 2658
417.1369 17217
Name: 3-(3,5-Di-tert-butyl-1-hydroxy-4-oxocyclohexa-2,5-dien-1-yl)propanoic acid
PrecursorMZ: 293.1735
PrecursorType: [M-H]-
IonMode: Negative
Formula: NA
SMILES: 
InChI: 
InChIKey: NA
RetentionTime: 6.831849
CCS: 
CollisionEnergy: 20-40 eV
InstrumentType: UPLC-QTOF-MS
Comment: PI: Cristina Nerin; Data collector: QiZhi Su, GUIA, University of Zaragoza, Spain; Collision energy: 20-40 V; Instrument: Waters HPLC-QTOF-MS (Xevo G2 QTof); Ionization: ESI; Deconvoluted by MS-DIAL; Column: Waters AtlantisTM premier BEH C18 AX column (2.1 × 100mm x 1.7μm); Flow rate: 0.3mL/min; Mobile phase A and B are water and methnaol, respectively, both with 0.1% formic acid; Gradient elution: from A/B (95/5) to A/B (100/0) in 7min, kept for 4 min, then back to A/B (95/5) in 0.1 min, and maintained for additional 1.9 min (13min in total).; Injection volume: 10 μL
Num peaks: 22
148.05186 2743
148.07237 610
149.0491 444
149.0582 445
164.08347 590
164.09732 565
177.08995 5051
178.08939 531
178.09763 540
178.10953 469
192.11562 2228
193.11667 436
205.12227 4037
206.13057 345
218.08522 539
218.09753 576
220.14532 16214
221.1525 33614
222.15833 3487
236.1042 7231
237.10388 868
293.17584 1755
Name: "2,4-Dinitrophenylhydrazine"
PrecursorMZ: 197.0294
PrecursorType: [M-H]-
IonMode: Negative
Formula: C6H6N4O4
SMILES: C1=CC(=C(C=C1[N+](=O)[O-])[N+](=O)[O-])NN
InChI: 
InChIKey: HORQAOAYAYGIBM-UHFFFAOYSA-N
RetentionTime: 5.2001
CCS: 
CollisionEnergy: 20-40 eV
InstrumentType: UPLC-QTOF-MS
Comment: PI: Cristina Nerin; Data collector: QiZhi Su, GUIA, University of Zaragoza, Spain; Collision energy: 20-40 V; Instrument: Waters HPLC-QTOF-MS (Xevo G2 QTof); Ionization: ESI; Deconvoluted by MS-DIAL; Column: Waters AtlantisTM premier BEH C18 AX column (2.1 × 100mm x 1.7μm); Flow rate: 0.3mL/min; Mobile phase A and B are water and methnaol, respectively, both with 0.1% formic acid; Gradient elution: from A/B (95/5) to A/B (100/0) in 7min, kept for 4 min, then back to A/B (95/5) in 0.1 min, and maintained for additional 1.9 min (13min in total).; Injection volume: 10 μL
Num peaks: 139
52.02083 23
55.45683 38
56.98287 36
58.95946 28
59.01833 33
63.15615 26
64.95623 35
64.99763 19
65.0051 24
65.99694 25
66.00254 62
68.14673 43
68.39977 34
70.42553 21
71.81575 30
72.9781 25
73.00498 21
76.0143 91
76.01936 409
77.01999 26
79.01952 49
79.95293 44
80.41578 21
83.02186 21
85.02757 40
86.97343 99
87.04629 22
88.34417 21
89.01153 36
89.02099 25
89.82268 36
91.01524 240
92.02222 22
92.02859 57
93.02005 54
93.03212 29
95.9525 33
96.35878 21
96.96255 24
99.07895 23
99.92751 28
100.05381 36
100.93177 53
105.01777 24
105.02471 49
108.01849 194
108.02927 164
109.01918 79
112.98531 76
113.05737 33
116.93099 59
118.92421 20
119.02142 20
120.00739 110
120.02921 21
120.03452 20
120.0438 20
121.0146 570
121.06096 46
121.60032 41
122.01477 93
122.02383 45
125.09558 23
127.03551 23
129.02356 26
129.05606 135
129.97534 28
130.94421 26
130.96266 89
131.96239 30
132.01114 22
132.01776 24
133.04582 33
134.00122 52
135.02177 40
135.03621 21
137.03462 1485
137.05334 34
138.01379 26
138.02209 113
138.03854 110
139.02701 20
144.99242 23
145.032 22
145.36565 33
146.43486 29
146.9651 21
147.96162 24
150.0498 26
150.97333 23
151.00391 22
151.01923 47
151.34204 33
152.0174 54
152.02391 21
152.99341 33
153.08755 25
158.97791 20
160.98187 25
161.01653 20
161.04343 44
161.05768 22
162.04185 60
163.02191 138
163.03107 93
164.02454 61
164.33107 25
165.09787 21
165.50452 23
166.02831 22
167.02135 22
167.03415 62
167.04561 333
170.0744 52
171.05017 50
171.98508 27
174.05557 37
174.772 33
174.94557 45
174.96156 208
175.07611 19
176.18289 19
176.87831 21
179.01974 136
179.93462 25
180.00087 28
181.00565 31
181.98866 20
182.02242 20
183.02588 38
183.09831 20
187.09869 63
189.07372 28
191.0417 22
193.04836 26
194.9425 23
195.02777 20
197.03214 142
197.03944 123
Name: "2,4-Dinitrophenylhydrazine"
PrecursorMZ: 197.0293
PrecursorType: [M-H]-
IonMode: Negative
Formula: C6H6N4O4
SMILES: C1=CC(=C(C=C1[N+](=O)[O-])[N+](=O)[O-])NN
InChI: 
InChIKey: HORQAOAYAYGIBM-UHFFFAOYSA-N
RetentionTime: 5.287667
CCS: 
CollisionEnergy: 20-40 eV
InstrumentType: UPLC-QTOF-MS
Comment: PI: Cristina Nerin; Data collector: QiZhi Su, GUIA, University of Zaragoza, Spain; Collision energy: 20-40 V; Instrument: Waters HPLC-QTOF-MS (Xevo G2 QTof); Ionization: ESI; Deconvoluted by MS-DIAL; Column: Waters AtlantisTM premier BEH C18 AX column (2.1 × 100mm x 1.7μm); Flow rate: 0.3mL/min; Mobile phase A and B are water and methnaol, respectively, both with 0.1% formic acid; Gradient elution: from A/B (95/5) to A/B (100/0) in 7min, kept for 4 min, then back to A/B (95/5) in 0.1 min, and maintained for additional 1.9 min (13min in total).; Injection volume: 10 μL
Num peaks: 112
51.28326 33
61.51798 21
61.98973 24
63.02537 48
64.00533 61
64.02309 30
65.0042 26
65.01579 120
65.02284 45
65.9967 36
71.8894 34
74.00642 83
76.01672 91
76.02573 99
79.00429 21
79.01044 20
79.95631 33
80.02067 18
80.02519 27
80.03104 21
81.03075 28
83.05263 27
86.97413 53
89.02122 33
90.02573 20
91.01525 52
91.02264 159
92.0163 106
92.02611 142
92.0302 42
93.02197 71
94.02824 50
96.95959 20
97.06912 24
99.00418 28
99.04605 33
99.92388 80
101.94062 22
104.0191 22
105.01778 27
105.39546 80
107.0106 20
108.01842 296
108.02482 169
109.01558 29
109.06268 22
112.97656 24
112.98528 38
113.15549 54
113.56886 23
118.97234 28
120.00116 72
120.00982 112
120.01533 67
120.03022 51
121.00204 31
121.01122 191
121.01894 188
122.02281 65
122.90405 25
124.01396 21
126.21143 24
129.02136 24
130.08199 25
130.08995 33
130.94034 31
130.9608 40
130.96861 77
131.03117 23
131.91513 26
133.06058 54
134.99911 59
135.01578 92
135.04242 52
135.04776 21
137.01381 46
137.03491 937
138.00685 53
138.01599 434
138.02451 381
138.0387 41
139.01932 90
140.03368 23
140.96976 24
147.01999 108
150.05006 35
151.0141 41
152.99513 24
154.9987 20
161.0231 20
163.01852 44
165.02522 22
166.02834 33
166.9471 26
167.0287 85
169.09644 20
171.05025 22
173.0748 21
174.95332 152
174.96507 43
178.95041 20
179.04573 20
181.03389 25
182.98065 21
187.07275 20
190.94168 41
191.96024 25
193.03094 28
194.08647 98
197.03188 229
197.0399 63
197.06822 19
Name: 3-Nitrophenol
PrecursorMZ: 138.0175
PrecursorType: [M-H]-
IonMode: Negative
Formula: C6H5NO3
SMILES: C1=CC(=CC(=C1)O)[N+](=O)[O-]
InChI: 
InChIKey: RTZZCYNQPHTPPL-UHFFFAOYSA-N
RetentionTime: 5.405684
CCS: 
CollisionEnergy: 20-40 eV
InstrumentType: UPLC-QTOF-MS
Comment: PI: Cristina Nerin; Data collector: QiZhi Su, GUIA, University of Zaragoza, Spain; Collision energy: 20-40 V; Instrument: Waters HPLC-QTOF-MS (Xevo G2 QTof); Ionization: ESI; Deconvoluted by MS-DIAL; Column: Waters AtlantisTM premier BEH C18 AX column (2.1 × 100mm x 1.7μm); Flow rate: 0.3mL/min; Mobile phase A and B are water and methnaol, respectively, both with 0.1% formic acid; Gradient elution: from A/B (95/5) to A/B (100/0) in 7min, kept for 4 min, then back to A/B (95/5) in 0.1 min, and maintained for additional 1.9 min (13min in total).; Injection volume: 10 μL
Num peaks: 7
80.02582 1290
92.01625 193
92.02642 192
108.02019 3312
109.01264 206
109.02152 206
138.01733 12006
Name: 3-Nitrophenol
PrecursorMZ: 277.0461
PrecursorType: [2M-H]-
IonMode: Negative
Formula: C6H5NO3
SMILES: C1=CC(=CC(=C1)O)[N+](=O)[O-]
InChI: 
InChIKey: RTZZCYNQPHTPPL-UHFFFAOYSA-N
RetentionTime: 5.4133
CCS: 
CollisionEnergy: 20-40 eV
InstrumentType: UPLC-QTOF-MS
Comment: PI: Cristina Nerin; Data collector: QiZhi Su, GUIA, University of Zaragoza, Spain; Collision energy: 20-40 V; Instrument: Waters HPLC-QTOF-MS (Xevo G2 QTof); Ionization: ESI; Deconvoluted by MS-DIAL; Column: Waters AtlantisTM premier BEH C18 AX column (2.1 × 100mm x 1.7μm); Flow rate: 0.3mL/min; Mobile phase A and B are water and methnaol, respectively, both with 0.1% formic acid; Gradient elution: from A/B (95/5) to A/B (100/0) in 7min, kept for 4 min, then back to A/B (95/5) in 0.1 min, and maintained for additional 1.9 min (13min in total).; Injection volume: 10 μL
Num peaks: 16
80.02608 1750
80.06326 117
91.01522 277
91.02096 137
92.02573 293
108.02073 2929
112.98431 184
138.01831 10847
139.02127 515
140.02116 109
146.96222 128
163.02861 171
174.95859 125
180.97148 122
233.01697 199
248.96622 207
Name: (R)-(+)-rosmarinic acid
PrecursorMZ: 359.0761
PrecursorType: [M-H]-
IonMode: Negative
Formula: C18H16O8
SMILES: C1=CC(=C(C=C1CC(C(=O)O)OC(=O)C=CC2=CC(=C(C=C2)O)O)O)O
InChI: 
InChIKey: DOUMFZQKYFQNTF-WUTVXBCWSA-N
RetentionTime: 6.590617
CCS: 
CollisionEnergy: 20-40 eV
InstrumentType: UPLC-QTOF-MS
Comment: PI: Cristina Nerin; Data collector: QiZhi Su, GUIA, University of Zaragoza, Spain; Collision energy: 20-40 V; Instrument: Waters HPLC-QTOF-MS (Xevo G2 QTof); Ionization: ESI; Deconvoluted by MS-DIAL; Column: Waters AtlantisTM premier BEH C18 AX column (2.1 × 100mm x 1.7μm); Flow rate: 0.3mL/min; Mobile phase A and B are water and methnaol, respectively, both with 0.1% formic acid; Gradient elution: from A/B (95/5) to A/B (100/0) in 7min, kept for 4 min, then back to A/B (95/5) in 0.1 min, and maintained for additional 1.9 min (13min in total).; Injection volume: 10 μL
Num peaks: 17
72.99297 1038
123.04478 984
133.02823 2005
134.0321 240
135.02737 2219
135.04337 1999
161.02295 20977
162.02766 1506
179.03432 3029
180.03719 386
182.03545 236
197.04381 4673
198.036 401
198.04814 434
198.0627 331
265.14615 612
359.07706 9098
Name: (R)-(+)-rosmarinic acid
PrecursorMZ: 359.0757
PrecursorType: [M-H]-
IonMode: Negative
Formula: C18H16O8
SMILES: C1=CC(=C(C=C1CC(C(=O)O)OC(=O)C=CC2=CC(=C(C=C2)O)O)O)O
InChI: 
InChIKey: DOUMFZQKYFQNTF-WUTVXBCWSA-N
RetentionTime: 6.6977
CCS: 
CollisionEnergy: 20-40 eV
InstrumentType: UPLC-QTOF-MS
Comment: PI: Cristina Nerin; Data collector: QiZhi Su, GUIA, University of Zaragoza, Spain; Collision energy: 20-40 V; Instrument: Waters HPLC-QTOF-MS (Xevo G2 QTof); Ionization: ESI; Deconvoluted by MS-DIAL; Column: Waters AtlantisTM premier BEH C18 AX column (2.1 × 100mm x 1.7μm); Flow rate: 0.3mL/min; Mobile phase A and B are water and methnaol, respectively, both with 0.1% formic acid; Gradient elution: from A/B (95/5) to A/B (100/0) in 7min, kept for 4 min, then back to A/B (95/5) in 0.1 min, and maintained for additional 1.9 min (13min in total).; Injection volume: 10 μL
Num peaks: 11
72.99266 3420
123.02839 2626
123.04418 2657
133.028 5140
135.04333 7801
161.02298 117453
162.02664 9070
179.03349 13727
197.04401 35323
198.04726 2571
359.07639 240470
Name: (R)-(+)-rosmarinic acid
PrecursorMZ: 719.1617
PrecursorType: [2M-H]-
IonMode: Negative
Formula: C18H16O8
SMILES: C1=CC(=C(C=C1CC(C(=O)O)OC(=O)C=CC2=CC(=C(C=C2)O)O)O)O
InChI: 
InChIKey: DOUMFZQKYFQNTF-WUTVXBCWSA-N
RetentionTime: 6.6977
CCS: 
CollisionEnergy: 20-40 eV
InstrumentType: UPLC-QTOF-MS
Comment: PI: Cristina Nerin; Data collector: QiZhi Su, GUIA, University of Zaragoza, Spain; Collision energy: 20-40 V; Instrument: Waters HPLC-QTOF-MS (Xevo G2 QTof); Ionization: ESI; Deconvoluted by MS-DIAL; Column: Waters AtlantisTM premier BEH C18 AX column (2.1 × 100mm x 1.7μm); Flow rate: 0.3mL/min; Mobile phase A and B are water and methnaol, respectively, both with 0.1% formic acid; Gradient elution: from A/B (95/5) to A/B (100/0) in 7min, kept for 4 min, then back to A/B (95/5) in 0.1 min, and maintained for additional 1.9 min (13min in total).; Injection volume: 10 μL
Num peaks: 14
72.99266 3407
123.02839 2606
123.04418 2657
133.028 5309
135.04333 7671
161.02298 117700
162.02664 9203
179.03349 13957
197.04401 35346
198.04726 2660
359.07639 238405
360.07935 41003
361.08252 5223
719.16302 75467
Name: (R)-(+)-rosmarinic acid
PrecursorMZ: 359.0763
PrecursorType: [M-H]-
IonMode: Negative
Formula: C18H16O8
SMILES: C1=CC(=C(C=C1CC(C(=O)O)OC(=O)C=CC2=CC(=C(C=C2)O)O)O)O
InChI: 
InChIKey: DOUMFZQKYFQNTF-WUTVXBCWSA-N
RetentionTime: 6.766233
CCS: 
CollisionEnergy: 20-40 eV
InstrumentType: UPLC-QTOF-MS
Comment: PI: Cristina Nerin; Data collector: QiZhi Su, GUIA, University of Zaragoza, Spain; Collision energy: 20-40 V; Instrument: Waters HPLC-QTOF-MS (Xevo G2 QTof); Ionization: ESI; Deconvoluted by MS-DIAL; Column: Waters AtlantisTM premier BEH C18 AX column (2.1 × 100mm x 1.7μm); Flow rate: 0.3mL/min; Mobile phase A and B are water and methnaol, respectively, both with 0.1% formic acid; Gradient elution: from A/B (95/5) to A/B (100/0) in 7min, kept for 4 min, then back to A/B (95/5) in 0.1 min, and maintained for additional 1.9 min (13min in total).; Injection volume: 10 μL
Num peaks: 15
72.99239 3744
123.04408 3329
133.02817 7431
134.03285 863
135.04326 10019
161.02283 77578
162.02602 6035
163.04567 872
177.01759 2414
179.03311 14158
180.0377 1738
197.04424 20802
198.04686 1517
265.14648 3450
359.07581 42363
Name: Bispyrazolone
PrecursorMZ: 345.1348
PrecursorType: [M-H]-
IonMode: Negative
Formula: C20H18N4O2
SMILES: CC1=NN(C(=O)C1C2C(=NN(C2=O)C3=CC=CC=C3)C)C4=CC=CC=C4
InChI: 
InChIKey: FORCWSNQDMPPOC-UHFFFAOYSA-N
RetentionTime: 5.95435
CCS: 
CollisionEnergy: 20-40 eV
InstrumentType: UPLC-QTOF-MS
Comment: PI: Cristina Nerin; Data collector: QiZhi Su, GUIA, University of Zaragoza, Spain; Collision energy: 20-40 V; Instrument: Waters HPLC-QTOF-MS (Xevo G2 QTof); Ionization: ESI; Deconvoluted by MS-DIAL; Column: Waters AtlantisTM premier BEH C18 AX column (2.1 × 100mm x 1.7μm); Flow rate: 0.3mL/min; Mobile phase A and B are water and methnaol, respectively, both with 0.1% formic acid; Gradient elution: from A/B (95/5) to A/B (100/0) in 7min, kept for 4 min, then back to A/B (95/5) in 0.1 min, and maintained for additional 1.9 min (13min in total).; Injection volume: 10 μL
Num peaks: 14
116.03706 1264
116.05014 1293
157.07573 2575
169.02135 3753
169.04059 3718
173.07039 21054
174.07353 1934
185.07364 1483
258.10339 1771
276.1134 15346
277.11655 2536
304.10876 2305
317.14023 2866
345.13477 121435
Name: Palmitoleic acid
PrecursorMZ: 253.2165
PrecursorType: [M-H]-
IonMode: Negative
Formula: C16H30O2
SMILES: CCCCCCC=CCCCCCCCC(=O)O
InChI: 
InChIKey: SECPZKHBENQXJG-FPLPWBNLSA-N
RetentionTime: 8.43145
CCS: 
CollisionEnergy: 20-40 eV
InstrumentType: UPLC-QTOF-MS
Comment: PI: Cristina Nerin; Data collector: QiZhi Su, GUIA, University of Zaragoza, Spain; Collision energy: 20-40 V; Instrument: Waters HPLC-QTOF-MS (Xevo G2 QTof); Ionization: ESI; Deconvoluted by MS-DIAL; Column: Waters AtlantisTM premier BEH C18 AX column (2.1 × 100mm x 1.7μm); Flow rate: 0.3mL/min; Mobile phase A and B are water and methnaol, respectively, both with 0.1% formic acid; Gradient elution: from A/B (95/5) to A/B (100/0) in 7min, kept for 4 min, then back to A/B (95/5) in 0.1 min, and maintained for additional 1.9 min (13min in total).; Injection volume: 10 μL
Num peaks: 52
59.01641 29
74.99163 104
75.00649 100
78.95692 33
78.96218 32
80.96524 206
81.04048 28
95.94872 28
96.95906 1018
96.97444 1016
97.06091 31
97.06889 31
97.95422 43
100.95521 49
108.04245 241
112.98398 200
116.92766 75
123.00652 38
123.0155 30
134.02232 120
149.08789 130
149.09634 127
159.89447 30
162.88577 33
162.89801 36
163.1102 33
163.118 33
169.08632 82
181.05464 46
181.06433 32
183.00316 78
183.01387 89
189.07999 37
194.03398 43
197.01421 43
198.05597 32
198.07178 55
199.06134 30
199.08366 28
199.16548 46
205.08656 29
205.14636 107
205.15858 137
206.17062 29
209.08591 29
213.12025 50
213.136 32
219.15747 44
219.1675 35
223.00348 88
223.09393 28
253.21559 2718
Name: N-(4-Hydroxyphenyl)stearamide
PrecursorMZ: 374.3045
PrecursorType: [M-H]-
IonMode: Negative
Formula: C24H41NO2
SMILES: CCCCCCCCCCCCCCCCCC(=O)NC1=CC=C(C=C1)O
InChI: 
InChIKey: YASWBJXTHOXPGK-UHFFFAOYSA-N
RetentionTime: 8.450483
CCS: 
CollisionEnergy: 20-40 eV
InstrumentType: UPLC-QTOF-MS
Comment: PI: Cristina Nerin; Data collector: QiZhi Su, GUIA, University of Zaragoza, Spain; Collision energy: 20-40 V; Instrument: Waters HPLC-QTOF-MS (Xevo G2 QTof); Ionization: ESI; Deconvoluted by MS-DIAL; Column: Waters AtlantisTM premier BEH C18 AX column (2.1 × 100mm x 1.7μm); Flow rate: 0.3mL/min; Mobile phase A and B are water and methnaol, respectively, both with 0.1% formic acid; Gradient elution: from A/B (95/5) to A/B (100/0) in 7min, kept for 4 min, then back to A/B (95/5) in 0.1 min, and maintained for additional 1.9 min (13min in total).; Injection volume: 10 μL
Num peaks: 3
107.03618 5734
107.05103 5779
374.30499 142280
Name: N-(4-Hydroxyphenyl)stearamide
PrecursorMZ: 420.3102
PrecursorType: [M+FA-H]-
IonMode: Negative
Formula: C24H41NO2
SMILES: CCCCCCCCCCCCCCCCCC(=O)NC1=CC=C(C=C1)O
InChI: 
InChIKey: YASWBJXTHOXPGK-UHFFFAOYSA-N
RetentionTime: 8.450483
CCS: 
CollisionEnergy: 20-40 eV
InstrumentType: UPLC-QTOF-MS
Comment: PI: Cristina Nerin; Data collector: QiZhi Su, GUIA, University of Zaragoza, Spain; Collision energy: 20-40 V; Instrument: Waters HPLC-QTOF-MS (Xevo G2 QTof); Ionization: ESI; Deconvoluted by MS-DIAL; Column: Waters AtlantisTM premier BEH C18 AX column (2.1 × 100mm x 1.7μm); Flow rate: 0.3mL/min; Mobile phase A and B are water and methnaol, respectively, both with 0.1% formic acid; Gradient elution: from A/B (95/5) to A/B (100/0) in 7min, kept for 4 min, then back to A/B (95/5) in 0.1 min, and maintained for additional 1.9 min (13min in total).; Injection volume: 10 μL
Num peaks: 5
107.03618 5734
107.05103 5779
374.30499 138302
375.30832 32023
376.31226 3436
Name: N-(4-Hydroxyphenyl)stearamide
PrecursorMZ: 749.6199
PrecursorType: [2M-H]-
IonMode: Negative
Formula: C24H41NO2
SMILES: CCCCCCCCCCCCCCCCCC(=O)NC1=CC=C(C=C1)O
InChI: 
InChIKey: YASWBJXTHOXPGK-UHFFFAOYSA-N
RetentionTime: 8.454284
CCS: 
CollisionEnergy: 20-40 eV
InstrumentType: UPLC-QTOF-MS
Comment: PI: Cristina Nerin; Data collector: QiZhi Su, GUIA, University of Zaragoza, Spain; Collision energy: 20-40 V; Instrument: Waters HPLC-QTOF-MS (Xevo G2 QTof); Ionization: ESI; Deconvoluted by MS-DIAL; Column: Waters AtlantisTM premier BEH C18 AX column (2.1 × 100mm x 1.7μm); Flow rate: 0.3mL/min; Mobile phase A and B are water and methnaol, respectively, both with 0.1% formic acid; Gradient elution: from A/B (95/5) to A/B (100/0) in 7min, kept for 4 min, then back to A/B (95/5) in 0.1 min, and maintained for additional 1.9 min (13min in total).; Injection volume: 10 μL
Num peaks: 14
107.01854 703
107.03604 681
107.05465 711
134.02357 225
239.04753 253
239.05522 257
239.06659 252
265.14658 278
285.20776 1785
286.20953 281
459.32919 415
539.43622 781
540.43878 259
749.62036 19505
Name: Bispyrazolone
PrecursorMZ: 691.278
PrecursorType: [2M-H]-
IonMode: Negative
Formula: C20H18N4O2
SMILES: CC1=NN(C(=O)C1C2C(=NN(C2=O)C3=CC=CC=C3)C)C4=CC=CC=C4
InChI: 
InChIKey: FORCWSNQDMPPOC-UHFFFAOYSA-N
RetentionTime: 5.961967
CCS: 
CollisionEnergy: 20-40 eV
InstrumentType: UPLC-QTOF-MS
Comment: PI: Cristina Nerin; Data collector: QiZhi Su, GUIA, University of Zaragoza, Spain; Collision energy: 20-40 V; Instrument: Waters HPLC-QTOF-MS (Xevo G2 QTof); Ionization: ESI; Deconvoluted by MS-DIAL; Column: Waters AtlantisTM premier BEH C18 AX column (2.1 × 100mm x 1.7μm); Flow rate: 0.3mL/min; Mobile phase A and B are water and methnaol, respectively, both with 0.1% formic acid; Gradient elution: from A/B (95/5) to A/B (100/0) in 7min, kept for 4 min, then back to A/B (95/5) in 0.1 min, and maintained for additional 1.9 min (13min in total).; Injection volume: 10 μL
Num peaks: 10
131.03667 1334
169.03923 3873
258.10242 2019
277.11716 2593
304.1087 1304
345.13416 117126
346.13736 23461
347.13095 2729
347.1438 2730
691.27374 1817
Name: "2,4,6-Tribromophenol"
PrecursorMZ: 326.7642
PrecursorType: [M-H]-
IonMode: Negative
Formula: C6H3Br3O
SMILES: C1=C(C=C(C(=C1Br)O)Br)Br
InChI: 
InChIKey: BSWWXRFVMJHFBN-UHFFFAOYSA-N
RetentionTime: 7.554767
CCS: 
CollisionEnergy: 20-40 eV
InstrumentType: UPLC-QTOF-MS
Comment: PI: Cristina Nerin; Data collector: QiZhi Su, GUIA, University of Zaragoza, Spain; Collision energy: 20-40 V; Instrument: Waters HPLC-QTOF-MS (Xevo G2 QTof); Ionization: ESI; Deconvoluted by MS-DIAL; Column: Waters AtlantisTM premier BEH C18 AX column (2.1 × 100mm x 1.7μm); Flow rate: 0.3mL/min; Mobile phase A and B are water and methnaol, respectively, both with 0.1% formic acid; Gradient elution: from A/B (95/5) to A/B (100/0) in 7min, kept for 4 min, then back to A/B (95/5) in 0.1 min, and maintained for additional 1.9 min (13min in total).; Injection volume: 10 μL
Num peaks: 8
78.91807 8000
80.91606 8624
248.8331 156
255.23192 109
267.17566 88
267.19357 390
267.2099 364
326.76471 3736
Name: "2,4,6-Tribromophenol"
PrecursorMZ: 326.7636
PrecursorType: [M-H]-
IonMode: Negative
Formula: C6H3Br3O
SMILES: C1=C(C=C(C(=C1Br)O)Br)Br
InChI: 
InChIKey: BSWWXRFVMJHFBN-UHFFFAOYSA-N
RetentionTime: 7.550983
CCS: 
CollisionEnergy: 20-40 eV
InstrumentType: UPLC-QTOF-MS
Comment: PI: Cristina Nerin; Data collector: QiZhi Su, GUIA, University of Zaragoza, Spain; Collision energy: 20-40 V; Instrument: Waters HPLC-QTOF-MS (Xevo G2 QTof); Ionization: ESI; Deconvoluted by MS-DIAL; Column: Waters AtlantisTM premier BEH C18 AX column (2.1 × 100mm x 1.7μm); Flow rate: 0.3mL/min; Mobile phase A and B are water and methnaol, respectively, both with 0.1% formic acid; Gradient elution: from A/B (95/5) to A/B (100/0) in 7min, kept for 4 min, then back to A/B (95/5) in 0.1 min, and maintained for additional 1.9 min (13min in total).; Injection volume: 10 μL
Num peaks: 9
78.91756 15332
78.93698 15439
80.91553 16514
80.92958 16511
248.8264 234
248.84082 245
267.1777 656
267.19641 737
326.76303 6348
Name: Bis-(4-hydroxyphenyl)-methan (Bisphenol F)
PrecursorMZ: 399.1591
PrecursorType: [2M-H]-
IonMode: Negative
Formula: C13H12O2
SMILES: C1=CC(=CC=C1CC2=CC=C(C=C2)O)O
InChI: 
InChIKey: PXKLMJQFEQBVLD-UHFFFAOYSA-N
RetentionTime: 6.02665
CCS: 
CollisionEnergy: 20-40 eV
InstrumentType: UPLC-QTOF-MS
Comment: PI: Cristina Nerin; Data collector: QiZhi Su, GUIA, University of Zaragoza, Spain; Collision energy: 20-40 V; Instrument: Waters HPLC-QTOF-MS (Xevo G2 QTof); Ionization: ESI; Deconvoluted by MS-DIAL; Column: Waters AtlantisTM premier BEH C18 AX column (2.1 × 100mm x 1.7μm); Flow rate: 0.3mL/min; Mobile phase A and B are water and methnaol, respectively, both with 0.1% formic acid; Gradient elution: from A/B (95/5) to A/B (100/0) in 7min, kept for 4 min, then back to A/B (95/5) in 0.1 min, and maintained for additional 1.9 min (13min in total).; Injection volume: 10 μL
Num peaks: 22
93.03632 106
96.96201 37
105.02733 59
105.03538 60
112.98537 97
130.96652 35
156.05734 50
157.06279 35
197.05174 35
197.06247 43
199.05426 269
199.07509 3456
200.0791 451
201.07654 37
213.0531 45
245.08171 128
257.02405 51
283.00024 96
283.01248 100
329.03101 45
399.15799 689
399.19659 83
Name: Bis-(4-hydroxyphenyl)-methan (Bisphenol F)
PrecursorMZ: 199.0743
PrecursorType: [M-H]-
IonMode: Negative
Formula: C13H12O2
SMILES: C1=CC(=CC=C1CC2=CC=C(C=C2)O)O
InChI: 
InChIKey: PXKLMJQFEQBVLD-UHFFFAOYSA-N
RetentionTime: 6.030467
CCS: 
CollisionEnergy: 20-40 eV
InstrumentType: UPLC-QTOF-MS
Comment: PI: Cristina Nerin; Data collector: QiZhi Su, GUIA, University of Zaragoza, Spain; Collision energy: 20-40 V; Instrument: Waters HPLC-QTOF-MS (Xevo G2 QTof); Ionization: ESI; Deconvoluted by MS-DIAL; Column: Waters AtlantisTM premier BEH C18 AX column (2.1 × 100mm x 1.7μm); Flow rate: 0.3mL/min; Mobile phase A and B are water and methnaol, respectively, both with 0.1% formic acid; Gradient elution: from A/B (95/5) to A/B (100/0) in 7min, kept for 4 min, then back to A/B (95/5) in 0.1 min, and maintained for additional 1.9 min (13min in total).; Injection volume: 10 μL
Num peaks: 14
93.036 106
96.95447 38
96.96002 38
105.03072 60
105.03854 60
112.98243 95
112.99297 100
130.96405 35
130.97275 35
156.04932 50
157.06206 35
157.07181 34
197.06317 44
199.07472 3391
Name: oleic acid
PrecursorMZ: 281.247
PrecursorType: [M-H]-
IonMode: Negative
Formula: C18H34O2
SMILES: CCCCCCCCC=CCCCCCCCC(=O)O
InChI: 
InChIKey: ZQPPMHVWECSIRJ-KTKRTIGZSA-N
RetentionTime: 8.805117
CCS: 
CollisionEnergy: 20-40 eV
InstrumentType: UPLC-QTOF-MS
Comment: PI: Cristina Nerin; Data collector: QiZhi Su, GUIA, University of Zaragoza, Spain; Collision energy: 20-40 V; Instrument: Waters HPLC-QTOF-MS (Xevo G2 QTof); Ionization: ESI; Deconvoluted by MS-DIAL; Column: Waters AtlantisTM premier BEH C18 AX column (2.1 × 100mm x 1.7μm); Flow rate: 0.3mL/min; Mobile phase A and B are water and methnaol, respectively, both with 0.1% formic acid; Gradient elution: from A/B (95/5) to A/B (100/0) in 7min, kept for 4 min, then back to A/B (95/5) in 0.1 min, and maintained for additional 1.9 min (13min in total).; Injection volume: 10 μL
Num peaks: 24
79.95736 120
80.95559 88
80.96481 88
83.02905 86
96.95963 2451
98.95566 110
99.91737 58
99.92222 57
99.92699 57
116.92662 82
116.93599 83
149.07933 87
149.08821 104
149.09679 100
149.10492 102
183.01143 357
183.01981 359
184.00281 53
184.01993 61
265.14795 185
279.16043 68
279.17181 74
281.24805 4446
281.27344 415
Name: "2,2'-Methylenebis(4-chloro-phenol)"
PrecursorMZ: 535.0038
PrecursorType: [2M-H]-
IonMode: Negative
Formula: C13H10Cl2O2
SMILES: C1=CC(=C(C=C1Cl)CC2=C(C=CC(=C2)Cl)O)O
InChI: 
InChIKey: MDNWOSOZYLHTCG-UHFFFAOYSA-N
RetentionTime: 7.166533
CCS: 
CollisionEnergy: 20-40 eV
InstrumentType: UPLC-QTOF-MS
Comment: PI: Cristina Nerin; Data collector: QiZhi Su, GUIA, University of Zaragoza, Spain; Collision energy: 20-40 V; Instrument: Waters HPLC-QTOF-MS (Xevo G2 QTof); Ionization: ESI; Deconvoluted by MS-DIAL; Column: Waters AtlantisTM premier BEH C18 AX column (2.1 × 100mm x 1.7μm); Flow rate: 0.3mL/min; Mobile phase A and B are water and methnaol, respectively, both with 0.1% formic acid; Gradient elution: from A/B (95/5) to A/B (100/0) in 7min, kept for 4 min, then back to A/B (95/5) in 0.1 min, and maintained for additional 1.9 min (13min in total).; Injection volume: 10 μL
Num peaks: 10
126.9938 305998
127.99702 14580
128.99092 91368
129.97726 3982
129.9949 4031
266.99677 109394
268.00024 13089
268.99396 69407
269.99725 7895
270.992 9732
Name: "2,2'-Methylenebis(4-chloro-phenol)"
PrecursorMZ: 266.9969
PrecursorType: [M-H]-
IonMode: Negative
Formula: C13H10Cl2O2
SMILES: C1=CC(=C(C=C1Cl)CC2=C(C=CC(=C2)Cl)O)O
InChI: 
InChIKey: MDNWOSOZYLHTCG-UHFFFAOYSA-N
RetentionTime: 7.17035
CCS: 
CollisionEnergy: 20-40 eV
InstrumentType: UPLC-QTOF-MS
Comment: PI: Cristina Nerin; Data collector: QiZhi Su, GUIA, University of Zaragoza, Spain; Collision energy: 20-40 V; Instrument: Waters HPLC-QTOF-MS (Xevo G2 QTof); Ionization: ESI; Deconvoluted by MS-DIAL; Column: Waters AtlantisTM premier BEH C18 AX column (2.1 × 100mm x 1.7μm); Flow rate: 0.3mL/min; Mobile phase A and B are water and methnaol, respectively, both with 0.1% formic acid; Gradient elution: from A/B (95/5) to A/B (100/0) in 7min, kept for 4 min, then back to A/B (95/5) in 0.1 min, and maintained for additional 1.9 min (13min in total).; Injection volume: 10 μL
Num peaks: 7
126.99393 304549
127.01352 304705
127.99728 14476
128.991 90879
129.97726 3979
129.99399 3980
266.99667 114130
Name: oleic acid
PrecursorMZ: 563.5026
PrecursorType: [2M-H]-
IonMode: Negative
Formula: C18H34O2
SMILES: CCCCCCCCC=CCCCCCCCC(=O)O
InChI: 
InChIKey: ZQPPMHVWECSIRJ-KTKRTIGZSA-N
RetentionTime: 8.8011
CCS: 
CollisionEnergy: 20-40 eV
InstrumentType: UPLC-QTOF-MS
Comment: PI: Cristina Nerin; Data collector: QiZhi Su, GUIA, University of Zaragoza, Spain; Collision energy: 20-40 V; Instrument: Waters HPLC-QTOF-MS (Xevo G2 QTof); Ionization: ESI; Deconvoluted by MS-DIAL; Column: Waters AtlantisTM premier BEH C18 AX column (2.1 × 100mm x 1.7μm); Flow rate: 0.3mL/min; Mobile phase A and B are water and methnaol, respectively, both with 0.1% formic acid; Gradient elution: from A/B (95/5) to A/B (100/0) in 7min, kept for 4 min, then back to A/B (95/5) in 0.1 min, and maintained for additional 1.9 min (13min in total).; Injection volume: 10 μL
Num peaks: 63
79.95249 137
79.95813 140
79.96187 140
80.96229 221
80.9676 222
96.95881 2915
97.05936 153
98.94851 150
98.95457 160
98.96114 163
116.92169 127
116.92664 133
122.97112 109
152.97556 266
171.10217 146
171.12111 129
183.01007 744
184.0136 98
184.02322 101
223.02341 200
239.05695 332
255.23279 221
265.14554 709
281.24677 9583
283.23465 104
283.25385 234
283.26932 218
297.1496 317
297.24277 260
298.1507 142
298.16113 102
309.16275 424
309.17181 393
311.16745 126
311.21463 101
311.23038 130
313.25269 137
325.17041 117
325.18427 121
349.23199 538
350.23804 139
353.19629 415
353.21631 217
365.16821 139
365.18124 154
387.10635 96
391.23706 158
397.22272 455
397.23871 413
405.25708 180
407.36447 120
433.36707 137
440.94626 198
440.96469 214
441.24918 188
441.26703 160
442.96094 266
444.95795 133
451.34036 107
459.32422 982
460.32236 271
548.97638 121
556.9917 96
Name: DL-Methionine
PrecursorMZ: 297.094
PrecursorType: [2M-H]-
IonMode: Negative
Formula: C5H11NO2S
SMILES: CSCCC(C(=O)O)N
InChI: 
InChIKey: FFEARJCKVFRZRR-UHFFFAOYSA-N
RetentionTime: 0.8632833
CCS: 
CollisionEnergy: 20-40 eV
InstrumentType: UPLC-QTOF-MS
Comment: PI: Cristina Nerin; Data collector: QiZhi Su, GUIA, University of Zaragoza, Spain; Collision energy: 20-40 V; Instrument: Waters HPLC-QTOF-MS (Xevo G2 QTof); Ionization: ESI; Deconvoluted by MS-DIAL; Column: Waters AtlantisTM premier BEH C18 AX column (2.1 × 100mm x 1.7μm); Flow rate: 0.3mL/min; Mobile phase A and B are water and methnaol, respectively, both with 0.1% formic acid; Gradient elution: from A/B (95/5) to A/B (100/0) in 7min, kept for 4 min, then back to A/B (95/5) in 0.1 min, and maintained for additional 1.9 min (13min in total).; Injection volume: 10 μL
Num peaks: 6
100.0404 84
148.04303 3604
149.04434 201
150.0381 149
150.04997 163
297.09375 6216
Name: DL-Methionine
PrecursorMZ: 148.0418
PrecursorType: [M-H]-
IonMode: Negative
Formula: C5H11NO2S
SMILES: CSCCC(C(=O)O)N
InChI: 
InChIKey: FFEARJCKVFRZRR-UHFFFAOYSA-N
RetentionTime: 0.8670833
CCS: 
CollisionEnergy: 20-40 eV
InstrumentType: UPLC-QTOF-MS
Comment: PI: Cristina Nerin; Data collector: QiZhi Su, GUIA, University of Zaragoza, Spain; Collision energy: 20-40 V; Instrument: Waters HPLC-QTOF-MS (Xevo G2 QTof); Ionization: ESI; Deconvoluted by MS-DIAL; Column: Waters AtlantisTM premier BEH C18 AX column (2.1 × 100mm x 1.7μm); Flow rate: 0.3mL/min; Mobile phase A and B are water and methnaol, respectively, both with 0.1% formic acid; Gradient elution: from A/B (95/5) to A/B (100/0) in 7min, kept for 4 min, then back to A/B (95/5) in 0.1 min, and maintained for additional 1.9 min (13min in total).; Injection volume: 10 μL
Num peaks: 30
56.49436 51
71.01206 29
71.01724 25
72.99288 50
75.55778 20
79.95736 27
80.96607 53
81.12758 54
86.00465 39
87.00256 23
88.99604 24
89.00292 27
91.99686 146
96.96453 30
100.0201 56
100.03371 27
100.04194 67
101.00513 21
101.94386 23
106.96497 24
114.91418 23
115.02003 27
118.10883 22
130.0163 20
131.00798 20
131.01418 25
132.82787 24
137.00562 20
139.01004 25
148.04312 561
Name: glycoursodeoxycholic acid
PrecursorMZ: 897.6223
PrecursorType: [2M-H]-
IonMode: Negative
Formula: C26H43NO5
SMILES: CC(CCC(=O)NCC(=O)O)C1CCC2C1(CCC3C2C(CC4C3(CCC(C4)O)C)O)C
InChI: 
InChIKey: GHCZAUBVMUEKKP-XROMFQGDSA-N
RetentionTime: 7.554966
CCS: 
CollisionEnergy: 20-40 eV
InstrumentType: UPLC-QTOF-MS
Comment: PI: Cristina Nerin; Data collector: QiZhi Su, GUIA, University of Zaragoza, Spain; Collision energy: 20-40 V; Instrument: Waters HPLC-QTOF-MS (Xevo G2 QTof); Ionization: ESI; Deconvoluted by MS-DIAL; Column: Waters AtlantisTM premier BEH C18 AX column (2.1 × 100mm x 1.7μm); Flow rate: 0.3mL/min; Mobile phase A and B are water and methnaol, respectively, both with 0.1% formic acid; Gradient elution: from A/B (95/5) to A/B (100/0) in 7min, kept for 4 min, then back to A/B (95/5) in 0.1 min, and maintained for additional 1.9 min (13min in total).; Injection volume: 10 μL
Num peaks: 1
897.6214 115018
Name: glycoursodeoxycholic acid
PrecursorMZ: 448.3062
PrecursorType: [M-H]-
IonMode: Negative
Formula: C26H43NO5
SMILES: CC(CCC(=O)NCC(=O)O)C1CCC2C1(CCC3C2C(CC4C3(CCC(C4)O)C)O)C
InChI: 
InChIKey: GHCZAUBVMUEKKP-XROMFQGDSA-N
RetentionTime: 7.59685
CCS: 
CollisionEnergy: 20-40 eV
InstrumentType: UPLC-QTOF-MS
Comment: PI: Cristina Nerin; Data collector: QiZhi Su, GUIA, University of Zaragoza, Spain; Collision energy: 20-40 V; Instrument: Waters HPLC-QTOF-MS (Xevo G2 QTof); Ionization: ESI; Deconvoluted by MS-DIAL; Column: Waters AtlantisTM premier BEH C18 AX column (2.1 × 100mm x 1.7μm); Flow rate: 0.3mL/min; Mobile phase A and B are water and methnaol, respectively, both with 0.1% formic acid; Gradient elution: from A/B (95/5) to A/B (100/0) in 7min, kept for 4 min, then back to A/B (95/5) in 0.1 min, and maintained for additional 1.9 min (13min in total).; Injection volume: 10 μL
Num peaks: 3
74.01225 11750
74.02332 11738
448.30566 378414
Name: Deoxycholic acid
PrecursorMZ: 783.5792
PrecursorType: [2M-H]-
IonMode: Negative
Formula: C24H40O4
SMILES: CC(CCC(=O)O)C1CCC2C1(C(CC3C2CCC4C3(CCC(C4)O)C)O)C
InChI: 
InChIKey: KXGVEGMKQFWNSR-LLQZFEROSA-N
RetentionTime: 7.799117
CCS: 
CollisionEnergy: 20-40 eV
InstrumentType: UPLC-QTOF-MS
Comment: PI: Cristina Nerin; Data collector: QiZhi Su, GUIA, University of Zaragoza, Spain; Collision energy: 20-40 V; Instrument: Waters HPLC-QTOF-MS (Xevo G2 QTof); Ionization: ESI; Deconvoluted by MS-DIAL; Column: Waters AtlantisTM premier BEH C18 AX column (2.1 × 100mm x 1.7μm); Flow rate: 0.3mL/min; Mobile phase A and B are water and methnaol, respectively, both with 0.1% formic acid; Gradient elution: from A/B (95/5) to A/B (100/0) in 7min, kept for 4 min, then back to A/B (95/5) in 0.1 min, and maintained for additional 1.9 min (13min in total).; Injection volume: 10 μL
Num peaks: 5
345.27884 6649
391.28427 616279
392.2872 148612
393.29001 17530
783.5788 49184
Name: Deoxycholic acid
PrecursorMZ: 391.2836
PrecursorType: [M-H]-
IonMode: Negative
Formula: C24H40O4
SMILES: CC(CCC(=O)O)C1CCC2C1(C(CC3C2CCC4C3(CCC(C4)O)C)O)C
InChI: 
InChIKey: KXGVEGMKQFWNSR-LLQZFEROSA-N
RetentionTime: 7.833384
CCS: 
CollisionEnergy: 20-40 eV
InstrumentType: UPLC-QTOF-MS
Comment: PI: Cristina Nerin; Data collector: QiZhi Su, GUIA, University of Zaragoza, Spain; Collision energy: 20-40 V; Instrument: Waters HPLC-QTOF-MS (Xevo G2 QTof); Ionization: ESI; Deconvoluted by MS-DIAL; Column: Waters AtlantisTM premier BEH C18 AX column (2.1 × 100mm x 1.7μm); Flow rate: 0.3mL/min; Mobile phase A and B are water and methnaol, respectively, both with 0.1% formic acid; Gradient elution: from A/B (95/5) to A/B (100/0) in 7min, kept for 4 min, then back to A/B (95/5) in 0.1 min, and maintained for additional 1.9 min (13min in total).; Injection volume: 10 μL
Num peaks: 2
345.27744 6837
391.28403 497060
Name: Deoxycholic acid
PrecursorMZ: 437.2891
PrecursorType: [M+FA-H]-
IonMode: Negative
Formula: C24H40O4
SMILES: CC(CCC(=O)O)C1CCC2C1(C(CC3C2CCC4C3(CCC(C4)O)C)O)C
InChI: 
InChIKey: KXGVEGMKQFWNSR-LLQZFEROSA-N
RetentionTime: 7.833384
CCS: 
CollisionEnergy: 20-40 eV
InstrumentType: UPLC-QTOF-MS
Comment: PI: Cristina Nerin; Data collector: QiZhi Su, GUIA, University of Zaragoza, Spain; Collision energy: 20-40 V; Instrument: Waters HPLC-QTOF-MS (Xevo G2 QTof); Ionization: ESI; Deconvoluted by MS-DIAL; Column: Waters AtlantisTM premier BEH C18 AX column (2.1 × 100mm x 1.7μm); Flow rate: 0.3mL/min; Mobile phase A and B are water and methnaol, respectively, both with 0.1% formic acid; Gradient elution: from A/B (95/5) to A/B (100/0) in 7min, kept for 4 min, then back to A/B (95/5) in 0.1 min, and maintained for additional 1.9 min (13min in total).; Injection volume: 10 μL
Num peaks: 4
345.27744 6837
391.28403 497060
392.2872 117355
393.29022 13429
Name: Hyodeoxycholic acid
PrecursorMZ: 391.2857
PrecursorType: [M-H]-
IonMode: Negative
Formula: C24H40O4
SMILES: CC(CCC(=O)O)C1CCC2C1(CCC3C2CC(C4C3(CCC(C4)O)C)O)C
InChI: 
InChIKey: DGABKXLVXPYZII-SIBKNCMHSA-N
RetentionTime: 7.482283
CCS: 
CollisionEnergy: 20-40 eV
InstrumentType: UPLC-QTOF-MS
Comment: PI: Cristina Nerin; Data collector: QiZhi Su, GUIA, University of Zaragoza, Spain; Collision energy: 20-40 V; Instrument: Waters HPLC-QTOF-MS (Xevo G2 QTof); Ionization: ESI; Deconvoluted by MS-DIAL; Column: Waters AtlantisTM premier BEH C18 AX column (2.1 × 100mm x 1.7μm); Flow rate: 0.3mL/min; Mobile phase A and B are water and methnaol, respectively, both with 0.1% formic acid; Gradient elution: from A/B (95/5) to A/B (100/0) in 7min, kept for 4 min, then back to A/B (95/5) in 0.1 min, and maintained for additional 1.9 min (13min in total).; Injection volume: 10 μL
Num peaks: 1
391.28503 365673
Name: Hyodeoxycholic acid
PrecursorMZ: 437.2912
PrecursorType: [M+FA-H]-
IonMode: Negative
Formula: C24H40O4
SMILES: CC(CCC(=O)O)C1CCC2C1(CCC3C2CC(C4C3(CCC(C4)O)C)O)C
InChI: 
InChIKey: DGABKXLVXPYZII-SIBKNCMHSA-N
RetentionTime: 7.482283
CCS: 
CollisionEnergy: 20-40 eV
InstrumentType: UPLC-QTOF-MS
Comment: PI: Cristina Nerin; Data collector: QiZhi Su, GUIA, University of Zaragoza, Spain; Collision energy: 20-40 V; Instrument: Waters HPLC-QTOF-MS (Xevo G2 QTof); Ionization: ESI; Deconvoluted by MS-DIAL; Column: Waters AtlantisTM premier BEH C18 AX column (2.1 × 100mm x 1.7μm); Flow rate: 0.3mL/min; Mobile phase A and B are water and methnaol, respectively, both with 0.1% formic acid; Gradient elution: from A/B (95/5) to A/B (100/0) in 7min, kept for 4 min, then back to A/B (95/5) in 0.1 min, and maintained for additional 1.9 min (13min in total).; Injection volume: 10 μL
Num peaks: 3
391.28503 365673
392.28833 84591
393.29282 10129
Name: Hyodeoxycholic acid
PrecursorMZ: 783.5802
PrecursorType: [M-H]-
IonMode: Negative
Formula: C24H40O4
SMILES: CC(CCC(=O)O)C1CCC2C1(CCC3C2CC(C4C3(CCC(C4)O)C)O)C
InChI: 
InChIKey: DGABKXLVXPYZII-SIBKNCMHSA-N
RetentionTime: 7.505133
CCS: 
CollisionEnergy: 20-40 eV
InstrumentType: UPLC-QTOF-MS
Comment: PI: Cristina Nerin; Data collector: QiZhi Su, GUIA, University of Zaragoza, Spain; Collision energy: 20-40 V; Instrument: Waters HPLC-QTOF-MS (Xevo G2 QTof); Ionization: ESI; Deconvoluted by MS-DIAL; Column: Waters AtlantisTM premier BEH C18 AX column (2.1 × 100mm x 1.7μm); Flow rate: 0.3mL/min; Mobile phase A and B are water and methnaol, respectively, both with 0.1% formic acid; Gradient elution: from A/B (95/5) to A/B (100/0) in 7min, kept for 4 min, then back to A/B (95/5) in 0.1 min, and maintained for additional 1.9 min (13min in total).; Injection volume: 10 μL
Num peaks: 2
393.29095 11306
783.58026 182020
Name: Riboflavin
PrecursorMZ: 375.1281
PrecursorType: [M-H]-
IonMode: Negative
Formula: C17H20N4O6
SMILES: CC1=CC2=C(C=C1C)N(C3=NC(=O)NC(=O)C3=N2)CC(C(C(CO)O)O)O
InChI: 
InChIKey: AUNGANRZJHBGPY-SCRDCRAPSA-N
RetentionTime: 3.85845
CCS: 
CollisionEnergy: 20-40 eV
InstrumentType: UPLC-QTOF-MS
Comment: PI: Cristina Nerin; Data collector: QiZhi Su, GUIA, University of Zaragoza, Spain; Collision energy: 20-40 V; Instrument: Waters HPLC-QTOF-MS (Xevo G2 QTof); Ionization: ESI; Deconvoluted by MS-DIAL; Column: Waters AtlantisTM premier BEH C18 AX column (2.1 × 100mm x 1.7μm); Flow rate: 0.3mL/min; Mobile phase A and B are water and methnaol, respectively, both with 0.1% formic acid; Gradient elution: from A/B (95/5) to A/B (100/0) in 7min, kept for 4 min, then back to A/B (95/5) in 0.1 min, and maintained for additional 1.9 min (13min in total).; Injection volume: 10 μL
Num peaks: 11
184.08853 400
212.08052 2110
240.05975 523
241.0639 645
241.07382 637
255.08521 21177
255.2767 259
256.08673 2916
257.0881 317
257.50903 300
375.12833 4567
Name: Lithocholic acid
PrecursorMZ: 375.2894
PrecursorType: [M-H]-
IonMode: Negative
Formula: C24H40O3
SMILES: CC(CCC(=O)O)C1CCC2C1(CCC3C2CCC4C3(CCC(C4)O)C)C
InChI: 
InChIKey: SMEROWZSTRWXGI-HVATVPOCSA-N
RetentionTime: 8.191383
CCS: 
CollisionEnergy: 20-40 eV
InstrumentType: UPLC-QTOF-MS
Comment: PI: Cristina Nerin; Data collector: QiZhi Su, GUIA, University of Zaragoza, Spain; Collision energy: 20-40 V; Instrument: Waters HPLC-QTOF-MS (Xevo G2 QTof); Ionization: ESI; Deconvoluted by MS-DIAL; Column: Waters AtlantisTM premier BEH C18 AX column (2.1 × 100mm x 1.7μm); Flow rate: 0.3mL/min; Mobile phase A and B are water and methnaol, respectively, both with 0.1% formic acid; Gradient elution: from A/B (95/5) to A/B (100/0) in 7min, kept for 4 min, then back to A/B (95/5) in 0.1 min, and maintained for additional 1.9 min (13min in total).; Injection volume: 10 μL
Num peaks: 1
375.28943 374906
Name: Lithocholic acid
PrecursorMZ: 421.2943
PrecursorType: [M+FA-H]-
IonMode: Negative
Formula: C24H40O3
SMILES: CC(CCC(=O)O)C1CCC2C1(CCC3C2CCC4C3(CCC(C4)O)C)C
InChI: 
InChIKey: SMEROWZSTRWXGI-HVATVPOCSA-N
RetentionTime: 8.191383
CCS: 
CollisionEnergy: 20-40 eV
InstrumentType: UPLC-QTOF-MS
Comment: PI: Cristina Nerin; Data collector: QiZhi Su, GUIA, University of Zaragoza, Spain; Collision energy: 20-40 V; Instrument: Waters HPLC-QTOF-MS (Xevo G2 QTof); Ionization: ESI; Deconvoluted by MS-DIAL; Column: Waters AtlantisTM premier BEH C18 AX column (2.1 × 100mm x 1.7μm); Flow rate: 0.3mL/min; Mobile phase A and B are water and methnaol, respectively, both with 0.1% formic acid; Gradient elution: from A/B (95/5) to A/B (100/0) in 7min, kept for 4 min, then back to A/B (95/5) in 0.1 min, and maintained for additional 1.9 min (13min in total).; Injection volume: 10 μL
Num peaks: 3
375.28943 113428
376.29276 28041
377.29523 2959
Name: Lithocholic acid
PrecursorMZ: 751.588
PrecursorType: [2M-H]-
IonMode: Negative
Formula: C24H40O3
SMILES: CC(CCC(=O)O)C1CCC2C1(CCC3C2CCC4C3(CCC(C4)O)C)C
InChI: 
InChIKey: SMEROWZSTRWXGI-HVATVPOCSA-N
RetentionTime: 8.195184
CCS: 
CollisionEnergy: 20-40 eV
InstrumentType: UPLC-QTOF-MS
Comment: PI: Cristina Nerin; Data collector: QiZhi Su, GUIA, University of Zaragoza, Spain; Collision energy: 20-40 V; Instrument: Waters HPLC-QTOF-MS (Xevo G2 QTof); Ionization: ESI; Deconvoluted by MS-DIAL; Column: Waters AtlantisTM premier BEH C18 AX column (2.1 × 100mm x 1.7μm); Flow rate: 0.3mL/min; Mobile phase A and B are water and methnaol, respectively, both with 0.1% formic acid; Gradient elution: from A/B (95/5) to A/B (100/0) in 7min, kept for 4 min, then back to A/B (95/5) in 0.1 min, and maintained for additional 1.9 min (13min in total).; Injection volume: 10 μL
Num peaks: 4
375.28891 385738
376.2926 90891
377.29556 11014
751.58704 48632
Name: Riboflavin
PrecursorMZ: 797.276
PrecursorType: [2M+FA-H]-
IonMode: Negative
Formula: C17H20N4O6
SMILES: CC1=CC2=C(C=C1C)N(C3=NC(=O)NC(=O)C3=N2)CC(C(C(CO)O)O)O
InChI: 
InChIKey: AUNGANRZJHBGPY-SCRDCRAPSA-N
RetentionTime: 4.148267
CCS: 
CollisionEnergy: 20-40 eV
InstrumentType: UPLC-QTOF-MS
Comment: PI: Cristina Nerin; Data collector: QiZhi Su, GUIA, University of Zaragoza, Spain; Collision energy: 20-40 V; Instrument: Waters HPLC-QTOF-MS (Xevo G2 QTof); Ionization: ESI; Deconvoluted by MS-DIAL; Column: Waters AtlantisTM premier BEH C18 AX column (2.1 × 100mm x 1.7μm); Flow rate: 0.3mL/min; Mobile phase A and B are water and methnaol, respectively, both with 0.1% formic acid; Gradient elution: from A/B (95/5) to A/B (100/0) in 7min, kept for 4 min, then back to A/B (95/5) in 0.1 min, and maintained for additional 1.9 min (13min in total).; Injection volume: 10 μL
Num peaks: 17
212.08177 4203
213.08499 601
240.06259 845
240.07214 885
241.07169 3747
255.08682 59115
256.09 7593
257.0842 962
257.09866 968
375.12979 46943
376.13223 8859
377.13626 1809
377.15286 1901
631.2323 1089
751.2699 11454
752.27319 4453
753.27411 1250
Name: Tween 80
PrecursorMZ: 603.4167
PrecursorType: [M-H]-
IonMode: Negative
Formula: C32H60O10
SMILES: CCCCCCCCC=CCCCCCCCC(=O)OCCOCC(C1C(C(CO1)OCCO)OCCO)OCCO
InChI: 
InChIKey: HDTIFOGXOGLRCB-MDZDMXLPSA-N
RetentionTime: 8.60635
CCS: 
CollisionEnergy: 20-40 eV
InstrumentType: UPLC-QTOF-MS
Comment: PI: Cristina Nerin; Data collector: QiZhi Su, GUIA, University of Zaragoza, Spain; Collision energy: 20-40 V; Instrument: Waters HPLC-QTOF-MS (Xevo G2 QTof); Ionization: ESI; Deconvoluted by MS-DIAL; Column: Waters AtlantisTM premier BEH C18 AX column (2.1 × 100mm x 1.7μm); Flow rate: 0.3mL/min; Mobile phase A and B are water and methnaol, respectively, both with 0.1% formic acid; Gradient elution: from A/B (95/5) to A/B (100/0) in 7min, kept for 4 min, then back to A/B (95/5) in 0.1 min, and maintained for additional 1.9 min (13min in total).; Injection volume: 10 μL
Num peaks: 36
96.94122 390
96.94799 277
112.96774 263
112.98326 245
112.99741 237
152.99338 332
167.06406 61
173.06996 498
174.07423 193
182.98964 1164
184.00697 132
184.0174 171
184.03526 179
243.07463 81
243.08521 96
243.09937 93
255.23619 159
277.20859 126
277.22202 126
279.2294 146
283.26028 62
305.00568 72
307.12292 125
309.14917 66
311.16205 647
311.17496 495
333.13382 96
335.13882 5478
336.14325 1086
337.13293 128
337.1489 89
367.24677 61
367.2641 69
425.25458 65
586.42535 79
603.41705 5981
Name: Riboflavin
PrecursorMZ: 751.2692
PrecursorType: [2M-H]-
IonMode: Negative
Formula: C17H20N4O6
SMILES: CC1=CC2=C(C=C1C)N(C3=NC(=O)NC(=O)C3=N2)CC(C(C(CO)O)O)O
InChI: 
InChIKey: AUNGANRZJHBGPY-SCRDCRAPSA-N
RetentionTime: 4.152083
CCS: 
CollisionEnergy: 20-40 eV
InstrumentType: UPLC-QTOF-MS
Comment: PI: Cristina Nerin; Data collector: QiZhi Su, GUIA, University of Zaragoza, Spain; Collision energy: 20-40 V; Instrument: Waters HPLC-QTOF-MS (Xevo G2 QTof); Ionization: ESI; Deconvoluted by MS-DIAL; Column: Waters AtlantisTM premier BEH C18 AX column (2.1 × 100mm x 1.7μm); Flow rate: 0.3mL/min; Mobile phase A and B are water and methnaol, respectively, both with 0.1% formic acid; Gradient elution: from A/B (95/5) to A/B (100/0) in 7min, kept for 4 min, then back to A/B (95/5) in 0.1 min, and maintained for additional 1.9 min (13min in total).; Injection volume: 10 μL
Num peaks: 12
212.08093 3980
240.06569 809
241.07101 3747
255.08682 58626
256.09024 7593
257.08951 933
257.10379 978
375.12994 46937
376.133 8866
377.138 1809
631.22998 1033
751.27118 12351
Name: Cholesterol
PrecursorMZ: 431.3517
PrecursorType: [M+FA-H]-
IonMode: Negative
Formula: C27H46O
SMILES: CC(C)CCCC(C)C1CCC2C1(CCC3C2CC=C4C3(CCC(C4)O)C)C
InChI: 
InChIKey: HVYWMOMLDIMFJA-DPAQBDIFSA-N
RetentionTime: 10.20345
CCS: 
CollisionEnergy: 20-40 eV
InstrumentType: UPLC-QTOF-MS
Comment: PI: Cristina Nerin; Data collector: QiZhi Su, GUIA, University of Zaragoza, Spain; Collision energy: 20-40 V; Instrument: Waters HPLC-QTOF-MS (Xevo G2 QTof); Ionization: ESI; Deconvoluted by MS-DIAL; Column: Waters AtlantisTM premier BEH C18 AX column (2.1 × 100mm x 1.7μm); Flow rate: 0.3mL/min; Mobile phase A and B are water and methnaol, respectively, both with 0.1% formic acid; Gradient elution: from A/B (95/5) to A/B (100/0) in 7min, kept for 4 min, then back to A/B (95/5) in 0.1 min, and maintained for additional 1.9 min (13min in total).; Injection volume: 10 μL
Num peaks: 72
73.0246 16
73.02965 16
83.02618 34
89.01928 18
89.02822 18
95.95457 18
96.93729 105
98.63583 18
104.9234 18
109.03009 23
109.06567 22
111.07513 31
113.02024 25
113.028 19
129.02415 33
137.02209 17
145.0871 29
146.94217 18
146.96158 46
147.00764 17
147.02496 16
149.09492 28
149.1028 28
161.076 17
165.03659 39
174.9062 17
198.03247 21
220.14397 19
223.03224 19
224.00027 22
224.01826 19
239.05637 198
241.01549 27
241.04964 35
255.22968 84
277.21078 25
279.22318 110
279.23679 136
283.27634 65
296.24435 44
310.17548 18
311.17358 382
313.07336 38
313.08521 76
316.08337 16
323.0614 18
325.17392 79
325.18723 71
325.20563 205
326.17722 350
339.23569 31
340.17645 18
353.06842 18
359.29547 163
359.31747 89
360.29874 108
361.30051 26
375.27695 32
387.09665 31
387.10846 76
388.09189 27
393.28888 20
402.22571 20
413.21396 20
423.42981 16
427.27213 114
427.28662 126
428.28915 24
428.30292 28
431.34738 1525
431.36044 612
431.61365 19
Name: Riboflavin
PrecursorMZ: 375.1285
PrecursorType: [M-H]-
IonMode: Negative
Formula: C17H20N4O6
SMILES: CC1=CC2=C(C=C1C)N(C3=NC(=O)NC(=O)C3=N2)CC(C(C(CO)O)O)O
InChI: 
InChIKey: AUNGANRZJHBGPY-SCRDCRAPSA-N
RetentionTime: 4.1635
CCS: 
CollisionEnergy: 20-40 eV
InstrumentType: UPLC-QTOF-MS
Comment: PI: Cristina Nerin; Data collector: QiZhi Su, GUIA, University of Zaragoza, Spain; Collision energy: 20-40 V; Instrument: Waters HPLC-QTOF-MS (Xevo G2 QTof); Ionization: ESI; Deconvoluted by MS-DIAL; Column: Waters AtlantisTM premier BEH C18 AX column (2.1 × 100mm x 1.7μm); Flow rate: 0.3mL/min; Mobile phase A and B are water and methnaol, respectively, both with 0.1% formic acid; Gradient elution: from A/B (95/5) to A/B (100/0) in 7min, kept for 4 min, then back to A/B (95/5) in 0.1 min, and maintained for additional 1.9 min (13min in total).; Injection volume: 10 μL
Num peaks: 7
212.08044 5613
240.06357 1303
241.06985 5015
255.0867 62919
256.09103 8131
257.09445 1251
375.12903 36622
Name: Riboflavin
PrecursorMZ: 421.1344
PrecursorType: [M+FA-H]-
IonMode: Negative
Formula: C17H20N4O6
SMILES: CC1=CC2=C(C=C1C)N(C3=NC(=O)NC(=O)C3=N2)CC(C(C(CO)O)O)O
InChI: 
InChIKey: AUNGANRZJHBGPY-SCRDCRAPSA-N
RetentionTime: 4.1635
CCS: 
CollisionEnergy: 20-40 eV
InstrumentType: UPLC-QTOF-MS
Comment: PI: Cristina Nerin; Data collector: QiZhi Su, GUIA, University of Zaragoza, Spain; Collision energy: 20-40 V; Instrument: Waters HPLC-QTOF-MS (Xevo G2 QTof); Ionization: ESI; Deconvoluted by MS-DIAL; Column: Waters AtlantisTM premier BEH C18 AX column (2.1 × 100mm x 1.7μm); Flow rate: 0.3mL/min; Mobile phase A and B are water and methnaol, respectively, both with 0.1% formic acid; Gradient elution: from A/B (95/5) to A/B (100/0) in 7min, kept for 4 min, then back to A/B (95/5) in 0.1 min, and maintained for additional 1.9 min (13min in total).; Injection volume: 10 μL
Num peaks: 10
212.08044 5613
240.06357 1303
241.06985 5015
255.0867 62919
256.09103 8131
257.09445 1251
375.12903 36622
376.13586 7287
377.13113 967
377.14554 777
Name: 1-Phenyl-3-methyl-5-pyrazolone
PrecursorMZ: 173.0696
PrecursorType: [M-H]-
IonMode: Negative
Formula: C10H10N2O
SMILES: CC1=NN(C(=O)C1)C2=CC=CC=C2
InChI: 
InChIKey: QELUYTUMUWHWMC-UHFFFAOYSA-N
RetentionTime: 4.601783
CCS: 
CollisionEnergy: 20-40 eV
InstrumentType: UPLC-QTOF-MS
Comment: PI: Cristina Nerin; Data collector: QiZhi Su, GUIA, University of Zaragoza, Spain; Collision energy: 20-40 V; Instrument: Waters HPLC-QTOF-MS (Xevo G2 QTof); Ionization: ESI; Deconvoluted by MS-DIAL; Column: Waters AtlantisTM premier BEH C18 AX column (2.1 × 100mm x 1.7μm); Flow rate: 0.3mL/min; Mobile phase A and B are water and methnaol, respectively, both with 0.1% formic acid; Gradient elution: from A/B (95/5) to A/B (100/0) in 7min, kept for 4 min, then back to A/B (95/5) in 0.1 min, and maintained for additional 1.9 min (13min in total).; Injection volume: 10 μL
Num peaks: 19
65.99451 180
65.99821 644
77.03821 220
80.01203 185
81.02096 236
92.04948 4299
93.05061 468
96.02959 295
118.06398 786
130.04053 154
131.0365 187
131.04288 258
131.06549 185
132.03947 173
132.04735 119
133.03915 133
146.0596 178
157.03859 1043
173.07002 8594
Name: 1-Phenyl-3-methyl-5-pyrazolone
PrecursorMZ: 173.0698
PrecursorType: [M-H]-
IonMode: Negative
Formula: C10H10N2O
SMILES: CC1=NN(C(=O)C1)C2=CC=CC=C2
InChI: 
InChIKey: QELUYTUMUWHWMC-UHFFFAOYSA-N
RetentionTime: 4.696967
CCS: 
CollisionEnergy: 20-40 eV
InstrumentType: UPLC-QTOF-MS
Comment: PI: Cristina Nerin; Data collector: QiZhi Su, GUIA, University of Zaragoza, Spain; Collision energy: 20-40 V; Instrument: Waters HPLC-QTOF-MS (Xevo G2 QTof); Ionization: ESI; Deconvoluted by MS-DIAL; Column: Waters AtlantisTM premier BEH C18 AX column (2.1 × 100mm x 1.7μm); Flow rate: 0.3mL/min; Mobile phase A and B are water and methnaol, respectively, both with 0.1% formic acid; Gradient elution: from A/B (95/5) to A/B (100/0) in 7min, kept for 4 min, then back to A/B (95/5) in 0.1 min, and maintained for additional 1.9 min (13min in total).; Injection volume: 10 μL
Num peaks: 18
65.9967 356
77.0363 116
80.01213 116
81.01083 117
81.0174 108
81.02251 108
92.04955 2986
93.05231 240
93.05635 245
96.02226 245
96.03153 244
118.06322 365
118.07281 372
133.02904 171
133.04211 172
145.07527 104
157.03955 396
173.06882 10375
Name: Maleic anhydride
PrecursorMZ: 96.99119
PrecursorType: [M-H]-
IonMode: Negative
Formula: C4H2O3
SMILES: C1=CC(=O)OC1=O
InChI: 
InChIKey: FPYJFEHAWHCUMM-UHFFFAOYSA-N
RetentionTime: 4.864467
CCS: 
CollisionEnergy: 20-40 eV
InstrumentType: UPLC-QTOF-MS
Comment: PI: Cristina Nerin; Data collector: QiZhi Su, GUIA, University of Zaragoza, Spain; Collision energy: 20-40 V; Instrument: Waters HPLC-QTOF-MS (Xevo G2 QTof); Ionization: ESI; Deconvoluted by MS-DIAL; Column: Waters AtlantisTM premier BEH C18 AX column (2.1 × 100mm x 1.7μm); Flow rate: 0.3mL/min; Mobile phase A and B are water and methnaol, respectively, both with 0.1% formic acid; Gradient elution: from A/B (95/5) to A/B (100/0) in 7min, kept for 4 min, then back to A/B (95/5) in 0.1 min, and maintained for additional 1.9 min (13min in total).; Injection volume: 10 μL
Num peaks: 27
50.92934 31
52.01878 25
54.12156 20
57.03303 58
57.03703 24
65.99706 25
67.01832 34
68.02904 20
71.0132 34
72.4189 39
74.63821 20
77.03226 26
77.0405 20
80.01549 24
80.96576 52
81.02196 47
84.88414 48
85.02631 19
88.00283 25
88.04065 21
88.97443 20
88.99086 23
89.82885 30
92.0468 263
92.05584 44
96.96033 113
96.99327 812
Name: sebacic acid
PrecursorMZ: 201.1107
PrecursorType: [M-H]-
IonMode: Negative
Formula: C10H18O4
SMILES: C(CCCCC(=O)O)CCCC(=O)O
InChI: 
InChIKey: CXMXRPHRNRROMY-UHFFFAOYSA-N
RetentionTime: 6.419167
CCS: 
CollisionEnergy: 20-40 eV
InstrumentType: UPLC-QTOF-MS
Comment: PI: Cristina Nerin; Data collector: QiZhi Su, GUIA, University of Zaragoza, Spain; Collision energy: 20-40 V; Instrument: Waters HPLC-QTOF-MS (Xevo G2 QTof); Ionization: ESI; Deconvoluted by MS-DIAL; Column: Waters AtlantisTM premier BEH C18 AX column (2.1 × 100mm x 1.7μm); Flow rate: 0.3mL/min; Mobile phase A and B are water and methnaol, respectively, both with 0.1% formic acid; Gradient elution: from A/B (95/5) to A/B (100/0) in 7min, kept for 4 min, then back to A/B (95/5) in 0.1 min, and maintained for additional 1.9 min (13min in total).; Injection volume: 10 μL
Num peaks: 9
137.09425 2005
139.11023 32203
139.12663 32272
140.11404 2840
155.08875 372
155.10085 445
155.10916 453
183.1013 4527
201.11076 6411
Name: sebacic acid
PrecursorMZ: 403.2292
PrecursorType: [2M-H]-
IonMode: Negative
Formula: C10H18O4
SMILES: C(CCCCC(=O)O)CCCC(=O)O
InChI: 
InChIKey: CXMXRPHRNRROMY-UHFFFAOYSA-N
RetentionTime: 6.422966
CCS: 
CollisionEnergy: 20-40 eV
InstrumentType: UPLC-QTOF-MS
Comment: PI: Cristina Nerin; Data collector: QiZhi Su, GUIA, University of Zaragoza, Spain; Collision energy: 20-40 V; Instrument: Waters HPLC-QTOF-MS (Xevo G2 QTof); Ionization: ESI; Deconvoluted by MS-DIAL; Column: Waters AtlantisTM premier BEH C18 AX column (2.1 × 100mm x 1.7μm); Flow rate: 0.3mL/min; Mobile phase A and B are water and methnaol, respectively, both with 0.1% formic acid; Gradient elution: from A/B (95/5) to A/B (100/0) in 7min, kept for 4 min, then back to A/B (95/5) in 0.1 min, and maintained for additional 1.9 min (13min in total).; Injection volume: 10 μL
Num peaks: 12
137.09518 2030
139.11096 32248
139.13049 7256
140.09644 2818
140.11433 2839
155.09923 442
155.10754 454
183.10014 4776
184.1033 759
201.11192 6142
223.09323 3060
403.23218 3205
Name: Pentaerythritol
PrecursorMZ: 181.0689
PrecursorType: [M+FA-H]-
IonMode: Negative
Formula: C5H12O4
SMILES: C(C(CO)(CO)CO)O
InChI: 
InChIKey: WXZMFSXDPGVJKK-UHFFFAOYSA-N
RetentionTime: 0.8518667
CCS: 
CollisionEnergy: 20-40 eV
InstrumentType: UPLC-QTOF-MS
Comment: PI: Cristina Nerin; Data collector: QiZhi Su, GUIA, University of Zaragoza, Spain; Collision energy: 20-40 V; Instrument: Waters HPLC-QTOF-MS (Xevo G2 QTof); Ionization: ESI; Deconvoluted by MS-DIAL; Column: Waters AtlantisTM premier BEH C18 AX column (2.1 × 100mm x 1.7μm); Flow rate: 0.3mL/min; Mobile phase A and B are water and methnaol, respectively, both with 0.1% formic acid; Gradient elution: from A/B (95/5) to A/B (100/0) in 7min, kept for 4 min, then back to A/B (95/5) in 0.1 min, and maintained for additional 1.9 min (13min in total).; Injection volume: 10 μL
Num peaks: 30
69.032 29
85.02261 121
85.02776 121
87.04584 153
96.95887 16
99.02812 24
112.04338 184
113.02922 902
113.04029 922
115.05022 12
130.96112 14
131.04839 139
131.0551 142
131.07857 14
135.04152 73
135.06432 295
142.05379 14
143.04901 62
144.06812 24
145.06671 77
148.89256 15
160.0632 305
160.07454 281
161.03781 56
161.06076 1073
162.04813 27
162.06886 54
177.02914 108
177.03673 108
181.07051 41
Name: Riboflavin
PrecursorMZ: 375.1305
PrecursorType: [M-H]-
IonMode: Negative
Formula: C17H20N4O6
SMILES: CC1=CC2=C(C=C1C)N(C3=NC(=O)NC(=O)C3=N2)CC(C(C(CO)O)O)O
InChI: 
InChIKey: AUNGANRZJHBGPY-SCRDCRAPSA-N
RetentionTime: 3.431583
CCS: 
CollisionEnergy: 20-40 eV
InstrumentType: UPLC-QTOF-MS
Comment: PI: Cristina Nerin; Data collector: QiZhi Su, GUIA, University of Zaragoza, Spain; Collision energy: 20-40 V; Instrument: Waters HPLC-QTOF-MS (Xevo G2 QTof); Ionization: ESI; Deconvoluted by MS-DIAL; Column: Waters AtlantisTM premier BEH C18 AX column (2.1 × 100mm x 1.7μm); Flow rate: 0.3mL/min; Mobile phase A and B are water and methnaol, respectively, both with 0.1% formic acid; Gradient elution: from A/B (95/5) to A/B (100/0) in 7min, kept for 4 min, then back to A/B (95/5) in 0.1 min, and maintained for additional 1.9 min (13min in total).; Injection volume: 10 μL
Num peaks: 16
86.97643 69
116.93188 71
160.8382 122
192.97684 95
203.82626 60
212.0817 906
221.83522 131
240.06216 149
241.0688 277
241.08264 71
255.08739 5928
256.0878 849
291.00735 110
375.11771 98
375.13391 250
375.14651 159
Name: Propylene carbonate
PrecursorMZ: 101.0232
PrecursorType: [M-H]-
IonMode: Negative
Formula: C4H6O3
SMILES: CC1COC(=O)O1
InChI: 
InChIKey: RUOJZAUFBMNUDX-UHFFFAOYSA-N
RetentionTime: 0.7986
CCS: 
CollisionEnergy: 20-40 eV
InstrumentType: UPLC-QTOF-MS
Comment: PI: Cristina Nerin; Data collector: QiZhi Su, GUIA, University of Zaragoza, Spain; Collision energy: 20-40 V; Instrument: Waters HPLC-QTOF-MS (Xevo G2 QTof); Ionization: ESI; Deconvoluted by MS-DIAL; Column: Waters AtlantisTM premier BEH C18 AX column (2.1 × 100mm x 1.7μm); Flow rate: 0.3mL/min; Mobile phase A and B are water and methnaol, respectively, both with 0.1% formic acid; Gradient elution: from A/B (95/5) to A/B (100/0) in 7min, kept for 4 min, then back to A/B (95/5) in 0.1 min, and maintained for additional 1.9 min (13min in total).; Injection volume: 10 μL
Num peaks: 30
49.91783 46
56.89199 21
58.03827 20
59.01307 750
60.01532 25
64.82192 26
70.03504 20
71.01292 1348
71.37159 22
72.43599 33
73.02983 50
78.03976 30
79.88467 34
80.97658 55
83.01192 89
84.02354 25
85.02203 23
85.02875 187
85.69619 36
87.00932 45
87.99238 25
89.02412 871
89.05435 23
90.02827 61
91.00163 19
95.01154 43
95.01727 133
96.95562 131
96.96539 61
101.02219 502
Name: Nonadecylic acid
PrecursorMZ: 297.2788
PrecursorType: [M-H]-
IonMode: Negative
Formula: C19H38O2
SMILES: CCCCCCCCCCCCCCCCCCC(=O)O
InChI: 
InChIKey: ISYWECDDZWTKFF-UHFFFAOYSA-N
RetentionTime: 9.349934
CCS: 
CollisionEnergy: 20-40 eV
InstrumentType: UPLC-QTOF-MS
Comment: PI: Cristina Nerin; Data collector: QiZhi Su, GUIA, University of Zaragoza, Spain; Collision energy: 20-40 V; Instrument: Waters HPLC-QTOF-MS (Xevo G2 QTof); Ionization: ESI; Deconvoluted by MS-DIAL; Column: Waters AtlantisTM premier BEH C18 AX column (2.1 × 100mm x 1.7μm); Flow rate: 0.3mL/min; Mobile phase A and B are water and methnaol, respectively, both with 0.1% formic acid; Gradient elution: from A/B (95/5) to A/B (100/0) in 7min, kept for 4 min, then back to A/B (95/5) in 0.1 min, and maintained for additional 1.9 min (13min in total).; Injection volume: 10 μL
Num peaks: 59
67.89506 87
72.98959 145
79.95786 74
80.96193 280
80.9709 263
89.02059 100
91.01806 283
91.02319 183
91.0321 83
92.0208 123
96.95728 2536
97.01215 101
98.94973 125
112.98384 627
116.9269 90
119.04954 126
122.96946 149
126.95263 88
149.09047 87
152.99077 411
152.99951 233
161.88936 73
165.03851 1908
166.04054 298
166.05804 124
167.03836 81
180.96893 100
183.00912 4635
183.17987 112
184.01509 835
185.00723 158
186.45403 90
197.02847 112
223.01949 200
223.02991 269
224.02145 131
225.21985 102
239.05821 2980
240.05267 399
240.06734 79
241.0513 105
241.06206 131
253.10182 75
253.23347 117
255.22525 794
256.24274 79
265.1431 177
266.14984 79
275.16443 164
277.21036 166
277.22824 147
279.16092 86
279.23114 489
283.25836 184
293.17502 173
297.03516 124
297.14719 162
297.23962 83
297.27716 7244
Name: Nonadecylic acid
PrecursorMZ: 595.5649
PrecursorType: [2M-H]-
IonMode: Negative
Formula: C19H38O2
SMILES: CCCCCCCCCCCCCCCCCCC(=O)O
InChI: 
InChIKey: ISYWECDDZWTKFF-UHFFFAOYSA-N
RetentionTime: 9.35755
CCS: 
CollisionEnergy: 20-40 eV
InstrumentType: UPLC-QTOF-MS
Comment: PI: Cristina Nerin; Data collector: QiZhi Su, GUIA, University of Zaragoza, Spain; Collision energy: 20-40 V; Instrument: Waters HPLC-QTOF-MS (Xevo G2 QTof); Ionization: ESI; Deconvoluted by MS-DIAL; Column: Waters AtlantisTM premier BEH C18 AX column (2.1 × 100mm x 1.7μm); Flow rate: 0.3mL/min; Mobile phase A and B are water and methnaol, respectively, both with 0.1% formic acid; Gradient elution: from A/B (95/5) to A/B (100/0) in 7min, kept for 4 min, then back to A/B (95/5) in 0.1 min, and maintained for additional 1.9 min (13min in total).; Injection volume: 10 μL
Num peaks: 86
59.01046 25
59.01395 25
67.02171 25
80.96474 39
84.93836 31
89.00204 34
89.01823 63
89.02695 35
91.01608 131
91.02236 130
92.03042 70
97.02933 31
98.95251 137
119.04863 32
119.06142 40
122.97285 28
146.93091 58
152.99193 66
153.00294 75
165.05763 1760
166.03839 63
168.03264 29
173.12546 23
185.00226 159
185.16089 27
211.03467 37
212.05551 23
225.01837 91
225.03798 135
241.05429 211
241.07271 64
253.22227 42
255.10742 36
255.22647 248
256.26248 28
257.11395 27
277.20959 74
277.22083 128
278.21698 27
281.23764 48
295.13193 35
295.1496 42
297.13104 128
297.18216 69
297.27704 2291
298.27969 668
299.03705 45
308.8414 27
312.18793 43
313.13559 36
313.16946 40
314.09384 38
314.26437 27
327.16568 93
327.18005 70
327.19696 53
331.27292 31
337.18945 69
337.20331 62
351.18808 23
354.19128 45
354.20709 55
354.23032 24
355.19257 26
364.19119 29
367.22333 31
380.19562 27
380.21814 39
382.24933 53
395.24524 56
397.2493 83
398.25412 39
399.22003 67
410.20923 66
410.22546 63
415.21857 42
425.2637 44
427.21942 25
432.22842 34
433.23981 36
443.18585 91
507.26569 23
557.28009 33
575.36658 24
595.56006 77
595.58167 63
Name: "1,2,3-Benzotriazole"
PrecursorMZ: 118.0389
PrecursorType: [M-H]-
IonMode: Negative
Formula: C6H5N3
SMILES: C1=CC2=NNN=C2C=C1
InChI: 
InChIKey: QRUDEWIWKLJBPS-UHFFFAOYSA-N
RetentionTime: 4.175
CCS: 
CollisionEnergy: 20-40 eV
InstrumentType: UPLC-QTOF-MS
Comment: PI: Cristina Nerin; Data collector: QiZhi Su, GUIA, University of Zaragoza, Spain; Collision energy: 20-40 V; Instrument: Waters HPLC-QTOF-MS (Xevo G2 QTof); Ionization: ESI; Deconvoluted by MS-DIAL; Column: Waters AtlantisTM premier BEH C18 AX column (2.1 × 100mm x 1.7μm); Flow rate: 0.3mL/min; Mobile phase A and B are water and methnaol, respectively, both with 0.1% formic acid; Gradient elution: from A/B (95/5) to A/B (100/0) in 7min, kept for 4 min, then back to A/B (95/5) in 0.1 min, and maintained for additional 1.9 min (13min in total).; Injection volume: 10 μL
Num peaks: 26
50.97599 25
65.02862 24
67.83943 27
70.18014 26
70.70853 27
71.00853 35
72.00584 24
79.13934 20
83.02447 19
86.96994 20
90.03075 55
90.03675 39
90.97662 21
91.04257 26
95.75303 20
97.06477 30
99.91665 26
100.92992 20
102.92468 39
106.13145 46
107.29003 20
112.98779 99
113.04673 43
114.98366 19
118.02524 42
118.03986 858
Name: Propylene carbonate
PrecursorMZ: 161.0431
PrecursorType: [M+Hac-H]-
IonMode: Negative
Formula: C4H6O3
SMILES: CC1COC(=O)O1
InChI: 
InChIKey: RUOJZAUFBMNUDX-UHFFFAOYSA-N
RetentionTime: 0.7986
CCS: 
CollisionEnergy: 20-40 eV
InstrumentType: UPLC-QTOF-MS
Comment: PI: Cristina Nerin; Data collector: QiZhi Su, GUIA, University of Zaragoza, Spain; Collision energy: 20-40 V; Instrument: Waters HPLC-QTOF-MS (Xevo G2 QTof); Ionization: ESI; Deconvoluted by MS-DIAL; Column: Waters AtlantisTM premier BEH C18 AX column (2.1 × 100mm x 1.7μm); Flow rate: 0.3mL/min; Mobile phase A and B are water and methnaol, respectively, both with 0.1% formic acid; Gradient elution: from A/B (95/5) to A/B (100/0) in 7min, kept for 4 min, then back to A/B (95/5) in 0.1 min, and maintained for additional 1.9 min (13min in total).; Injection volume: 10 μL
Num peaks: 66
49.91783 46
56.89199 21
58.03827 20
59.01307 750
60.01532 25
64.82192 26
70.03504 20
71.01292 1348
71.37159 22
72.43599 33
73.02983 50
78.03976 30
79.88467 34
80.97658 55
83.01192 89
84.02354 25
85.02203 23
85.02875 187
85.69619 36
87.00932 45
87.99238 25
89.02412 871
89.05435 23
90.02827 61
91.00163 19
95.01154 43
95.01727 133
96.95562 131
96.96539 61
101.02219 502
103.63828 32
112.98536 19
113.02155 351
113.03174 67
114.02462 66
114.03055 22
114.94216 23
114.9486 21
115.02334 25
115.03893 40
115.54219 74
116.95342 34
119.03275 133
119.04102 58
120.03674 35
126.94309 20
126.99869 22
129.00954 27
130.9705 22
130.98927 19
131.02853 23
131.03511 26
138.96408 36
140.53059 20
140.92352 30
141.94293 30
142.98326 75
142.99493 72
143.03101 108
144.03772 125
145.04459 29
146.72185 28
149.0549 23
160.98071 23
161.03806 79
161.04646 103
Name: "2,2-Bis(hydroxymethyl)propionic acid"
PrecursorMZ: 267.1064
PrecursorType: [2M-H]-
IonMode: Negative
Formula: C5H10O4
SMILES: CC(CO)(CO)C(=O)O
InChI: 
InChIKey: PTBDIHRZYDMNKB-UHFFFAOYSA-N
RetentionTime: 0.9699
CCS: 
CollisionEnergy: 20-40 eV
InstrumentType: UPLC-QTOF-MS
Comment: PI: Cristina Nerin; Data collector: QiZhi Su, GUIA, University of Zaragoza, Spain; Collision energy: 20-40 V; Instrument: Waters HPLC-QTOF-MS (Xevo G2 QTof); Ionization: ESI; Deconvoluted by MS-DIAL; Column: Waters AtlantisTM premier BEH C18 AX column (2.1 × 100mm x 1.7μm); Flow rate: 0.3mL/min; Mobile phase A and B are water and methnaol, respectively, both with 0.1% formic acid; Gradient elution: from A/B (95/5) to A/B (100/0) in 7min, kept for 4 min, then back to A/B (95/5) in 0.1 min, and maintained for additional 1.9 min (13min in total).; Injection volume: 10 μL
Num peaks: 57
71.04379 287
71.04956 295
85.02827 1730
86.0298 59
87.03503 26
91.00048 29
91.00529 29
96.04701 102
96.95755 22
97.02843 434
97.03938 472
97.0508 466
103.03557 43
103.04386 45
114.0601 38
115.05638 164
130.05888 22
133.07492 39
141.04654 37
156.95601 30
158.03773 360
158.04684 360
158.05598 349
159.04076 1462
159.04944 1575
159.06467 1304
159.07512 107
168.09354 202
168.10634 218
169.07892 101
169.0918 611
169.10176 663
175.01013 35
175.01949 33
175.11426 66
183.07802 70
186.96533 31
186.97549 24
199.97783 20
203.05341 48
203.96378 219
203.98674 196
205.15521 43
206.16347 38
212.10117 42
213.08047 397
213.09213 397
224.99176 60
243.04616 28
244.99875 28
245.01872 21
257.02588 58
258.02225 53
267.09998 23
267.11139 21
267.15976 970
267.18936 63
Name: "2,2-Bis(hydroxymethyl)propionic acid"
PrecursorMZ: 133.0483
PrecursorType: [M-H]-
IonMode: Negative
Formula: C5H10O4
SMILES: CC(CO)(CO)C(=O)O
InChI: 
InChIKey: PTBDIHRZYDMNKB-UHFFFAOYSA-N
RetentionTime: 0.9737167
CCS: 
CollisionEnergy: 20-40 eV
InstrumentType: UPLC-QTOF-MS
Comment: PI: Cristina Nerin; Data collector: QiZhi Su, GUIA, University of Zaragoza, Spain; Collision energy: 20-40 V; Instrument: Waters HPLC-QTOF-MS (Xevo G2 QTof); Ionization: ESI; Deconvoluted by MS-DIAL; Column: Waters AtlantisTM premier BEH C18 AX column (2.1 × 100mm x 1.7μm); Flow rate: 0.3mL/min; Mobile phase A and B are water and methnaol, respectively, both with 0.1% formic acid; Gradient elution: from A/B (95/5) to A/B (100/0) in 7min, kept for 4 min, then back to A/B (95/5) in 0.1 min, and maintained for additional 1.9 min (13min in total).; Injection volume: 10 μL
Num peaks: 2
85.02772 4693
133.04816 77413
Name: Malic acid
PrecursorMZ: 133.0121
PrecursorType: [M-H]-
IonMode: Negative
Formula: C4H6O5
SMILES: C(C(C(=O)O)O)C(=O)O
InChI: 
InChIKey: BJEPYKJPYRNKOW-UHFFFAOYSA-N
RetentionTime: 2.021617
CCS: 
CollisionEnergy: 20-40 eV
InstrumentType: UPLC-QTOF-MS
Comment: PI: Cristina Nerin; Data collector: QiZhi Su, GUIA, University of Zaragoza, Spain; Collision energy: 20-40 V; Instrument: Waters HPLC-QTOF-MS (Xevo G2 QTof); Ionization: ESI; Deconvoluted by MS-DIAL; Column: Waters AtlantisTM premier BEH C18 AX column (2.1 × 100mm x 1.7μm); Flow rate: 0.3mL/min; Mobile phase A and B are water and methnaol, respectively, both with 0.1% formic acid; Gradient elution: from A/B (95/5) to A/B (100/0) in 7min, kept for 4 min, then back to A/B (95/5) in 0.1 min, and maintained for additional 1.9 min (13min in total).; Injection volume: 10 μL
Num peaks: 26
59.01329 21
71.00747 60
71.01453 317
72.99277 379
73.9951 117
78.96378 52
79.95251 25
87.00786 24
89.02209 30
89.02618 24
90.99799 21
97.97162 20
99.95931 59
100.93031 49
113.93662 76
115.00171 765
115.99993 48
116.92058 19
117.00928 52
118.96376 79
122.03062 19
122.9584 24
130.96689 22
131.02982 38
133.00853 437
133.017 88
Name: Adipic acid
PrecursorMZ: 145.048
PrecursorType: [M-H]-
IonMode: Negative
Formula: C6H10O4
SMILES: C(CCC(=O)O)CC(=O)O
InChI: 
InChIKey: WNLRTRBMVRJNCN-UHFFFAOYSA-N
RetentionTime: 2.98965
CCS: 
CollisionEnergy: 20-40 eV
InstrumentType: UPLC-QTOF-MS
Comment: PI: Cristina Nerin; Data collector: QiZhi Su, GUIA, University of Zaragoza, Spain; Collision energy: 20-40 V; Instrument: Waters HPLC-QTOF-MS (Xevo G2 QTof); Ionization: ESI; Deconvoluted by MS-DIAL; Column: Waters AtlantisTM premier BEH C18 AX column (2.1 × 100mm x 1.7μm); Flow rate: 0.3mL/min; Mobile phase A and B are water and methnaol, respectively, both with 0.1% formic acid; Gradient elution: from A/B (95/5) to A/B (100/0) in 7min, kept for 4 min, then back to A/B (95/5) in 0.1 min, and maintained for additional 1.9 min (13min in total).; Injection volume: 10 μL
Num peaks: 40
58.66033 19
67.13539 23
71.01023 22
72.99104 20
73.02939 24
73.03397 28
74.01865 20
81.02582 101
81.032 318
83.02895 20
83.03957 38
83.04855 573
84.05289 20
86.02388 47
92.99438 24
95.67023 20
95.94665 22
100.69182 26
101.04739 55
101.05627 41
101.06362 82
101.07097 96
101.36811 31
102.05962 20
104.90724 20
113.09312 24
114.99336 21
115.00883 29
118.69369 24
123.0398 47
127.03963 65
128.03276 43
128.55412 48
129.92694 29
133.008 44
137.00772 49
143.05713 19
144.95561 26
145.04692 313
145.05431 116
Name: Adipic acid
PrecursorMZ: 145.0482
PrecursorType: [M-H]-
IonMode: Negative
Formula: C6H10O4
SMILES: C(CCC(=O)O)CC(=O)O
InChI: 
InChIKey: WNLRTRBMVRJNCN-UHFFFAOYSA-N
RetentionTime: 3.073883
CCS: 
CollisionEnergy: 20-40 eV
InstrumentType: UPLC-QTOF-MS
Comment: PI: Cristina Nerin; Data collector: QiZhi Su, GUIA, University of Zaragoza, Spain; Collision energy: 20-40 V; Instrument: Waters HPLC-QTOF-MS (Xevo G2 QTof); Ionization: ESI; Deconvoluted by MS-DIAL; Column: Waters AtlantisTM premier BEH C18 AX column (2.1 × 100mm x 1.7μm); Flow rate: 0.3mL/min; Mobile phase A and B are water and methnaol, respectively, both with 0.1% formic acid; Gradient elution: from A/B (95/5) to A/B (100/0) in 7min, kept for 4 min, then back to A/B (95/5) in 0.1 min, and maintained for additional 1.9 min (13min in total).; Injection volume: 10 μL
Num peaks: 45
50.08665 21
50.6167 19
51.15242 22
51.33894 26
55.98526 37
69.20999 25
71.00889 49
71.65491 20
71.68284 19
80.96972 23
81.03262 436
81.09836 42
82.58071 24
83.04731 532
83.05212 244
87.23515 20
89.02213 27
93.04132 30
96.96048 19
99.03978 88
99.92505 40
101.05652 467
101.06901 26
102.04559 22
113.01903 54
115.89761 20
122.34524 23
123.03687 57
123.04488 45
125.87096 23
125.96682 26
127.04626 56
127.95429 20
133.01137 23
133.04184 26
133.05157 23
134.23633 20
137.97755 19
140.75269 32
141.01694 26
141.88797 44
142.96315 29
144.90001 31
145.04495 477
145.05272 207
Name: Allantoin
PrecursorMZ: 157.0345
PrecursorType: [M-H]-
IonMode: Negative
Formula: C4H6N4O3
SMILES: C1(C(=O)NC(=O)N1)NC(=O)N
InChI: 
InChIKey: POJWUDADGALRAB-UHFFFAOYSA-N
RetentionTime: 0.9204167
CCS: 
CollisionEnergy: 20-40 eV
InstrumentType: UPLC-QTOF-MS
Comment: PI: Cristina Nerin; Data collector: QiZhi Su, GUIA, University of Zaragoza, Spain; Collision energy: 20-40 V; Instrument: Waters HPLC-QTOF-MS (Xevo G2 QTof); Ionization: ESI; Deconvoluted by MS-DIAL; Column: Waters AtlantisTM premier BEH C18 AX column (2.1 × 100mm x 1.7μm); Flow rate: 0.3mL/min; Mobile phase A and B are water and methnaol, respectively, both with 0.1% formic acid; Gradient elution: from A/B (95/5) to A/B (100/0) in 7min, kept for 4 min, then back to A/B (95/5) in 0.1 min, and maintained for additional 1.9 min (13min in total).; Injection volume: 10 μL
Num peaks: 56
55.63934 31
59.01093 34
63.82352 20
66.57179 20
69.90071 21
71.02351 61
75.00694 21
76.97993 20
79.51891 41
79.94917 22
83.02072 29
86.011 21
87.01046 30
88.00732 49
96.95917 39
96.99812 218
97.00428 495
98.00762 27
98.96411 65
99.91795 21
101.02377 20
101.9395 89
102.94199 54
104.02127 21
107.01276 58
112.0013 25
113.00022 31
113.28969 20
114.03035 303
115.02872 34
115.03564 25
117.95011 39
123.0265 27
124.93907 71
129.01877 22
130.01044 69
130.01605 35
130.03105 77
130.96799 29
131.00684 47
131.01451 86
131.02888 43
133.94043 20
137.00883 23
138.99344 28
140.01341 19
140.93785 19
141.9334 25
142.933 26
143.92882 23
148.99649 50
149.00764 19
151.92551 21
156.89787 23
157.03519 763
157.27124 22
Name: Syringaldehyde
PrecursorMZ: 181.0488
PrecursorType: [M-H]-
IonMode: Negative
Formula: C9H10O4
SMILES: COC1=CC(=CC(=C1O)OC)C=O
InChI: 
InChIKey: KCDXJAYRVLXPFO-UHFFFAOYSA-N
RetentionTime: 4.308317
CCS: 
CollisionEnergy: 20-40 eV
InstrumentType: UPLC-QTOF-MS
Comment: PI: Cristina Nerin; Data collector: QiZhi Su, GUIA, University of Zaragoza, Spain; Collision energy: 20-40 V; Instrument: Waters HPLC-QTOF-MS (Xevo G2 QTof); Ionization: ESI; Deconvoluted by MS-DIAL; Column: Waters AtlantisTM premier BEH C18 AX column (2.1 × 100mm x 1.7μm); Flow rate: 0.3mL/min; Mobile phase A and B are water and methnaol, respectively, both with 0.1% formic acid; Gradient elution: from A/B (95/5) to A/B (100/0) in 7min, kept for 4 min, then back to A/B (95/5) in 0.1 min, and maintained for additional 1.9 min (13min in total).; Injection volume: 10 μL
Num peaks: 20
67.01845 248
79.01974 71
95.01213 537
95.02198 537
95.03173 502
123.0068 2341
123.021 2357
124.00497 179
124.01891 175
151.00168 4382
151.99425 279
152.00893 272
165.01385 83
165.02467 88
166.00934 1899
166.02704 1878
167.02075 154
167.03018 140
167.04588 108
181.04852 5833
Name: 4-hydroxy-3-methoxycinnamic aldehyde
PrecursorMZ: 177.0535
PrecursorType: [M-H]-
IonMode: Negative
Formula: C10H10O3
SMILES: COC1=C(C=CC(=C1)C=CC=O)O
InChI: 
InChIKey: DKZBBWMURDFHNE-NSCUHMNNSA-N
RetentionTime: 4.799917
CCS: 
CollisionEnergy: 20-40 eV
InstrumentType: UPLC-QTOF-MS
Comment: PI: Cristina Nerin; Data collector: QiZhi Su, GUIA, University of Zaragoza, Spain; Collision energy: 20-40 V; Instrument: Waters HPLC-QTOF-MS (Xevo G2 QTof); Ionization: ESI; Deconvoluted by MS-DIAL; Column: Waters AtlantisTM premier BEH C18 AX column (2.1 × 100mm x 1.7μm); Flow rate: 0.3mL/min; Mobile phase A and B are water and methnaol, respectively, both with 0.1% formic acid; Gradient elution: from A/B (95/5) to A/B (100/0) in 7min, kept for 4 min, then back to A/B (95/5) in 0.1 min, and maintained for additional 1.9 min (13min in total).; Injection volume: 10 μL
Num peaks: 25
101.02264 31
101.02985 31
105.0369 50
105.05238 49
106.03652 60
106.04366 59
118.99257 23
119.00916 52
120.01995 53
121.0273 35
130.95619 22
133.02846 89
134.03539 403
135.03632 63
135.04286 62
161.01205 121
161.02457 118
161.03102 119
162.02896 1952
162.06676 31
163.03119 242
163.04201 244
164.03563 69
177.05344 2035
177.09512 37
Name: 4-hydroxy-3-methoxycinnamic aldehyde
PrecursorMZ: 177.0531
PrecursorType: [M-H]-
IonMode: Negative
Formula: C10H10O3
SMILES: COC1=C(C=CC(=C1)C=CC=O)O
InChI: 
InChIKey: DKZBBWMURDFHNE-NSCUHMNNSA-N
RetentionTime: 4.990267
CCS: 
CollisionEnergy: 20-40 eV
InstrumentType: UPLC-QTOF-MS
Comment: PI: Cristina Nerin; Data collector: QiZhi Su, GUIA, University of Zaragoza, Spain; Collision energy: 20-40 V; Instrument: Waters HPLC-QTOF-MS (Xevo G2 QTof); Ionization: ESI; Deconvoluted by MS-DIAL; Column: Waters AtlantisTM premier BEH C18 AX column (2.1 × 100mm x 1.7μm); Flow rate: 0.3mL/min; Mobile phase A and B are water and methnaol, respectively, both with 0.1% formic acid; Gradient elution: from A/B (95/5) to A/B (100/0) in 7min, kept for 4 min, then back to A/B (95/5) in 0.1 min, and maintained for additional 1.9 min (13min in total).; Injection volume: 10 μL
Num peaks: 16
105.03297 126
106.03784 175
106.04922 175
118.99502 78
119.0118 93
120.01965 150
133.02487 225
133.03375 227
134.03534 1098
161.02065 449
161.02853 474
162.02977 7001
163.03412 624
164.03017 108
164.03886 109
177.05287 3168
Name: Allantoin
PrecursorMZ: 157.0342
PrecursorType: [M-H]-
IonMode: Negative
Formula: C4H6N4O3
SMILES: C1(C(=O)NC(=O)N1)NC(=O)N
InChI: 
InChIKey: POJWUDADGALRAB-UHFFFAOYSA-N
RetentionTime: 0.8290333
CCS: 
CollisionEnergy: 20-40 eV
InstrumentType: UPLC-QTOF-MS
Comment: PI: Cristina Nerin; Data collector: QiZhi Su, GUIA, University of Zaragoza, Spain; Collision energy: 20-40 V; Instrument: Waters HPLC-QTOF-MS (Xevo G2 QTof); Ionization: ESI; Deconvoluted by MS-DIAL; Column: Waters AtlantisTM premier BEH C18 AX column (2.1 × 100mm x 1.7μm); Flow rate: 0.3mL/min; Mobile phase A and B are water and methnaol, respectively, both with 0.1% formic acid; Gradient elution: from A/B (95/5) to A/B (100/0) in 7min, kept for 4 min, then back to A/B (95/5) in 0.1 min, and maintained for additional 1.9 min (13min in total).; Injection volume: 10 μL
Num peaks: 6
97.00331 2294
114.02919 2181
139.99934 420
140.00624 420
140.0121 420
157.03404 29115
Name: Allantoin
PrecursorMZ: 315.0777
PrecursorType: [2M-H]-
IonMode: Negative
Formula: C4H6N4O3
SMILES: C1(C(=O)NC(=O)N1)NC(=O)N
InChI: 
InChIKey: POJWUDADGALRAB-UHFFFAOYSA-N
RetentionTime: 0.8290333
CCS: 
CollisionEnergy: 20-40 eV
InstrumentType: UPLC-QTOF-MS
Comment: PI: Cristina Nerin; Data collector: QiZhi Su, GUIA, University of Zaragoza, Spain; Collision energy: 20-40 V; Instrument: Waters HPLC-QTOF-MS (Xevo G2 QTof); Ionization: ESI; Deconvoluted by MS-DIAL; Column: Waters AtlantisTM premier BEH C18 AX column (2.1 × 100mm x 1.7μm); Flow rate: 0.3mL/min; Mobile phase A and B are water and methnaol, respectively, both with 0.1% formic acid; Gradient elution: from A/B (95/5) to A/B (100/0) in 7min, kept for 4 min, then back to A/B (95/5) in 0.1 min, and maintained for additional 1.9 min (13min in total).; Injection volume: 10 μL
Num peaks: 9
97.00331 2294
114.02919 2181
139.99934 420
140.00624 420
140.0121 420
157.03404 26924
158.03572 1453
315.07819 18400
315.1145 396
Name: Hexylresorcinol
PrecursorMZ: 193.121
PrecursorType: [M-H]-
IonMode: Negative
Formula: C12H18O2
SMILES: CCCCCCC1=C(C=C(C=C1)O)O
InChI: 
InChIKey: WFJIVOKAWHGMBH-UHFFFAOYSA-N
RetentionTime: 7.0937
CCS: 
CollisionEnergy: 20-40 eV
InstrumentType: UPLC-QTOF-MS
Comment: PI: Cristina Nerin; Data collector: QiZhi Su, GUIA, University of Zaragoza, Spain; Collision energy: 20-40 V; Instrument: Waters HPLC-QTOF-MS (Xevo G2 QTof); Ionization: ESI; Deconvoluted by MS-DIAL; Column: Waters AtlantisTM premier BEH C18 AX column (2.1 × 100mm x 1.7μm); Flow rate: 0.3mL/min; Mobile phase A and B are water and methnaol, respectively, both with 0.1% formic acid; Gradient elution: from A/B (95/5) to A/B (100/0) in 7min, kept for 4 min, then back to A/B (95/5) in 0.1 min, and maintained for additional 1.9 min (13min in total).; Injection volume: 10 μL
Num peaks: 40
96.94709 767
96.95509 714
96.9607 725
108.02002 253
109.02226 189
112.98618 415
121.04274 181
122.0248 705
122.03556 720
123.01494 217
123.03427 70
124.01454 223
135.0321 104
135.04733 117
137.02264 105
137.03279 112
138.02797 84
138.03461 85
139.11128 120
146.94043 154
146.95993 60
149.12573 290
149.13739 290
151.01186 75
151.10962 410
151.12473 396
167.13293 89
167.14401 84
174.95528 103
174.96805 77
179.10455 284
179.11996 212
180.1232 55
181.04082 55
181.05194 55
183.1236 101
183.14131 97
187.11662 74
187.13335 70
193.12186 5324
Name: L-Tyrosine
PrecursorMZ: 180.064
PrecursorType: [M-H]-
IonMode: Negative
Formula: C9H11NO3
SMILES: C1=CC(=CC=C1CC(C(=O)O)N)O
InChI: 
InChIKey: OUYCCCASQSFEME-QMMMGPOBSA-N
RetentionTime: 0.96615
CCS: 
CollisionEnergy: 20-40 eV
InstrumentType: UPLC-QTOF-MS
Comment: PI: Cristina Nerin; Data collector: QiZhi Su, GUIA, University of Zaragoza, Spain; Collision energy: 20-40 V; Instrument: Waters HPLC-QTOF-MS (Xevo G2 QTof); Ionization: ESI; Deconvoluted by MS-DIAL; Column: Waters AtlantisTM premier BEH C18 AX column (2.1 × 100mm x 1.7μm); Flow rate: 0.3mL/min; Mobile phase A and B are water and methnaol, respectively, both with 0.1% formic acid; Gradient elution: from A/B (95/5) to A/B (100/0) in 7min, kept for 4 min, then back to A/B (95/5) in 0.1 min, and maintained for additional 1.9 min (13min in total).; Injection volume: 10 μL
Num peaks: 21
72.00903 55
72.01207 55
80.15754 22
90.99989 15
93.03001 57
101.94016 29
119.04712 193
119.06043 159
126.06496 16
134.05904 38
136.99966 24
137.01357 24
163.03717 316
163.05179 322
164.03351 41
164.04617 41
178.02136 16
179.07397 21
180.05516 756
180.06679 1444
180.13055 47
Name: 4-Aminophenyl sulfone
PrecursorMZ: 541.1205
PrecursorType: [2M+FA-H]-
IonMode: Negative
Formula: C12H12N2O2S
SMILES: C1=CC(=CC=C1N)S(=O)(=O)C2=CC=C(C=C2)N
InChI: 
InChIKey: MQJKPEGWNLWLTK-UHFFFAOYSA-N
RetentionTime: 3.717783
CCS: 
CollisionEnergy: 20-40 eV
InstrumentType: UPLC-QTOF-MS
Comment: PI: Cristina Nerin; Data collector: QiZhi Su, GUIA, University of Zaragoza, Spain; Collision energy: 20-40 V; Instrument: Waters HPLC-QTOF-MS (Xevo G2 QTof); Ionization: ESI; Deconvoluted by MS-DIAL; Column: Waters AtlantisTM premier BEH C18 AX column (2.1 × 100mm x 1.7μm); Flow rate: 0.3mL/min; Mobile phase A and B are water and methnaol, respectively, both with 0.1% formic acid; Gradient elution: from A/B (95/5) to A/B (100/0) in 7min, kept for 4 min, then back to A/B (95/5) in 0.1 min, and maintained for additional 1.9 min (13min in total).; Injection volume: 10 μL
Num peaks: 143
57.66983 76
62.12026 81
63.06179 20
67.76694 25
68.99788 20
73.02371 21
75.00296 25
80.97253 52
83.04759 20
86.45059 29
86.97302 20
86.97963 26
89.02048 20
92.03215 50
93.06177 20
94.88626 41
95.61144 39
97.00912 29
97.02425 20
99.00025 22
99.92963 42
99.96767 34
100.92566 54
101.93713 58
103.43305 19
106.577 43
112.98482 136
120.0215 20
121.01277 20
121.02541 19
121.03057 69
122.009 25
122.01727 22
122.02966 20
125.01736 29
125.322 23
125.86925 42
126.05949 72
126.88457 35
130.95459 67
132.90955 19
134.93541 41
140.04919 23
145.05258 59
147.0253 20
156.00597 40
159.06679 21
160.83971 89
161.03481 73
161.04312 83
161.05582 30
161.97437 31
162.07193 30
162.83678 42
163.03879 19
166.8568 36
166.86655 40
166.95244 44
168.09293 24
170.06602 38
170.88133 22
172.95714 34
174.94769 99
174.96161 121
177.90146 28
183.09326 23
184.8679 68
185.98491 22
187.02928 20
187.99643 23
190.92659 78
198.33899 34
201.08099 22
201.09836 29
201.82384 29
201.83394 32
203.8309 20
206.97198 20
213.076 134
221.0663 31
233.29779 26
246.93896 51
247.05 315
248.05473 20
250.88922 25
266.06891 21
266.66855 32
267.08527 46
277.12897 26
279.14285 33
279.46063 22
282.88062 43
283.03088 371
283.25412 30
283.26416 20
285.0181 36
285.03564 130
288.96622 29
293.04965 175
293.06177 504
293.08185 39
294.06085 144
294.3566 20
295.0592 20
298.55289 69
298.99954 24
304.74252 20
305.04794 29
310.70129 21
325.5192 22
327.62912 21
339.04144 84
350.02304 33
351.98022 244
363.12079 40
381.06342 26
383.0863 46
394.02188 70
397.09573 24
413.00696 40
445.19174 26
447.18863 26
453.25314 25
481.13187 38
484.14597 23
493.10007 26
495.11096 56
497.09335 26
505.3222 28
507.07095 28
514.35565 33
515.03839 24
521.17896 40
531.08502 95
531.10638 113
531.1333 19
532.08441 31
533.09058 40
533.13043 60
535.07111 34
535.22308 45
536.09229 24
541.1189 394
Name: 4-Aminophenyl sulfone
PrecursorMZ: 293.0573
PrecursorType: [M+FA-H]-
IonMode: Negative
Formula: C12H12N2O2S
SMILES: C1=CC(=CC=C1N)S(=O)(=O)C2=CC=C(C=C2)N
InChI: 
InChIKey: MQJKPEGWNLWLTK-UHFFFAOYSA-N
RetentionTime: 3.721583
CCS: 
CollisionEnergy: 20-40 eV
InstrumentType: UPLC-QTOF-MS
Comment: PI: Cristina Nerin; Data collector: QiZhi Su, GUIA, University of Zaragoza, Spain; Collision energy: 20-40 V; Instrument: Waters HPLC-QTOF-MS (Xevo G2 QTof); Ionization: ESI; Deconvoluted by MS-DIAL; Column: Waters AtlantisTM premier BEH C18 AX column (2.1 × 100mm x 1.7μm); Flow rate: 0.3mL/min; Mobile phase A and B are water and methnaol, respectively, both with 0.1% formic acid; Gradient elution: from A/B (95/5) to A/B (100/0) in 7min, kept for 4 min, then back to A/B (95/5) in 0.1 min, and maintained for additional 1.9 min (13min in total).; Injection volume: 10 μL
Num peaks: 109
50.9839 40
57.03321 20
61.99185 26
69.03037 39
72.502 38
79.65253 21
80.9676 29
80.97393 23
83.02442 20
86.99102 20
90.99476 192
91.0022 25
91.01988 23
92.02592 91
96.95755 59
96.96476 32
101.03088 42
104.92746 39
105.0272 91
106.9057 21
107.03383 40
111.11787 23
112.98604 96
113.01898 24
114.94468 29
120.02055 28
120.22382 33
121.01507 47
121.0296 22
121.0378 23
125.01878 41
125.87605 26
127.8664 20
128.95972 22
129.02582 22
130.0153 26
130.87819 23
130.9369 22
132.04776 22
135.00206 22
136.01605 39
139.64499 20
141.01045 23
141.86624 50
143.03754 25
145.02179 36
145.0451 33
148.91879 58
151.81473 51
151.87773 40
153.99875 23
155.03413 28
160.83873 59
160.85117 59
161.0416 72
162.82809 54
162.841 20
162.85025 40
164.83353 28
164.91696 42
166.09502 51
166.92458 22
168.85913 46
174.94925 67
174.95958 98
182.90074 20
182.94312 28
183.17609 26
185.08766 60
187.07782 22
187.98611 25
188.06007 29
188.99174 24
190.09927 22
192.93533 20
198.0778 24
201.82875 119
203.83775 73
203.98892 19
211.00829 25
213.15535 28
216.05937 45
216.89665 20
217.06807 34
219.84668 20
220.06093 43
221.9677 21
232.90822 38
236.91882 35
239.02048 45
242.93996 21
246.89757 29
247.02272 30
247.0464 124
247.06105 76
248.0464 70
248.06888 28
255.23833 33
263.05002 48
273.07739 20
274.06339 33
277.3746 19
283.02945 448
284.03799 20
285.02109 142
286.00409 25
286.02261 69
293.05585 698
293.10217 37
Name: 4-Hydroxybenzaldehyde
PrecursorMZ: 121.0271
PrecursorType: [M-H]-
IonMode: Negative
Formula: C7H6O2
SMILES: C1=CC(=CC=C1C=O)O
InChI: 
InChIKey: RGHHSNMVTDWUBI-UHFFFAOYSA-N
RetentionTime: 4.079933
CCS: 
CollisionEnergy: 20-40 eV
InstrumentType: UPLC-QTOF-MS
Comment: PI: Cristina Nerin; Data collector: QiZhi Su, GUIA, University of Zaragoza, Spain; Collision energy: 20-40 V; Instrument: Waters HPLC-QTOF-MS (Xevo G2 QTof); Ionization: ESI; Deconvoluted by MS-DIAL; Column: Waters AtlantisTM premier BEH C18 AX column (2.1 × 100mm x 1.7μm); Flow rate: 0.3mL/min; Mobile phase A and B are water and methnaol, respectively, both with 0.1% formic acid; Gradient elution: from A/B (95/5) to A/B (100/0) in 7min, kept for 4 min, then back to A/B (95/5) in 0.1 min, and maintained for additional 1.9 min (13min in total).; Injection volume: 10 μL
Num peaks: 6
90.9988 76
91.01662 93
92.02483 1347
93.03253 244
120.02145 274
121.0274 4836
Name: L-Tyrosine
PrecursorMZ: 361.1387
PrecursorType: [2M-H]-
IonMode: Negative
Formula: C9H11NO3
SMILES: C1=CC(=CC=C1CC(C(=O)O)N)O
InChI: 
InChIKey: OUYCCCASQSFEME-QMMMGPOBSA-N
RetentionTime: 0.8481333
CCS: 
CollisionEnergy: 20-40 eV
InstrumentType: UPLC-QTOF-MS
Comment: PI: Cristina Nerin; Data collector: QiZhi Su, GUIA, University of Zaragoza, Spain; Collision energy: 20-40 V; Instrument: Waters HPLC-QTOF-MS (Xevo G2 QTof); Ionization: ESI; Deconvoluted by MS-DIAL; Column: Waters AtlantisTM premier BEH C18 AX column (2.1 × 100mm x 1.7μm); Flow rate: 0.3mL/min; Mobile phase A and B are water and methnaol, respectively, both with 0.1% formic acid; Gradient elution: from A/B (95/5) to A/B (100/0) in 7min, kept for 4 min, then back to A/B (95/5) in 0.1 min, and maintained for additional 1.9 min (13min in total).; Injection volume: 10 μL
Num peaks: 15
72.00728 590
72.01367 593
93.02225 581
93.02885 589
93.03589 590
119.0271 499
119.04699 2582
119.05505 2576
163.03763 3423
164.04051 392
164.05232 391
180.06409 26895
181.06691 2181
182.07059 273
361.13849 7259
Name: L-Tyrosine
PrecursorMZ: 180.064
PrecursorType: [M-H]-
IonMode: Negative
Formula: C9H11NO3
SMILES: C1=CC(=CC=C1CC(C(=O)O)N)O
InChI: 
InChIKey: OUYCCCASQSFEME-QMMMGPOBSA-N
RetentionTime: 0.8519334
CCS: 
CollisionEnergy: 20-40 eV
InstrumentType: UPLC-QTOF-MS
Comment: PI: Cristina Nerin; Data collector: QiZhi Su, GUIA, University of Zaragoza, Spain; Collision energy: 20-40 V; Instrument: Waters HPLC-QTOF-MS (Xevo G2 QTof); Ionization: ESI; Deconvoluted by MS-DIAL; Column: Waters AtlantisTM premier BEH C18 AX column (2.1 × 100mm x 1.7μm); Flow rate: 0.3mL/min; Mobile phase A and B are water and methnaol, respectively, both with 0.1% formic acid; Gradient elution: from A/B (95/5) to A/B (100/0) in 7min, kept for 4 min, then back to A/B (95/5) in 0.1 min, and maintained for additional 1.9 min (13min in total).; Injection volume: 10 μL
Num peaks: 6
72.00825 593
93.03201 589
119.04832 2575
163.03735 3423
164.04071 392
180.06451 28291
Name: Tetracycline
PrecursorMZ: 443.1452
PrecursorType: [M-H]-
IonMode: Negative
Formula: C22H24N2O8
SMILES: CC1(C2CC3C(C(=O)C(=C(C3(C(=O)C2=C(C4=C1C=CC=C4O)O)O)O)C(=O)N)N(C)C)O
InChI: 
InChIKey: NWXMGUDVXFXRIG-WESIUVDSSA-N
RetentionTime: 0.8405
CCS: 
CollisionEnergy: 20-40 eV
InstrumentType: UPLC-QTOF-MS
Comment: PI: Cristina Nerin; Data collector: QiZhi Su, GUIA, University of Zaragoza, Spain; Collision energy: 20-40 V; Instrument: Waters HPLC-QTOF-MS (Xevo G2 QTof); Ionization: ESI; Deconvoluted by MS-DIAL; Column: Waters AtlantisTM premier BEH C18 AX column (2.1 × 100mm x 1.7μm); Flow rate: 0.3mL/min; Mobile phase A and B are water and methnaol, respectively, both with 0.1% formic acid; Gradient elution: from A/B (95/5) to A/B (100/0) in 7min, kept for 4 min, then back to A/B (95/5) in 0.1 min, and maintained for additional 1.9 min (13min in total).; Injection volume: 10 μL
Num peaks: 135
74.00659 836
114.039 156
114.05193 177
125.05682 479
125.06657 522
125.07131 522
126.05136 264
133.02473 177
133.03152 182
133.04216 181
134.99936 178
135.01128 165
135.02469 617
135.04121 798
135.04948 795
136.03333 190
136.04655 181
142.01328 715
142.02553 704
149.05153 155
154.02507 301
154.03705 323
161.02301 2346
161.03145 2303
161.06041 163
161.06979 175
162.01385 503
162.02473 541
162.03271 568
163.00069 327
163.01915 526
163.03737 316
163.04819 251
164.06003 151
169.05013 817
169.06067 846
169.07144 795
172.04965 358
173.04526 405
173.05812 153
175.02986 267
175.04137 258
180.00966 1366
180.0282 1856
181.04184 151
187.07529 2117
188.07353 412
188.08292 405
189.04758 230
189.05901 188
201.08914 243
201.09663 240
208.08296 219
209.04439 192
209.0602 246
209.08884 275
211.07375 706
214.05894 280
214.06953 285
223.05806 184
223.07112 284
223.08395 158
229.08614 1519
230.08685 212
230.10361 173
237.05606 243
251.05284 205
253.05437 315
255.05507 626
255.06683 696
256.06531 152
256.07938 184
265.04227 198
265.07117 284
267.0643 323
268.06177 202
268.07751 204
269.07639 178
270.12012 581
270.14722 157
271.05655 286
271.06906 253
273.07562 3558
274.07581 493
274.09381 360
285.07608 329
291.06076 185
293.04245 168
293.05273 152
293.07355 493
293.09268 528
295.0434 261
295.06247 500
295.08755 171
309.07901 268
311.06192 170
311.08911 455
311.10391 298
313.0694 934
322.05032 176
330.12131 221
330.13406 236
335.0592 158
337.0712 787
337.08545 776
338.07071 201
338.08551 181
338.13733 334
355.08185 912
355.12759 152
356.07748 280
356.09335 311
356.14783 237
358.12906 12755
359.13217 2655
360.11566 180
360.13037 272
364.1142 216
381.04578 706
381.05905 713
382.06454 158
382.12851 355
382.14011 376
398.07196 217
398.0871 338
398.10461 270
400.13882 2962
401.12592 537
401.14145 740
426.12195 1946
427.11218 455
427.13187 448
428.12363 155
428.14117 151
443.14569 15036
Name: D-(?)-ampicillin
PrecursorMZ: 348.1009
PrecursorType: [M-H]-
IonMode: Negative
Formula: C16H19N3O4S
SMILES: CC1(C(N2C(S1)C(C2=O)NC(=O)C(C3=CC=CC=C3)N)C(=O)O)C
InChI: 
InChIKey: AVKUERGKIZMTKX-NJBDSQKTSA-N
RetentionTime: 0.8861833
CCS: 
CollisionEnergy: 20-40 eV
InstrumentType: UPLC-QTOF-MS
Comment: PI: Cristina Nerin; Data collector: QiZhi Su, GUIA, University of Zaragoza, Spain; Collision energy: 20-40 V; Instrument: Waters HPLC-QTOF-MS (Xevo G2 QTof); Ionization: ESI; Deconvoluted by MS-DIAL; Column: Waters AtlantisTM premier BEH C18 AX column (2.1 × 100mm x 1.7μm); Flow rate: 0.3mL/min; Mobile phase A and B are water and methnaol, respectively, both with 0.1% formic acid; Gradient elution: from A/B (95/5) to A/B (100/0) in 7min, kept for 4 min, then back to A/B (95/5) in 0.1 min, and maintained for additional 1.9 min (13min in total).; Injection volume: 10 μL
Num peaks: 9
74.0055 1680
74.02076 1756
207.05827 60484
208.06151 5571
208.07933 6382
209.04861 2315
209.05887 2083
304.11258 4306
348.1015 2274
Name: D-(?)-ampicillin
PrecursorMZ: 697.2122
PrecursorType: [2M-H]-
IonMode: Negative
Formula: C16H19N3O4S
SMILES: CC1(C(N2C(S1)C(C2=O)NC(=O)C(C3=CC=CC=C3)N)C(=O)O)C
InChI: 
InChIKey: AVKUERGKIZMTKX-NJBDSQKTSA-N
RetentionTime: 0.8861833
CCS: 
CollisionEnergy: 20-40 eV
InstrumentType: UPLC-QTOF-MS
Comment: PI: Cristina Nerin; Data collector: QiZhi Su, GUIA, University of Zaragoza, Spain; Collision energy: 20-40 V; Instrument: Waters HPLC-QTOF-MS (Xevo G2 QTof); Ionization: ESI; Deconvoluted by MS-DIAL; Column: Waters AtlantisTM premier BEH C18 AX column (2.1 × 100mm x 1.7μm); Flow rate: 0.3mL/min; Mobile phase A and B are water and methnaol, respectively, both with 0.1% formic acid; Gradient elution: from A/B (95/5) to A/B (100/0) in 7min, kept for 4 min, then back to A/B (95/5) in 0.1 min, and maintained for additional 1.9 min (13min in total).; Injection volume: 10 μL
Num peaks: 12
74.0055 1680
74.02076 1756
207.05827 60484
208.06151 5571
208.07933 6382
209.04861 2315
209.05887 2083
304.11258 4306
348.1015 2225
358.12823 753
443.14401 689
697.21515 2445
Name: Tetracycline
PrecursorMZ: 443.1449
PrecursorType: [M-H]-
IonMode: Negative
Formula: C22H24N2O8
SMILES: CC1(C2CC3C(C(=O)C(=C(C3(C(=O)C2=C(C4=C1C=CC=C4O)O)O)O)C(=O)N)N(C)C)O
InChI: 
InChIKey: NWXMGUDVXFXRIG-WESIUVDSSA-N
RetentionTime: 2.631833
CCS: 
CollisionEnergy: 20-40 eV
InstrumentType: UPLC-QTOF-MS
Comment: PI: Cristina Nerin; Data collector: QiZhi Su, GUIA, University of Zaragoza, Spain; Collision energy: 20-40 V; Instrument: Waters HPLC-QTOF-MS (Xevo G2 QTof); Ionization: ESI; Deconvoluted by MS-DIAL; Column: Waters AtlantisTM premier BEH C18 AX column (2.1 × 100mm x 1.7μm); Flow rate: 0.3mL/min; Mobile phase A and B are water and methnaol, respectively, both with 0.1% formic acid; Gradient elution: from A/B (95/5) to A/B (100/0) in 7min, kept for 4 min, then back to A/B (95/5) in 0.1 min, and maintained for additional 1.9 min (13min in total).; Injection volume: 10 μL
Num peaks: 103
50.48245 13
84.00677 74
84.01308 65
93.03225 16
99.01269 17
100.0744 40
102.94837 15
114.63535 14
124.98378 77
127.06145 27
129.0679 13
137.02348 15
149.02953 21
151.02992 40
152.03323 26
152.04205 25
162.01656 122
162.02643 121
165.05624 14
165.06839 13
172.05244 39
174.05069 36
175.00589 30
175.0307 24
178.08107 54
181.04221 13
188.075 115
188.08441 127
193.04669 21
201.05766 40
201.09235 25
207.07715 17
214.05704 22
214.06905 94
215.06563 28
215.07861 25
216.0696 30
217.00276 45
217.01143 36
224.07753 36
226.06589 14
230.08908 60
239.11079 31
245.03616 25
245.05173 29
245.07069 31
245.08871 18
249.05695 21
249.10852 17
251.07059 80
253.08746 20
255.09836 39
256.02927 24
256.06729 63
256.07617 63
258.15381 14
266.078 55
267.05051 28
271.06369 75
272.03848 15
281.17926 15
285.0878 51
286.11502 15
287.09192 16
293.04401 40
294.03912 29
294.05087 32
297.08575 22
302.12125 13
307.04962 22
307.08414 22
310.1394 31
312.15207 13
314.1423 29
315.09772 19
322.10486 14
323.09674 13
335.08698 19
337.06964 129
338.07635 29
338.09174 23
338.12979 19
339.05811 31
353.06177 27
355.08096 111
355.11365 51
355.12949 73
356.10638 25
356.13596 40
356.15366 62
357.16544 18
359.13354 50
364.07101 20
367.0416 34
381.03259 14
381.06268 17
399.09845 26
399.12372 32
399.14285 38
426.08868 117
443.14539 1295
443.19678 43
443.26843 20
Name: Sulfamethoxazole
PrecursorMZ: 252.0429
PrecursorType: [M-H]-
IonMode: Negative
Formula: C10H11N3O3S
SMILES: CC1=CC(=NO1)NS(=O)(=O)C2=CC=C(C=C2)N
InChI: 
InChIKey: JLKIGFTWXXRPMT-UHFFFAOYSA-N
RetentionTime: 4.118017
CCS: 
CollisionEnergy: 20-40 eV
InstrumentType: UPLC-QTOF-MS
Comment: PI: Cristina Nerin; Data collector: QiZhi Su, GUIA, University of Zaragoza, Spain; Collision energy: 20-40 V; Instrument: Waters HPLC-QTOF-MS (Xevo G2 QTof); Ionization: ESI; Deconvoluted by MS-DIAL; Column: Waters AtlantisTM premier BEH C18 AX column (2.1 × 100mm x 1.7μm); Flow rate: 0.3mL/min; Mobile phase A and B are water and methnaol, respectively, both with 0.1% formic acid; Gradient elution: from A/B (95/5) to A/B (100/0) in 7min, kept for 4 min, then back to A/B (95/5) in 0.1 min, and maintained for additional 1.9 min (13min in total).; Injection volume: 10 μL
Num peaks: 6
92.04958 493
108.0442 245
156.01039 1690
158.00029 166
158.00867 123
252.04263 9428
Name: Sulfamethoxazole
PrecursorMZ: 505.096
PrecursorType: [2M-H]-
IonMode: Negative
Formula: C10H11N3O3S
SMILES: CC1=CC(=NO1)NS(=O)(=O)C2=CC=C(C=C2)N
InChI: 
InChIKey: JLKIGFTWXXRPMT-UHFFFAOYSA-N
RetentionTime: 4.121833
CCS: 
CollisionEnergy: 20-40 eV
InstrumentType: UPLC-QTOF-MS
Comment: PI: Cristina Nerin; Data collector: QiZhi Su, GUIA, University of Zaragoza, Spain; Collision energy: 20-40 V; Instrument: Waters HPLC-QTOF-MS (Xevo G2 QTof); Ionization: ESI; Deconvoluted by MS-DIAL; Column: Waters AtlantisTM premier BEH C18 AX column (2.1 × 100mm x 1.7μm); Flow rate: 0.3mL/min; Mobile phase A and B are water and methnaol, respectively, both with 0.1% formic acid; Gradient elution: from A/B (95/5) to A/B (100/0) in 7min, kept for 4 min, then back to A/B (95/5) in 0.1 min, and maintained for additional 1.9 min (13min in total).; Injection volume: 10 μL
Num peaks: 13
63.96178 1339
92.04924 2695
92.06198 2703
108.04309 264
156.0098 18306
157.00197 1266
157.01541 1250
157.02855 1240
158.00574 715
158.01367 713
253.06265 570
505.09451 1373
505.11542 287
Name: (-)-Chloramphenicol
PrecursorMZ: 321.003
PrecursorType: [M-H]-
IonMode: Negative
Formula: C11H12Cl2N2O5
SMILES: C1=CC(=CC=C1C(C(CO)NC(=O)C(Cl)Cl)O)[N+](=O)[O-]
InChI: 
InChIKey: WIIZWVCIJKGZOK-RKDXNWHRSA-N
RetentionTime: 5.188766
CCS: 
CollisionEnergy: 20-40 eV
InstrumentType: UPLC-QTOF-MS
Comment: PI: Cristina Nerin; Data collector: QiZhi Su, GUIA, University of Zaragoza, Spain; Collision energy: 20-40 V; Instrument: Waters HPLC-QTOF-MS (Xevo G2 QTof); Ionization: ESI; Deconvoluted by MS-DIAL; Column: Waters AtlantisTM premier BEH C18 AX column (2.1 × 100mm x 1.7μm); Flow rate: 0.3mL/min; Mobile phase A and B are water and methnaol, respectively, both with 0.1% formic acid; Gradient elution: from A/B (95/5) to A/B (100/0) in 7min, kept for 4 min, then back to A/B (95/5) in 0.1 min, and maintained for additional 1.9 min (13min in total).; Injection volume: 10 μL
Num peaks: 22
82.94459 426
106.02876 1399
121.02744 8688
122.02524 821
146.03368 433
148.03488 1202
148.04321 922
151.02518 10688
152.03282 41801
153.03598 2560
159.03181 805
176.03233 4827
177.03079 527
194.04401 4677
195.05185 524
219.03627 483
249.04811 1015
255.06297 926
257.03012 6385
258.0372 467
259.02789 1828
321.00345 23627
Name: (-)-Chloramphenicol
PrecursorMZ: 643.0149
PrecursorType: [2M-H]-
IonMode: Negative
Formula: C11H12Cl2N2O5
SMILES: C1=CC(=CC=C1C(C(CO)NC(=O)C(Cl)Cl)O)[N+](=O)[O-]
InChI: 
InChIKey: WIIZWVCIJKGZOK-RKDXNWHRSA-N
RetentionTime: 5.188766
CCS: 
CollisionEnergy: 20-40 eV
InstrumentType: UPLC-QTOF-MS
Comment: PI: Cristina Nerin; Data collector: QiZhi Su, GUIA, University of Zaragoza, Spain; Collision energy: 20-40 V; Instrument: Waters HPLC-QTOF-MS (Xevo G2 QTof); Ionization: ESI; Deconvoluted by MS-DIAL; Column: Waters AtlantisTM premier BEH C18 AX column (2.1 × 100mm x 1.7μm); Flow rate: 0.3mL/min; Mobile phase A and B are water and methnaol, respectively, both with 0.1% formic acid; Gradient elution: from A/B (95/5) to A/B (100/0) in 7min, kept for 4 min, then back to A/B (95/5) in 0.1 min, and maintained for additional 1.9 min (13min in total).; Injection volume: 10 μL
Num peaks: 28
82.94459 426
106.02876 1399
121.02744 8688
122.02524 821
146.03368 433
148.03488 1202
148.04321 922
151.02518 10688
152.03282 41801
153.03598 2560
159.03181 805
176.03233 4827
177.03079 527
194.04401 4677
195.05185 524
219.03627 483
249.04811 1015
255.06297 926
257.03012 6385
258.0372 467
259.02789 1828
321.00345 23627
322.00635 2005
323.00052 13664
323.99704 470
324.00974 586
324.99866 1702
425.13397 675
Name: (-)-Chloramphenicol
PrecursorMZ: 321.003
PrecursorType: [M-H]-
IonMode: Negative
Formula: C11H12Cl2N2O5
SMILES: C1=CC(=CC=C1C(C(CO)NC(=O)C(Cl)Cl)O)[N+](=O)[O-]
InChI: 
InChIKey: WIIZWVCIJKGZOK-RKDXNWHRSA-N
RetentionTime: 5.253483
CCS: 
CollisionEnergy: 20-40 eV
InstrumentType: UPLC-QTOF-MS
Comment: PI: Cristina Nerin; Data collector: QiZhi Su, GUIA, University of Zaragoza, Spain; Collision energy: 20-40 V; Instrument: Waters HPLC-QTOF-MS (Xevo G2 QTof); Ionization: ESI; Deconvoluted by MS-DIAL; Column: Waters AtlantisTM premier BEH C18 AX column (2.1 × 100mm x 1.7μm); Flow rate: 0.3mL/min; Mobile phase A and B are water and methnaol, respectively, both with 0.1% formic acid; Gradient elution: from A/B (95/5) to A/B (100/0) in 7min, kept for 4 min, then back to A/B (95/5) in 0.1 min, and maintained for additional 1.9 min (13min in total).; Injection volume: 10 μL
Num peaks: 16
106.01647 546
106.02866 554
118.04005 537
121.02754 5277
122.03809 519
148.03807 410
148.04962 455
151.02533 4165
152.03297 28055
153.0358 1757
176.0329 3133
194.04425 714
237.04752 456
257.03214 1282
258.03262 515
321.00278 34434
Name: (-)-Chloramphenicol
PrecursorMZ: 643.0157
PrecursorType: [2M-H]-
IonMode: Negative
Formula: C11H12Cl2N2O5
SMILES: C1=CC(=CC=C1C(C(CO)NC(=O)C(Cl)Cl)O)[N+](=O)[O-]
InChI: 
InChIKey: WIIZWVCIJKGZOK-RKDXNWHRSA-N
RetentionTime: 5.253483
CCS: 
CollisionEnergy: 20-40 eV
InstrumentType: UPLC-QTOF-MS
Comment: PI: Cristina Nerin; Data collector: QiZhi Su, GUIA, University of Zaragoza, Spain; Collision energy: 20-40 V; Instrument: Waters HPLC-QTOF-MS (Xevo G2 QTof); Ionization: ESI; Deconvoluted by MS-DIAL; Column: Waters AtlantisTM premier BEH C18 AX column (2.1 × 100mm x 1.7μm); Flow rate: 0.3mL/min; Mobile phase A and B are water and methnaol, respectively, both with 0.1% formic acid; Gradient elution: from A/B (95/5) to A/B (100/0) in 7min, kept for 4 min, then back to A/B (95/5) in 0.1 min, and maintained for additional 1.9 min (13min in total).; Injection volume: 10 μL
Num peaks: 28
78.02391 342
78.03442 342
106.01647 546
106.02866 554
118.04005 537
121.02754 5277
122.03809 519
148.03807 410
148.04962 455
151.02533 4165
152.03297 28055
153.0358 1757
176.0329 3133
177.02924 299
177.03799 290
194.04425 714
237.04752 456
257.03214 1282
258.03262 515
321.00278 791
322.00635 1852
323.00089 11565
324.99701 1563
367.00238 631
367.01572 677
368.99258 331
369.00925 303
643.01251 999
Name: (-)-Chloramphenicol
PrecursorMZ: 367.0077
PrecursorType: [M+FA-H]-
IonMode: Negative
Formula: C11H12Cl2N2O5
SMILES: C1=CC(=CC=C1C(C(CO)NC(=O)C(Cl)Cl)O)[N+](=O)[O-]
InChI: 
InChIKey: WIIZWVCIJKGZOK-RKDXNWHRSA-N
RetentionTime: 5.257283
CCS: 
CollisionEnergy: 20-40 eV
InstrumentType: UPLC-QTOF-MS
Comment: PI: Cristina Nerin; Data collector: QiZhi Su, GUIA, University of Zaragoza, Spain; Collision energy: 20-40 V; Instrument: Waters HPLC-QTOF-MS (Xevo G2 QTof); Ionization: ESI; Deconvoluted by MS-DIAL; Column: Waters AtlantisTM premier BEH C18 AX column (2.1 × 100mm x 1.7μm); Flow rate: 0.3mL/min; Mobile phase A and B are water and methnaol, respectively, both with 0.1% formic acid; Gradient elution: from A/B (95/5) to A/B (100/0) in 7min, kept for 4 min, then back to A/B (95/5) in 0.1 min, and maintained for additional 1.9 min (13min in total).; Injection volume: 10 μL
Num peaks: 32
106.01775 534
106.02821 546
118.02477 557
118.03668 540
118.04153 539
121.00832 5138
121.02676 5157
122.02389 610
122.03344 604
122.04359 615
148.03903 1217
151.02534 7491
152.03281 28050
153.01781 2013
153.03731 1668
153.05463 1695
162.02089 287
177.03918 317
179.03981 396
179.05064 393
194.04422 4212
195.05957 379
237.02924 460
257.03107 5123
258.02679 515
259.02795 1804
321.00293 13091
322.00613 1790
322.99966 12196
324.00729 645
324.99881 1387
367.00946 672
Name: 2'-Deoxyguanosine
PrecursorMZ: 533.1854
PrecursorType: [2M-H]-
IonMode: Negative
Formula: C10H13N5O4
SMILES: C1C(C(OC1N2C=NC3=C2N=C(NC3=O)N)CO)O
InChI: 
InChIKey: YKBGVTZYEHREMT-KVQBGUIXSA-N
RetentionTime: 0.9699833
CCS: 
CollisionEnergy: 20-40 eV
InstrumentType: UPLC-QTOF-MS
Comment: PI: Cristina Nerin; Data collector: QiZhi Su, GUIA, University of Zaragoza, Spain; Collision energy: 20-40 V; Instrument: Waters HPLC-QTOF-MS (Xevo G2 QTof); Ionization: ESI; Deconvoluted by MS-DIAL; Column: Waters AtlantisTM premier BEH C18 AX column (2.1 × 100mm x 1.7μm); Flow rate: 0.3mL/min; Mobile phase A and B are water and methnaol, respectively, both with 0.1% formic acid; Gradient elution: from A/B (95/5) to A/B (100/0) in 7min, kept for 4 min, then back to A/B (95/5) in 0.1 min, and maintained for additional 1.9 min (13min in total).; Injection volume: 10 μL
Num peaks: 16
133.01384 1371
133.02109 1391
133.03752 123
134.00871 150
134.01814 210
150.03999 4416
150.05869 4403
151.02371 221
151.04166 343
151.05016 377
176.05171 496
176.06172 491
266.0881 10431
267.08899 902
268.09299 190
533.18439 2857
Name: 2'-Deoxyguanosine
PrecursorMZ: 266.0876
PrecursorType: [M-H]-
IonMode: Negative
Formula: C10H13N5O4
SMILES: C1C(C(OC1N2C=NC3=C2N=C(NC3=O)N)CO)O
InChI: 
InChIKey: YKBGVTZYEHREMT-KVQBGUIXSA-N
RetentionTime: 0.9737833
CCS: 
CollisionEnergy: 20-40 eV
InstrumentType: UPLC-QTOF-MS
Comment: PI: Cristina Nerin; Data collector: QiZhi Su, GUIA, University of Zaragoza, Spain; Collision energy: 20-40 V; Instrument: Waters HPLC-QTOF-MS (Xevo G2 QTof); Ionization: ESI; Deconvoluted by MS-DIAL; Column: Waters AtlantisTM premier BEH C18 AX column (2.1 × 100mm x 1.7μm); Flow rate: 0.3mL/min; Mobile phase A and B are water and methnaol, respectively, both with 0.1% formic acid; Gradient elution: from A/B (95/5) to A/B (100/0) in 7min, kept for 4 min, then back to A/B (95/5) in 0.1 min, and maintained for additional 1.9 min (13min in total).; Injection volume: 10 μL
Num peaks: 8
133.01297 1371
150.04039 4415
151.03331 331
151.04166 343
176.05063 414
176.05859 493
176.07155 380
266.08734 14356
Name: Phloroglucinol
PrecursorMZ: 125.022
PrecursorType: [M-H]-
IonMode: Negative
Formula: C6H6O3
SMILES: C1=C(C=C(C=C1O)O)O
InChI: 
InChIKey: QCDYQQDYXPDABM-UHFFFAOYSA-N
RetentionTime: 0.9852167
CCS: 
CollisionEnergy: 20-40 eV
InstrumentType: UPLC-QTOF-MS
Comment: PI: Cristina Nerin; Data collector: QiZhi Su, GUIA, University of Zaragoza, Spain; Collision energy: 20-40 V; Instrument: Waters HPLC-QTOF-MS (Xevo G2 QTof); Ionization: ESI; Deconvoluted by MS-DIAL; Column: Waters AtlantisTM premier BEH C18 AX column (2.1 × 100mm x 1.7μm); Flow rate: 0.3mL/min; Mobile phase A and B are water and methnaol, respectively, both with 0.1% formic acid; Gradient elution: from A/B (95/5) to A/B (100/0) in 7min, kept for 4 min, then back to A/B (95/5) in 0.1 min, and maintained for additional 1.9 min (13min in total).; Injection volume: 10 μL
Num peaks: 61
64.89079 31
65.50269 27
66.01079 63
66.10023 27
68.72231 32
74.40237 28
80.02481 52
82.03656 22
83.01361 20
83.02383 20
85.01878 25
86.99818 22
87.01147 27
90.01013 21
91.00244 24
92.02077 104
92.02676 62
93.02749 26
95.01113 21
95.02696 21
95.05027 16
95.05517 41
96.95844 42
97.86488 30
98.2226 51
98.97702 22
99.84469 19
99.92819 27
104.02586 38
105.01905 29
106.01617 21
106.02599 133
106.04066 20
106.13204 23
106.55077 58
107.00681 22
107.01408 44
107.03279 228
107.03817 61
108.01911 1223
108.04313 27
108.21278 20
109.01173 24
109.02052 62
111.00921 19
112.00593 96
112.72414 38
112.99885 189
115.94019 52
116.93767 23
117.95399 25
118.01892 27
119.04427 34
120.34884 25
122.03437 22
123.00517 34
123.01225 20
124.03218 42
125.00363 46
125.01785 99
125.02371 325
Name: 2'-Deoxyguanosine
PrecursorMZ: 266.0879
PrecursorType: [M-H]-
IonMode: Negative
Formula: C10H13N5O4
SMILES: C1C(C(OC1N2C=NC3=C2N=C(NC3=O)N)CO)O
InChI: 
InChIKey: YKBGVTZYEHREMT-KVQBGUIXSA-N
RetentionTime: 1.922717
CCS: 
CollisionEnergy: 20-40 eV
InstrumentType: UPLC-QTOF-MS
Comment: PI: Cristina Nerin; Data collector: QiZhi Su, GUIA, University of Zaragoza, Spain; Collision energy: 20-40 V; Instrument: Waters HPLC-QTOF-MS (Xevo G2 QTof); Ionization: ESI; Deconvoluted by MS-DIAL; Column: Waters AtlantisTM premier BEH C18 AX column (2.1 × 100mm x 1.7μm); Flow rate: 0.3mL/min; Mobile phase A and B are water and methnaol, respectively, both with 0.1% formic acid; Gradient elution: from A/B (95/5) to A/B (100/0) in 7min, kept for 4 min, then back to A/B (95/5) in 0.1 min, and maintained for additional 1.9 min (13min in total).; Injection volume: 10 μL
Num peaks: 13
107.0349 252
107.0431 248
108.01823 1228
108.03233 1212
133.01337 2553
134.01305 191
134.02112 378
134.03424 342
150.03969 8028
151.04234 431
176.05409 997
176.06171 997
266.08798 16408
Name: 2'-Deoxyguanosine
PrecursorMZ: 533.1851
PrecursorType: [2M-H]-
IonMode: Negative
Formula: C10H13N5O4
SMILES: C1C(C(OC1N2C=NC3=C2N=C(NC3=O)N)CO)O
InChI: 
InChIKey: YKBGVTZYEHREMT-KVQBGUIXSA-N
RetentionTime: 1.922717
CCS: 
CollisionEnergy: 20-40 eV
InstrumentType: UPLC-QTOF-MS
Comment: PI: Cristina Nerin; Data collector: QiZhi Su, GUIA, University of Zaragoza, Spain; Collision energy: 20-40 V; Instrument: Waters HPLC-QTOF-MS (Xevo G2 QTof); Ionization: ESI; Deconvoluted by MS-DIAL; Column: Waters AtlantisTM premier BEH C18 AX column (2.1 × 100mm x 1.7μm); Flow rate: 0.3mL/min; Mobile phase A and B are water and methnaol, respectively, both with 0.1% formic acid; Gradient elution: from A/B (95/5) to A/B (100/0) in 7min, kept for 4 min, then back to A/B (95/5) in 0.1 min, and maintained for additional 1.9 min (13min in total).; Injection volume: 10 μL
Num peaks: 17
107.0349 285
107.0431 281
108.01823 1228
108.03233 1213
133.01337 2553
134.01305 239
134.02112 413
134.03424 342
149.03001 178
150.03969 8197
151.04234 431
176.05409 997
176.06171 997
266.08798 14076
267.08731 493
533.18488 1916
533.2207 167
Name: Sulfafurazole
PrecursorMZ: 266.0588
PrecursorType: [M-H]-
IonMode: Negative
Formula: C11H13N3O3S
SMILES: CC1=C(ON=C1C)NS(=O)(=O)C2=CC=C(C=C2)N
InChI: 
InChIKey: NHUHCSRWZMLRLA-UHFFFAOYSA-N
RetentionTime: 4.388367
CCS: 
CollisionEnergy: 20-40 eV
InstrumentType: UPLC-QTOF-MS
Comment: PI: Cristina Nerin; Data collector: QiZhi Su, GUIA, University of Zaragoza, Spain; Collision energy: 20-40 V; Instrument: Waters HPLC-QTOF-MS (Xevo G2 QTof); Ionization: ESI; Deconvoluted by MS-DIAL; Column: Waters AtlantisTM premier BEH C18 AX column (2.1 × 100mm x 1.7μm); Flow rate: 0.3mL/min; Mobile phase A and B are water and methnaol, respectively, both with 0.1% formic acid; Gradient elution: from A/B (95/5) to A/B (100/0) in 7min, kept for 4 min, then back to A/B (95/5) in 0.1 min, and maintained for additional 1.9 min (13min in total).; Injection volume: 10 μL
Num peaks: 42
63.96091 824
63.96493 824
63.97144 824
78.97114 421
79.98032 873
79.98654 868
91.0312 431
91.04137 441
91.04538 441
92.04926 1648
107.031 1115
107.03627 1139
108.0432 1934
109.03894 432
109.04722 432
109.05439 446
155.00403 603
155.01805 614
156.01062 9043
156.99908 546
157.01219 627
157.02448 597
157.06345 386
157.0755 422
157.08337 422
157.9949 336
158.00792 343
171.02127 27832
172.00815 2127
172.0246 1955
173.01538 1063
173.02686 1072
221.03735 624
239.04874 9898
240.03345 914
240.05199 992
240.06506 1000
241.03607 404
241.04388 447
241.05469 456
266.05817 20496
266.09 300
Name: Sulfafurazole
PrecursorMZ: 533.1253
PrecursorType: [2M-H]-
IonMode: Negative
Formula: C11H13N3O3S
SMILES: CC1=C(ON=C1C)NS(=O)(=O)C2=CC=C(C=C2)N
InChI: 
InChIKey: NHUHCSRWZMLRLA-UHFFFAOYSA-N
RetentionTime: 4.399783
CCS: 
CollisionEnergy: 20-40 eV
InstrumentType: UPLC-QTOF-MS
Comment: PI: Cristina Nerin; Data collector: QiZhi Su, GUIA, University of Zaragoza, Spain; Collision energy: 20-40 V; Instrument: Waters HPLC-QTOF-MS (Xevo G2 QTof); Ionization: ESI; Deconvoluted by MS-DIAL; Column: Waters AtlantisTM premier BEH C18 AX column (2.1 × 100mm x 1.7μm); Flow rate: 0.3mL/min; Mobile phase A and B are water and methnaol, respectively, both with 0.1% formic acid; Gradient elution: from A/B (95/5) to A/B (100/0) in 7min, kept for 4 min, then back to A/B (95/5) in 0.1 min, and maintained for additional 1.9 min (13min in total).; Injection volume: 10 μL
Num peaks: 25
63.9617 1227
78.97181 530
79.98112 747
82.02644 323
91.04143 437
92.04965 1845
107.03625 1346
108.04337 1936
109.03931 564
155.00348 692
156.01114 9798
157.01276 793
157.077 330
171.02127 29785
172.00732 351
172.02444 1764
173.0174 1249
221.03667 874
239.04787 9664
240.05069 1373
266.05939 19358
267.06268 2199
268.05759 716
440.12878 378
533.12848 1633
Name: Folic acid
PrecursorMZ: 440.1315
PrecursorType: [M-H]-
IonMode: Negative
Formula: C19H19N7O6
SMILES: C1=CC(=CC=C1C(=O)NC(CCC(=O)O)C(=O)O)NCC2=CN=C3C(=N2)C(=O)NC(=N3)N
InChI: 
InChIKey: OVBPIULPVIDEAO-LBPRGKRZSA-N
RetentionTime: 4.552067
CCS: 
CollisionEnergy: 20-40 eV
InstrumentType: UPLC-QTOF-MS
Comment: PI: Cristina Nerin; Data collector: QiZhi Su, GUIA, University of Zaragoza, Spain; Collision energy: 20-40 V; Instrument: Waters HPLC-QTOF-MS (Xevo G2 QTof); Ionization: ESI; Deconvoluted by MS-DIAL; Column: Waters AtlantisTM premier BEH C18 AX column (2.1 × 100mm x 1.7μm); Flow rate: 0.3mL/min; Mobile phase A and B are water and methnaol, respectively, both with 0.1% formic acid; Gradient elution: from A/B (95/5) to A/B (100/0) in 7min, kept for 4 min, then back to A/B (95/5) in 0.1 min, and maintained for additional 1.9 min (13min in total).; Injection volume: 10 μL
Num peaks: 32
128.0239 383
128.03374 400
128.04042 392
132.04251 189
132.05096 184
135.05135 152
135.05975 161
146.04164 153
146.04987 151
175.04701 1379
176.04486 242
176.0527 246
176.06548 164
177.09457 213
177.10318 192
203.07942 128
221.09137 246
222.07628 140
222.08533 150
293.08237 358
311.08908 2373
312.09418 202
334.13846 199
353.13721 128
378.13174 397
379.1337 126
396.13892 516
396.15833 559
397.12506 186
397.1445 330
422.12109 207
440.133 11624
Name: Folic acid
PrecursorMZ: 440.1317
PrecursorType: [M-H]-
IonMode: Negative
Formula: C19H19N7O6
SMILES: C1=CC(=CC=C1C(=O)NC(CCC(=O)O)C(=O)O)NCC2=CN=C3C(=N2)C(=O)NC(=N3)N
InChI: 
InChIKey: OVBPIULPVIDEAO-LBPRGKRZSA-N
RetentionTime: 4.647733
CCS: 
CollisionEnergy: 20-40 eV
InstrumentType: UPLC-QTOF-MS
Comment: PI: Cristina Nerin; Data collector: QiZhi Su, GUIA, University of Zaragoza, Spain; Collision energy: 20-40 V; Instrument: Waters HPLC-QTOF-MS (Xevo G2 QTof); Ionization: ESI; Deconvoluted by MS-DIAL; Column: Waters AtlantisTM premier BEH C18 AX column (2.1 × 100mm x 1.7μm); Flow rate: 0.3mL/min; Mobile phase A and B are water and methnaol, respectively, both with 0.1% formic acid; Gradient elution: from A/B (95/5) to A/B (100/0) in 7min, kept for 4 min, then back to A/B (95/5) in 0.1 min, and maintained for additional 1.9 min (13min in total).; Injection volume: 10 μL
Num peaks: 33
128.03337 161
128.04871 193
132.03915 551
132.04495 544
136.04019 189
136.05585 157
174.04097 165
174.0601 166
176.07744 196
221.08353 208
221.09439 145
267.08023 165
289.08209 158
293.0762 815
293.08606 835
293.10181 474
310.10617 149
311.0896 3111
312.0831 242
334.1402 196
334.15414 195
335.12234 287
335.13882 204
353.13391 155
353.15704 136
379.11517 142
396.14175 371
397.12985 363
397.14633 348
422.10941 413
422.1293 382
423.10773 178
440.13123 13548
Name: 2'-Deoxyguanosine
PrecursorMZ: 266.088
PrecursorType: [M-H]-
IonMode: Negative
Formula: C10H13N5O4
SMILES: C1C(C(OC1N2C=NC3=C2N=C(NC3=O)N)CO)O
InChI: 
InChIKey: YKBGVTZYEHREMT-KVQBGUIXSA-N
RetentionTime: 0.8519667
CCS: 
CollisionEnergy: 20-40 eV
InstrumentType: UPLC-QTOF-MS
Comment: PI: Cristina Nerin; Data collector: QiZhi Su, GUIA, University of Zaragoza, Spain; Collision energy: 20-40 V; Instrument: Waters HPLC-QTOF-MS (Xevo G2 QTof); Ionization: ESI; Deconvoluted by MS-DIAL; Column: Waters AtlantisTM premier BEH C18 AX column (2.1 × 100mm x 1.7μm); Flow rate: 0.3mL/min; Mobile phase A and B are water and methnaol, respectively, both with 0.1% formic acid; Gradient elution: from A/B (95/5) to A/B (100/0) in 7min, kept for 4 min, then back to A/B (95/5) in 0.1 min, and maintained for additional 1.9 min (13min in total).; Injection volume: 10 μL
Num peaks: 8
108.01958 1609
132.99411 2746
133.01346 3483
150.0406 15481
151.04111 1096
151.05037 1080
176.05646 1641
266.08798 59597
Name: Dehydrocholic acid
PrecursorMZ: 803.4749
PrecursorType: [2M-H]-
IonMode: Negative
Formula: C24H34O5
SMILES: CC(CCC(=O)O)C1CCC2C1(C(=O)CC3C2C(=O)CC4C3(CCC(=O)C4)C)C
InChI: 
InChIKey: OHXPGWPVLFPUSM-KLRNGDHRSA-N
RetentionTime: 6.67895
CCS: 
CollisionEnergy: 20-40 eV
InstrumentType: UPLC-QTOF-MS
Comment: PI: Cristina Nerin; Data collector: QiZhi Su, GUIA, University of Zaragoza, Spain; Collision energy: 20-40 V; Instrument: Waters HPLC-QTOF-MS (Xevo G2 QTof); Ionization: ESI; Deconvoluted by MS-DIAL; Column: Waters AtlantisTM premier BEH C18 AX column (2.1 × 100mm x 1.7μm); Flow rate: 0.3mL/min; Mobile phase A and B are water and methnaol, respectively, both with 0.1% formic acid; Gradient elution: from A/B (95/5) to A/B (100/0) in 7min, kept for 4 min, then back to A/B (95/5) in 0.1 min, and maintained for additional 1.9 min (13min in total).; Injection volume: 10 μL
Num peaks: 7
249.1483 4015
331.19006 8484
401.23236 330655
402.23502 76697
403.23776 10054
433.25934 3968
803.47394 106832
Name: Dehydrocholic acid
PrecursorMZ: 401.2321
PrecursorType: [M-H]-
IonMode: Negative
Formula: C24H34O5
SMILES: CC(CCC(=O)O)C1CCC2C1(C(=O)CC3C2C(=O)CC4C3(CCC(=O)C4)C)C
InChI: 
InChIKey: OHXPGWPVLFPUSM-KLRNGDHRSA-N
RetentionTime: 6.697983
CCS: 
CollisionEnergy: 20-40 eV
InstrumentType: UPLC-QTOF-MS
Comment: PI: Cristina Nerin; Data collector: QiZhi Su, GUIA, University of Zaragoza, Spain; Collision energy: 20-40 V; Instrument: Waters HPLC-QTOF-MS (Xevo G2 QTof); Ionization: ESI; Deconvoluted by MS-DIAL; Column: Waters AtlantisTM premier BEH C18 AX column (2.1 × 100mm x 1.7μm); Flow rate: 0.3mL/min; Mobile phase A and B are water and methnaol, respectively, both with 0.1% formic acid; Gradient elution: from A/B (95/5) to A/B (100/0) in 7min, kept for 4 min, then back to A/B (95/5) in 0.1 min, and maintained for additional 1.9 min (13min in total).; Injection volume: 10 μL
Num peaks: 3
249.14807 3827
331.18954 8384
401.23218 308686
Name: 2'-Deoxyguanosine
PrecursorMZ: 533.1857
PrecursorType: [2M-H]-
IonMode: Negative
Formula: C10H13N5O4
SMILES: C1C(C(OC1N2C=NC3=C2N=C(NC3=O)N)CO)O
InChI: 
InChIKey: YKBGVTZYEHREMT-KVQBGUIXSA-N
RetentionTime: 0.8519667
CCS: 
CollisionEnergy: 20-40 eV
InstrumentType: UPLC-QTOF-MS
Comment: PI: Cristina Nerin; Data collector: QiZhi Su, GUIA, University of Zaragoza, Spain; Collision energy: 20-40 V; Instrument: Waters HPLC-QTOF-MS (Xevo G2 QTof); Ionization: ESI; Deconvoluted by MS-DIAL; Column: Waters AtlantisTM premier BEH C18 AX column (2.1 × 100mm x 1.7μm); Flow rate: 0.3mL/min; Mobile phase A and B are water and methnaol, respectively, both with 0.1% formic acid; Gradient elution: from A/B (95/5) to A/B (100/0) in 7min, kept for 4 min, then back to A/B (95/5) in 0.1 min, and maintained for additional 1.9 min (13min in total).; Injection volume: 10 μL
Num peaks: 13
108.01958 1609
132.99411 2746
133.01346 3483
150.0406 15481
151.04111 1096
151.05037 1080
176.05646 1641
266.08798 56882
267.09055 6158
268.08575 706
268.09323 708
282.08249 924
533.18597 20867
Name: Norethisterone acetate
PrecursorMZ: 385.2013
PrecursorType: [M+FA-H]-
IonMode: Negative
Formula: C22H28O3
SMILES: CC(=O)OC1(CCC2C1(CCC3C2CCC4=CC(=O)CCC34)C)C#C
InChI: 
InChIKey: IMONTRJLAWHYGT-ZCPXKWAGSA-N
RetentionTime: 7.34565
CCS: 
CollisionEnergy: 20-40 eV
InstrumentType: UPLC-QTOF-MS
Comment: PI: Cristina Nerin; Data collector: QiZhi Su, GUIA, University of Zaragoza, Spain; Collision energy: 20-40 V; Instrument: Waters HPLC-QTOF-MS (Xevo G2 QTof); Ionization: ESI; Deconvoluted by MS-DIAL; Column: Waters AtlantisTM premier BEH C18 AX column (2.1 × 100mm x 1.7μm); Flow rate: 0.3mL/min; Mobile phase A and B are water and methnaol, respectively, both with 0.1% formic acid; Gradient elution: from A/B (95/5) to A/B (100/0) in 7min, kept for 4 min, then back to A/B (95/5) in 0.1 min, and maintained for additional 1.9 min (13min in total).; Injection volume: 10 μL
Num peaks: 5
205.16039 77
377.25711 217
377.26688 278
377.28281 262
385.20056 6976
Name: 4-Nitrobenzoic acid
PrecursorMZ: 166.0125
PrecursorType: [M-H]-
IonMode: Negative
Formula: C7H5NO4
SMILES: C1=CC(=CC=C1C(=O)O)[N+](=O)[O-]
InChI: 
InChIKey: OTLNPYWUJOZPPA-UHFFFAOYSA-N
RetentionTime: 7.90565
CCS: 
CollisionEnergy: 20-40 eV
InstrumentType: UPLC-QTOF-MS
Comment: PI: Cristina Nerin; Data collector: QiZhi Su, GUIA, University of Zaragoza, Spain; Collision energy: 20-40 V; Instrument: Waters HPLC-QTOF-MS (Xevo G2 QTof); Ionization: ESI; Deconvoluted by MS-DIAL; Column: Waters AtlantisTM premier BEH C18 AX column (2.1 × 100mm x 1.7μm); Flow rate: 0.3mL/min; Mobile phase A and B are water and methnaol, respectively, both with 0.1% formic acid; Gradient elution: from A/B (95/5) to A/B (100/0) in 7min, kept for 4 min, then back to A/B (95/5) in 0.1 min, and maintained for additional 1.9 min (13min in total).; Injection volume: 10 μL
Num peaks: 5
92.02537 4079
118.9902 1023
122.02283 71545
123.0253 3101
166.0125 33107
Name: pyritinol
PrecursorMZ: 735.1653
PrecursorType: [2M-H]-
IonMode: Negative
Formula: C16H20N2O4S2
SMILES: CC1=NC=C(C(=C1O)CO)CSSCC2=CN=C(C(=C2CO)O)C
InChI: 
InChIKey: SIXLXDIJGIWWFU-UHFFFAOYSA-N
RetentionTime: 0.8443167
CCS: 
CollisionEnergy: 20-40 eV
InstrumentType: UPLC-QTOF-MS
Comment: PI: Cristina Nerin; Data collector: QiZhi Su, GUIA, University of Zaragoza, Spain; Collision energy: 20-40 V; Instrument: Waters HPLC-QTOF-MS (Xevo G2 QTof); Ionization: ESI; Deconvoluted by MS-DIAL; Column: Waters AtlantisTM premier BEH C18 AX column (2.1 × 100mm x 1.7μm); Flow rate: 0.3mL/min; Mobile phase A and B are water and methnaol, respectively, both with 0.1% formic acid; Gradient elution: from A/B (95/5) to A/B (100/0) in 7min, kept for 4 min, then back to A/B (95/5) in 0.1 min, and maintained for additional 1.9 min (13min in total).; Injection volume: 10 μL
Num peaks: 151
120.03722 1654
120.04422 1688
121.04411 497
121.05254 498
122.05859 1065
148.03796 1876
149.03534 446
149.0471 448
150.0535 3862
151.05284 379
151.06163 377
152.01465 298
154.02994 3544
154.03667 3559
155.02782 258
155.03719 266
156.0295 151
156.03975 153
164.00626 2181
164.01692 2192
165.0173 295
165.02646 317
166.03174 3297
167.03214 319
167.04349 309
168.02687 179
180.01028 1209
181.0159 629
181.03288 646
182.02672 12919
183.01164 664
183.02184 893
183.02837 881
183.03696 855
184.01517 508
184.03685 1845
184.05368 1643
185.02383 154
185.0397 195
185.05006 202
198.00456 326
212.99072 350
216.0098 571
216.01869 570
216.03394 198
223.0437 202
223.0844 163
238.07401 322
239.07375 175
239.0826 175
241.99878 441
242.01015 528
251.07268 572
251.08621 591
252.07686 240
252.08812 251
253.08325 585
253.09833 604
255.10823 233
263.08557 263
264.0694 177
281.09244 2656
282.08926 383
282.11459 250
283.10538 131
285.06702 766
287.07239 138
287.08881 161
296.04242 134
297.077 217
310.1037 157
310.11786 209
310.12747 195
311.11414 487
311.13074 478
315.08084 2444
316.0639 173
316.08441 431
316.09869 412
317.06732 196
317.07764 186
319.05707 913
320.061 154
331.05939 211
341.07718 279
342.06998 246
342.08594 273
342.10593 195
343.0929 623
344.09534 228
349.06757 3285
350.06641 575
351.05658 294
351.07413 321
367.07617 7343
368.07874 1400
369.06067 540
369.07504 627
369.09204 559
373.04074 133
373.05859 167
374.05856 178
375.06235 914
376.06784 285
377.0614 147
377.07538 157
392.07639 168
393.07053 572
393.08701 603
399.04205 776
399.05725 778
400.0416 179
400.06094 154
401.04413 131
406.02298 130
406.03168 149
407.0434 190
419.07352 200
525.12146 207
525.14716 182
526.11566 1133
526.13495 1386
527.13672 2196
528.11877 299
528.14258 557
529.11359 141
529.12628 293
529.15723 167
540.09515 209
552.11853 451
552.13654 446
553.13257 240
557.0899 674
557.10803 632
558.09503 2855
558.11182 2858
558.61249 207
559.10535 1579
559.61548 351
560.09857 764
560.12543 316
561.10602 196
561.12061 160
583.09692 170
584.10211 488
590.07318 259
591.08148 587
592.07965 210
725.14734 297
735.14246 130
735.16693 356
Name: pyritinol
PrecursorMZ: 367.0779
PrecursorType: [M-H]-
IonMode: Negative
Formula: C16H20N2O4S2
SMILES: CC1=NC=C(C(=C1O)CO)CSSCC2=CN=C(C(=C2CO)O)C
InChI: 
InChIKey: SIXLXDIJGIWWFU-UHFFFAOYSA-N
RetentionTime: 1.514833
CCS: 
CollisionEnergy: 20-40 eV
InstrumentType: UPLC-QTOF-MS
Comment: PI: Cristina Nerin; Data collector: QiZhi Su, GUIA, University of Zaragoza, Spain; Collision energy: 20-40 V; Instrument: Waters HPLC-QTOF-MS (Xevo G2 QTof); Ionization: ESI; Deconvoluted by MS-DIAL; Column: Waters AtlantisTM premier BEH C18 AX column (2.1 × 100mm x 1.7μm); Flow rate: 0.3mL/min; Mobile phase A and B are water and methnaol, respectively, both with 0.1% formic acid; Gradient elution: from A/B (95/5) to A/B (100/0) in 7min, kept for 4 min, then back to A/B (95/5) in 0.1 min, and maintained for additional 1.9 min (13min in total).; Injection volume: 10 μL
Num peaks: 90
96.95882 130
116.92558 61
116.93389 61
120.04376 858
120.05748 868
121.04691 182
121.05822 177
122.05149 533
122.06075 551
148.03825 1039
149.04512 186
150.04755 959
150.05765 959
151.06323 126
152.01208 180
152.0224 172
154.02968 1731
154.03943 1737
155.03009 116
155.03763 116
156.0183 92
164.01601 542
164.03665 95
166.03011 1730
167.02478 173
167.03793 167
168.02675 84
179.99895 231
180.00877 245
180.01784 241
181.01662 332
182.02629 5035
183.0304 491
184.00919 129
184.02032 426
184.03075 823
184.0399 800
184.05225 686
185.04645 66
194.02733 67
216.01192 74
216.02588 66
225.09181 57
225.10875 54
235.08795 82
237.09123 73
237.10449 69
238.06245 191
238.07184 212
239.07117 60
239.09222 61
251.08018 295
251.09428 302
252.07971 128
252.09122 126
253.09625 403
253.95052 51
253.96024 56
255.11624 111
263.0744 103
263.08688 121
264.08734 51
267.04651 73
267.06604 88
281.09097 1366
282.08817 187
282.10733 182
283.09665 53
283.10718 56
285.05078 203
285.06689 342
285.08057 337
286.07358 72
297.05585 124
297.07678 153
297.0892 126
315.07941 1145
315.11011 119
316.06799 177
316.0885 186
317.07712 74
319.04315 421
319.05795 485
319.07492 281
320.06607 55
349.0513 436
349.06921 556
350.08603 70
351.0708 58
367.07861 2353
Name: pyritinol
PrecursorMZ: 735.1687
PrecursorType: [2M-H]-
IonMode: Negative
Formula: C16H20N2O4S2
SMILES: CC1=NC=C(C(=C1O)CO)CSSCC2=CN=C(C(=C2CO)O)C
InChI: 
InChIKey: SIXLXDIJGIWWFU-UHFFFAOYSA-N
RetentionTime: 1.514833
CCS: 
CollisionEnergy: 20-40 eV
InstrumentType: UPLC-QTOF-MS
Comment: PI: Cristina Nerin; Data collector: QiZhi Su, GUIA, University of Zaragoza, Spain; Collision energy: 20-40 V; Instrument: Waters HPLC-QTOF-MS (Xevo G2 QTof); Ionization: ESI; Deconvoluted by MS-DIAL; Column: Waters AtlantisTM premier BEH C18 AX column (2.1 × 100mm x 1.7μm); Flow rate: 0.3mL/min; Mobile phase A and B are water and methnaol, respectively, both with 0.1% formic acid; Gradient elution: from A/B (95/5) to A/B (100/0) in 7min, kept for 4 min, then back to A/B (95/5) in 0.1 min, and maintained for additional 1.9 min (13min in total).; Injection volume: 10 μL
Num peaks: 96
96.95882 130
116.92558 61
116.93389 61
120.04376 858
120.05748 868
121.04691 182
121.05822 177
122.05149 533
122.06075 551
148.03825 1039
149.04512 186
150.04755 959
150.05765 959
151.06323 126
152.01208 180
152.0224 172
154.02968 1731
154.03943 1737
155.03009 116
155.03763 116
156.0183 92
164.01601 542
164.03665 95
166.03011 1730
167.02478 173
167.03793 167
168.02675 84
179.99895 231
180.00877 245
180.01784 241
181.01662 332
182.02629 5035
183.0304 491
184.00919 129
184.02032 426
184.03075 823
184.0399 800
184.05225 686
185.04645 66
194.02733 67
216.01192 74
216.02588 66
225.09181 57
225.10875 54
235.08795 82
237.09123 73
237.10449 69
238.06245 191
238.07184 212
239.07117 60
239.09222 61
251.08018 295
251.09428 302
252.07971 128
252.09122 126
253.09625 403
253.95052 51
253.96024 56
255.11624 111
263.0744 103
263.08688 121
264.08734 51
267.04651 73
267.06604 88
281.09097 1366
282.08817 187
282.10733 182
283.09665 53
283.10718 56
285.05078 203
285.06689 342
285.08057 337
286.07358 72
297.05585 124
297.07678 153
297.0892 126
315.07941 1145
315.11011 119
316.06799 177
316.0885 186
317.07712 74
319.04315 421
319.05795 485
319.07492 281
320.06607 55
349.0513 436
349.06921 556
350.08603 70
351.0708 58
367.07861 2330
368.06952 399
368.10443 86
369.07193 265
369.08679 254
735.15009 57
735.18073 142
Name: Glutamine
PrecursorMZ: 145.0595
PrecursorType: [M-H]-
IonMode: Negative
Formula: C5H10N2O3
SMILES: C(CC(=O)N)C(C(=O)O)N
InChI: 
InChIKey: ZDXPYRJPNDTMRX-VKHMYHEASA-N
RetentionTime: 0.7263
CCS: 
CollisionEnergy: 20-40 eV
InstrumentType: UPLC-QTOF-MS
Comment: PI: Cristina Nerin; Data collector: QiZhi Su, GUIA, University of Zaragoza, Spain; Collision energy: 20-40 V; Instrument: Waters HPLC-QTOF-MS (Xevo G2 QTof); Ionization: ESI; Deconvoluted by MS-DIAL; Column: Waters AtlantisTM premier BEH C18 AX column (2.1 × 100mm x 1.7μm); Flow rate: 0.3mL/min; Mobile phase A and B are water and methnaol, respectively, both with 0.1% formic acid; Gradient elution: from A/B (95/5) to A/B (100/0) in 7min, kept for 4 min, then back to A/B (95/5) in 0.1 min, and maintained for additional 1.9 min (13min in total).; Injection volume: 10 μL
Num peaks: 9
74.02091 138
74.02663 138
84.0451 226
109.03625 413
127.04762 1286
127.05771 1290
128.03406 413
128.04346 432
145.05998 7655
Name: Nitrofurantoin
PrecursorMZ: 237.0247
PrecursorType: [M-H]-
IonMode: Negative
Formula: C8H6N4O5
SMILES: C1C(=O)NC(=O)N1N=CC2=CC=C(O2)[N+](=O)[O-]
InChI: 
InChIKey: NXFQHRVNIOXGAQ-YCRREMRBSA-N
RetentionTime: 3.127183
CCS: 
CollisionEnergy: 20-40 eV
InstrumentType: UPLC-QTOF-MS
Comment: PI: Cristina Nerin; Data collector: QiZhi Su, GUIA, University of Zaragoza, Spain; Collision energy: 20-40 V; Instrument: Waters HPLC-QTOF-MS (Xevo G2 QTof); Ionization: ESI; Deconvoluted by MS-DIAL; Column: Waters AtlantisTM premier BEH C18 AX column (2.1 × 100mm x 1.7μm); Flow rate: 0.3mL/min; Mobile phase A and B are water and methnaol, respectively, both with 0.1% formic acid; Gradient elution: from A/B (95/5) to A/B (100/0) in 7min, kept for 4 min, then back to A/B (95/5) in 0.1 min, and maintained for additional 1.9 min (13min in total).; Injection volume: 10 μL
Num peaks: 84
50.04323 66
53.13208 34
56.00278 27
68.35135 24
75.6517 19
75.68963 21
76.99803 249
77.00323 339
78.00813 59
78.95866 132
79.95459 41
80.01012 20
81.11456 27
82.5308 22
83.04942 21
89.02361 20
91.03186 26
92.037 21
94.94668 26
96.99911 70
99.01874 187
99.02261 75
99.9218 23
99.93087 24
100.93242 20
108.00541 77
108.01324 22
110.98292 54
120.02232 20
120.02798 24
120.04176 33
122.0556 20
122.06715 33
123.02111 36
124.00443 263
125.00259 25
127.03262 23
127.96878 29
130.94449 25
140.91734 21
143.0443 21
143.0509 33
144.04568 24
147.0143 22
148.02632 21
148.0343 50
151.07326 111
151.92986 23
152.00652 313
152.0143 125
153.00403 19
153.01453 22
154.03802 55
154.3255 41
155.9296 22
162.30301 33
165.01758 22
166.0239 19
166.04227 22
166.04997 34
174.89233 22
182.01715 25
182.02655 109
184.03284 22
184.04018 24
190.02089 45
194.01353 42
195.95114 33
196.94656 22
200.9977 30
205.03441 60
209.07579 21
209.95543 22
221.10559 49
221.84108 23
225.06027 42
225.09973 25
232.95345 27
232.98106 102
233.04849 21
235.10028 24
235.11787 22
236.98755 27
237.02356 1888
Name: Nitrofurantoin
PrecursorMZ: 237.0251
PrecursorType: [M-H]-
IonMode: Negative
Formula: C8H6N4O5
SMILES: C1C(=O)NC(=O)N1N=CC2=CC=C(O2)[N+](=O)[O-]
InChI: 
InChIKey: NXFQHRVNIOXGAQ-YCRREMRBSA-N
RetentionTime: 3.458383
CCS: 
CollisionEnergy: 20-40 eV
InstrumentType: UPLC-QTOF-MS
Comment: PI: Cristina Nerin; Data collector: QiZhi Su, GUIA, University of Zaragoza, Spain; Collision energy: 20-40 V; Instrument: Waters HPLC-QTOF-MS (Xevo G2 QTof); Ionization: ESI; Deconvoluted by MS-DIAL; Column: Waters AtlantisTM premier BEH C18 AX column (2.1 × 100mm x 1.7μm); Flow rate: 0.3mL/min; Mobile phase A and B are water and methnaol, respectively, both with 0.1% formic acid; Gradient elution: from A/B (95/5) to A/B (100/0) in 7min, kept for 4 min, then back to A/B (95/5) in 0.1 min, and maintained for additional 1.9 min (13min in total).; Injection volume: 10 μL
Num peaks: 18
77.00151 524
77.01696 530
97.00399 67
99.01466 109
99.02084 108
108.00783 60
119.01575 181
119.02049 175
119.02837 175
123.99984 172
124.00995 172
152.00104 607
152.00735 629
152.02222 521
153.01669 62
194.01236 100
194.0226 102
237.02682 5847
Name: Benfotiamine
PrecursorMZ: 465.0994
PrecursorType: [M-H]-
IonMode: Negative
Formula: C19H23N4O6PS
SMILES: CC1=NC=C(C(=N1)N)CN(C=O)C(=C(CCOP(=O)(O)O)SC(=O)C2=CC=CC=C2)C
InChI: 
InChIKey: BTNNPSLJPBRMLZ-LGMDPLHJSA-N
RetentionTime: 4.201766
CCS: 
CollisionEnergy: 20-40 eV
InstrumentType: UPLC-QTOF-MS
Comment: PI: Cristina Nerin; Data collector: QiZhi Su, GUIA, University of Zaragoza, Spain; Collision energy: 20-40 V; Instrument: Waters HPLC-QTOF-MS (Xevo G2 QTof); Ionization: ESI; Deconvoluted by MS-DIAL; Column: Waters AtlantisTM premier BEH C18 AX column (2.1 × 100mm x 1.7μm); Flow rate: 0.3mL/min; Mobile phase A and B are water and methnaol, respectively, both with 0.1% formic acid; Gradient elution: from A/B (95/5) to A/B (100/0) in 7min, kept for 4 min, then back to A/B (95/5) in 0.1 min, and maintained for additional 1.9 min (13min in total).; Injection volume: 10 μL
Num peaks: 18
78.95776 10389
96.95896 179
96.96526 180
96.97075 175
143.03615 215
143.04814 209
154.03249 146
154.04211 144
164.01263 139
164.02238 139
182.02586 311
182.04196 276
200.99359 7228
201.99074 464
201.99945 487
202.01147 438
465.09671 721
465.13016 114
Name: Glutamine
PrecursorMZ: 291.1298
PrecursorType: [2M-H]-
IonMode: Negative
Formula: C5H10N2O3
SMILES: C(CC(=O)N)C(C(=O)O)N
InChI: 
InChIKey: ZDXPYRJPNDTMRX-VKHMYHEASA-N
RetentionTime: 0.7263
CCS: 
CollisionEnergy: 20-40 eV
InstrumentType: UPLC-QTOF-MS
Comment: PI: Cristina Nerin; Data collector: QiZhi Su, GUIA, University of Zaragoza, Spain; Collision energy: 20-40 V; Instrument: Waters HPLC-QTOF-MS (Xevo G2 QTof); Ionization: ESI; Deconvoluted by MS-DIAL; Column: Waters AtlantisTM premier BEH C18 AX column (2.1 × 100mm x 1.7μm); Flow rate: 0.3mL/min; Mobile phase A and B are water and methnaol, respectively, both with 0.1% formic acid; Gradient elution: from A/B (95/5) to A/B (100/0) in 7min, kept for 4 min, then back to A/B (95/5) in 0.1 min, and maintained for additional 1.9 min (13min in total).; Injection volume: 10 μL
Num peaks: 17
74.02091 140
74.02663 140
84.0451 227
109.03625 411
127.04762 1278
127.05771 1282
128.03406 434
128.04346 447
145.05998 6916
146.0504 332
146.06236 360
199.97701 121
199.99283 121
277.09674 80
281.03787 82
281.0502 76
291.12958 7574
Name: Benfotiamine
PrecursorMZ: 931.2111
PrecursorType: [2M-H]-
IonMode: Negative
Formula: C19H23N4O6PS
SMILES: CC1=NC=C(C(=N1)N)CN(C=O)C(=C(CCOP(=O)(O)O)SC(=O)C2=CC=CC=C2)C
InChI: 
InChIKey: BTNNPSLJPBRMLZ-LGMDPLHJSA-N
RetentionTime: 4.205567
CCS: 
CollisionEnergy: 20-40 eV
InstrumentType: UPLC-QTOF-MS
Comment: PI: Cristina Nerin; Data collector: QiZhi Su, GUIA, University of Zaragoza, Spain; Collision energy: 20-40 V; Instrument: Waters HPLC-QTOF-MS (Xevo G2 QTof); Ionization: ESI; Deconvoluted by MS-DIAL; Column: Waters AtlantisTM premier BEH C18 AX column (2.1 × 100mm x 1.7μm); Flow rate: 0.3mL/min; Mobile phase A and B are water and methnaol, respectively, both with 0.1% formic acid; Gradient elution: from A/B (95/5) to A/B (100/0) in 7min, kept for 4 min, then back to A/B (95/5) in 0.1 min, and maintained for additional 1.9 min (13min in total).; Injection volume: 10 μL
Num peaks: 19
78.95763 10389
96.96015 179
96.96691 180
143.03877 212
143.05141 214
154.03305 146
164.00839 128
164.02029 138
182.0247 310
182.03432 318
200.9931 7228
201.99489 489
202.00784 480
203.0036 108
343.05664 105
465.09961 741
466.11078 133
931.20776 574
931.23022 222
Name: Pinosylvin
PrecursorMZ: 423.159
PrecursorType: [2M-H]-
IonMode: Negative
Formula: C14H12O2
SMILES: C1=CC=C(C=C1)C=CC2=CC(=CC(=C2)O)O
InChI: 
InChIKey: YCVPRTHEGLPYPB-VOTSOKGWSA-N
RetentionTime: 6.457517
CCS: 
CollisionEnergy: 20-40 eV
InstrumentType: UPLC-QTOF-MS
Comment: PI: Cristina Nerin; Data collector: QiZhi Su, GUIA, University of Zaragoza, Spain; Collision energy: 20-40 V; Instrument: Waters HPLC-QTOF-MS (Xevo G2 QTof); Ionization: ESI; Deconvoluted by MS-DIAL; Column: Waters AtlantisTM premier BEH C18 AX column (2.1 × 100mm x 1.7μm); Flow rate: 0.3mL/min; Mobile phase A and B are water and methnaol, respectively, both with 0.1% formic acid; Gradient elution: from A/B (95/5) to A/B (100/0) in 7min, kept for 4 min, then back to A/B (95/5) in 0.1 min, and maintained for additional 1.9 min (13min in total).; Injection volume: 10 μL
Num peaks: 10
165.06967 776
165.07941 752
167.08339 2348
167.092 2338
169.06377 7649
170.06798 878
211.07452 37489
212.07877 4777
213.07971 378
423.15924 10207
Name: Pinosylvin
PrecursorMZ: 211.0742
PrecursorType: [M-H]-
IonMode: Negative
Formula: C14H12O2
SMILES: C1=CC=C(C=C1)C=CC2=CC(=CC(=C2)O)O
InChI: 
InChIKey: YCVPRTHEGLPYPB-VOTSOKGWSA-N
RetentionTime: 6.465133
CCS: 
CollisionEnergy: 20-40 eV
InstrumentType: UPLC-QTOF-MS
Comment: PI: Cristina Nerin; Data collector: QiZhi Su, GUIA, University of Zaragoza, Spain; Collision energy: 20-40 V; Instrument: Waters HPLC-QTOF-MS (Xevo G2 QTof); Ionization: ESI; Deconvoluted by MS-DIAL; Column: Waters AtlantisTM premier BEH C18 AX column (2.1 × 100mm x 1.7μm); Flow rate: 0.3mL/min; Mobile phase A and B are water and methnaol, respectively, both with 0.1% formic acid; Gradient elution: from A/B (95/5) to A/B (100/0) in 7min, kept for 4 min, then back to A/B (95/5) in 0.1 min, and maintained for additional 1.9 min (13min in total).; Injection volume: 10 μL
Num peaks: 12
101.03837 361
101.04887 371
165.06267 769
165.06888 777
167.06758 1865
167.08504 2348
167.10101 2172
169.06392 7649
170.05188 782
170.06673 878
170.07861 877
211.07391 33442
Name: Chlormadinone acetate
PrecursorMZ: 403.167
PrecursorType: [M-H]-
IonMode: Negative
Formula: C23H29ClO4
SMILES: CC(=O)C1(CCC2C1(CCC3C2C=C(C4=CC(=O)CCC34C)Cl)C)OC(=O)C
InChI: 
InChIKey: QMBJSIBWORFWQT-DFXBJWIESA-N
RetentionTime: 7.315067
CCS: 
CollisionEnergy: 20-40 eV
InstrumentType: UPLC-QTOF-MS
Comment: PI: Cristina Nerin; Data collector: QiZhi Su, GUIA, University of Zaragoza, Spain; Collision energy: 20-40 V; Instrument: Waters HPLC-QTOF-MS (Xevo G2 QTof); Ionization: ESI; Deconvoluted by MS-DIAL; Column: Waters AtlantisTM premier BEH C18 AX column (2.1 × 100mm x 1.7μm); Flow rate: 0.3mL/min; Mobile phase A and B are water and methnaol, respectively, both with 0.1% formic acid; Gradient elution: from A/B (95/5) to A/B (100/0) in 7min, kept for 4 min, then back to A/B (95/5) in 0.1 min, and maintained for additional 1.9 min (13min in total).; Injection volume: 10 μL
Num peaks: 275
51.9007 30
53.16438 20
58.9579 44
61.11937 23
63.55603 50
63.80268 20
64.79575 34
64.8208 48
65.53305 60
67.28233 24
68.10637 24
68.27345 29
68.35049 19
68.44643 20
68.56448 23
69.19122 22
69.74093 20
69.80038 63
69.8653 42
70.33974 22
83.02232 74
83.04622 23
83.93878 20
86.22077 73
86.98293 42
87.98746 59
88.99151 20
89.02373 24
89.97779 20
91.00361 283
92.04731 20
96.1593 20
96.96011 22
96.967 32
97.06456 37
101.92873 29
102.94945 28
103.07648 20
105.20649 34
106.01881 30
106.76317 46
107.31803 45
107.66742 27
109.31924 38
109.80162 32
110.99719 27
111.04492 39
111.08544 21
111.62091 43
112.98328 156
113.02057 24
114.95413 22
115.04681 25
117.01738 20
117.0561 20
118.99371 227
119.59542 25
119.95173 19
120.04909 39
120.51598 43
121.02841 21
122.03091 37
123.08288 21
124.08352 33
125.03626 29
127.98724 30
128.03117 20
128.03979 66
128.95267 81
130.99704 24
134.91646 22
137.02925 25
137.05029 25
137.18082 22
138.08209 36
139.87502 20
140.12093 25
142.94167 20
143.04279 34
143.04921 24
143.05766 23
145.02533 23
146.93755 22
148.936 33
149.04637 23
149.67618 21
150.02304 39
150.03125 21
150.05814 29
151.06282 24
153.12074 41
154.72049 55
155.1004 35
157.05392 24
159.03162 20
159.12894 20
160.03427 71
162.94287 20
163.0779 84
163.18002 43
164.01624 37
165.12465 24
168.14067 42
168.98135 412
168.98958 605
169.97868 29
173.02429 43
173.09735 22
173.37186 25
173.48376 29
174.94374 26
174.95694 53
180.00444 25
181.15022 20
181.16006 26
182.03107 30
183.01035 101
183.02097 51
183.03792 28
183.21822 60
183.7338 20
184.37889 67
186.05814 40
187.0475 52
187.09724 68
187.94017 20
188.08171 30
188.94321 24
190.93027 112
192.11032 24
193.15587 31
193.24823 33
195.02728 22
195.90962 41
197.02803 23
199.16656 26
203.09471 57
203.89903 20
205.64763 20
209.14735 23
211.07741 23
212.07974 29
215.24161 44
218.96529 23
218.97688 148
218.98895 312
219.00659 40
219.98076 44
221.07213 28
222.87256 23
225.14751 20
226.07378 19
227.10608 20
234.14928 22
235.92253 57
239.02534 30
240.00638 32
243.12962 30
243.16919 36
245.15195 98
249.15704 34
250.12154 19
252.04672 53
252.67334 67
253.05042 33
253.17506 22
254.11649 22
255.16806 24
255.19057 20
255.23247 23
258.60172 19
259.8829 37
268.94077 48
268.97894 302
270.07367 36
271.09592 22
273.20145 20
273.22101 24
273.92892 21
275.17212 33
276.02475 20
277.6604 23
279.17432 30
279.21841 19
279.23227 19
280.99103 20
281.09818 22
281.25427 34
285.02673 21
285.04416 23
285.19638 23
287.07306 32
287.181 54
288.23203 36
288.54742 19
289.09256 21
291.19641 22
294.58762 31
295.06888 94
295.12271 48
299.05051 29
299.20386 33
303.06387 24
309.20834 26
310.79242 35
311.04489 23
311.06934 32
311.15897 140
311.1817 26
313.10815 33
313.21982 19
318.97336 80
319.1619 27
319.98651 39
320.76077 26
320.96957 37
321.05157 28
324.13739 119
325.17252 30
325.19879 28
327.0853 20
327.10123 43
328.00076 24
328.12259 186
328.1377 25
329.04126 31
329.13876 30
330.11295 37
331.11768 23
331.19354 40
335.189 21
336.00497 31
339.22818 63
341.17249 25
343.13895 198
343.16525 45
344.14902 77
345.14792 45
345.18597 36
351.08682 22
352.07928 20
355.71246 36
358.28339 27
359.14618 19
359.98044 21
362.7688 34
365.1687 20
366.48544 55
369.01242 37
372.4996 23
374.07474 22
375.10883 20
377.2674 148
378.27521 174
378.3071 25
381.134 31
381.16602 21
381.24811 33
381.71021 33
382.60074 19
383.33118 23
385.19397 20
386.11737 21
387.09894 21
387.28345 19
388.21933 25
391.27216 41
395.142 21
396.20361 21
397.23373 22
400.25781 20
401.23605 20
401.62396 27
403.15784 278
403.17807 586
Name: Chlormadinone acetate
PrecursorMZ: 449.1716
PrecursorType: [M+FA-H]-
IonMode: Negative
Formula: C23H29ClO4
SMILES: CC(=O)C1(CCC2C1(CCC3C2C=C(C4=CC(=O)CCC34C)Cl)C)OC(=O)C
InChI: 
InChIKey: QMBJSIBWORFWQT-DFXBJWIESA-N
RetentionTime: 7.315067
CCS: 
CollisionEnergy: 20-40 eV
InstrumentType: UPLC-QTOF-MS
Comment: PI: Cristina Nerin; Data collector: QiZhi Su, GUIA, University of Zaragoza, Spain; Collision energy: 20-40 V; Instrument: Waters HPLC-QTOF-MS (Xevo G2 QTof); Ionization: ESI; Deconvoluted by MS-DIAL; Column: Waters AtlantisTM premier BEH C18 AX column (2.1 × 100mm x 1.7μm); Flow rate: 0.3mL/min; Mobile phase A and B are water and methnaol, respectively, both with 0.1% formic acid; Gradient elution: from A/B (95/5) to A/B (100/0) in 7min, kept for 4 min, then back to A/B (95/5) in 0.1 min, and maintained for additional 1.9 min (13min in total).; Injection volume: 10 μL
Num peaks: 8
168.98135 155
168.98958 150
328.12259 149
403.15784 405
403.17807 578
404.17316 185
405.16742 215
449.173 13100
Name: pyritinol
PrecursorMZ: 367.0777
PrecursorType: [M-H]-
IonMode: Negative
Formula: C16H20N2O4S2
SMILES: CC1=NC=C(C(=C1O)CO)CSSCC2=CN=C(C(=C2CO)O)C
InChI: 
InChIKey: SIXLXDIJGIWWFU-UHFFFAOYSA-N
RetentionTime: 0.8443167
CCS: 
CollisionEnergy: 20-40 eV
InstrumentType: UPLC-QTOF-MS
Comment: PI: Cristina Nerin; Data collector: QiZhi Su, GUIA, University of Zaragoza, Spain; Collision energy: 20-40 V; Instrument: Waters HPLC-QTOF-MS (Xevo G2 QTof); Ionization: ESI; Deconvoluted by MS-DIAL; Column: Waters AtlantisTM premier BEH C18 AX column (2.1 × 100mm x 1.7μm); Flow rate: 0.3mL/min; Mobile phase A and B are water and methnaol, respectively, both with 0.1% formic acid; Gradient elution: from A/B (95/5) to A/B (100/0) in 7min, kept for 4 min, then back to A/B (95/5) in 0.1 min, and maintained for additional 1.9 min (13min in total).; Injection volume: 10 μL
Num peaks: 95
120.03722 1654
120.04422 1688
121.04411 497
121.05254 498
122.05859 1065
148.03796 1876
149.03534 446
149.0471 448
150.0535 3862
151.05284 379
151.06163 377
152.01465 298
154.02994 3544
154.03667 3559
155.02782 258
155.03719 266
156.0295 151
156.03975 153
164.00626 2181
164.01692 2192
165.0173 295
165.02646 317
166.03174 3297
167.03214 319
167.04349 309
168.02687 179
180.01028 1209
181.0159 629
181.03288 646
182.02672 12919
183.01164 664
183.02184 893
183.02837 881
183.03696 855
184.01517 508
184.03685 1845
184.05368 1643
185.02383 154
185.0397 195
185.05006 202
198.00456 326
212.99072 350
216.0098 571
216.01869 570
216.03394 198
223.0437 202
223.0844 163
238.07401 322
239.07375 175
239.0826 175
241.99878 441
242.01015 528
251.07268 572
251.08621 591
252.07686 240
252.08812 251
253.08325 585
253.09833 604
255.10823 233
263.08557 263
264.0694 177
281.09244 2656
282.08926 383
282.11459 250
283.10538 131
285.06702 766
287.07239 138
287.08881 161
296.04242 134
297.077 217
310.1037 157
310.11786 209
310.12747 195
311.11414 487
311.13074 478
315.08084 2444
316.0639 173
316.08441 431
316.09869 412
317.06732 196
317.07764 186
319.05707 913
320.061 154
331.05939 211
341.07718 279
342.06998 246
342.08594 273
342.10593 195
343.0929 623
344.09534 228
349.06757 3285
350.06641 575
351.05658 294
351.07413 321
367.07617 8211
Name: L-(+)-Tartaric acid
PrecursorMZ: 149.0062
PrecursorType: [M-H]-
IonMode: Negative
Formula: C4H6O6
SMILES: C(C(C(=O)O)O)(C(=O)O)O
InChI: 
InChIKey: FEWJPZIEWOKRBE-JCYAYHJZSA-N
RetentionTime: 3.023967
CCS: 
CollisionEnergy: 20-40 eV
InstrumentType: UPLC-QTOF-MS
Comment: PI: Cristina Nerin; Data collector: QiZhi Su, GUIA, University of Zaragoza, Spain; Collision energy: 20-40 V; Instrument: Waters HPLC-QTOF-MS (Xevo G2 QTof); Ionization: ESI; Deconvoluted by MS-DIAL; Column: Waters AtlantisTM premier BEH C18 AX column (2.1 × 100mm x 1.7μm); Flow rate: 0.3mL/min; Mobile phase A and B are water and methnaol, respectively, both with 0.1% formic acid; Gradient elution: from A/B (95/5) to A/B (100/0) in 7min, kept for 4 min, then back to A/B (95/5) in 0.1 min, and maintained for additional 1.9 min (13min in total).; Injection volume: 10 μL
Num peaks: 32
51.80983 24
52.35553 49
59.01321 22
62.0211 38
67.46651 21
72.99004 340
73.00236 21
75.00407 25
83.04855 22
87.00914 539
87.6184 31
88.01814 79
89.69462 20
96.90284 23
96.95815 24
97.16019 37
102.01419 20
102.99609 32
103.00775 47
103.95007 27
112.97455 57
112.9913 41
113.00964 26
115.02923 26
131.95105 20
139.95758 58
140.99725 25
142.96487 26
147.01302 22
148.99321 64
149.00497 413
149.01553 63
Name: L-(+)-Tartaric acid
PrecursorMZ: 149.0059
PrecursorType: [M-H]-
IonMode: Negative
Formula: C4H6O6
SMILES: C(C(C(=O)O)O)(C(=O)O)O
InChI: 
InChIKey: FEWJPZIEWOKRBE-JCYAYHJZSA-N
RetentionTime: 3.1006
CCS: 
CollisionEnergy: 20-40 eV
InstrumentType: UPLC-QTOF-MS
Comment: PI: Cristina Nerin; Data collector: QiZhi Su, GUIA, University of Zaragoza, Spain; Collision energy: 20-40 V; Instrument: Waters HPLC-QTOF-MS (Xevo G2 QTof); Ionization: ESI; Deconvoluted by MS-DIAL; Column: Waters AtlantisTM premier BEH C18 AX column (2.1 × 100mm x 1.7μm); Flow rate: 0.3mL/min; Mobile phase A and B are water and methnaol, respectively, both with 0.1% formic acid; Gradient elution: from A/B (95/5) to A/B (100/0) in 7min, kept for 4 min, then back to A/B (95/5) in 0.1 min, and maintained for additional 1.9 min (13min in total).; Injection volume: 10 μL
Num peaks: 32
51.62725 41
59.01088 20
59.01868 32
72.99223 361
73.79502 23
83.93189 24
86.99496 38
87.00721 421
87.02373 23
88.01408 34
88.84856 26
96.95512 21
99.92038 22
102.92934 34
102.99828 26
103.01347 31
111.90967 96
113.00285 21
113.93915 71
114.94799 20
120.93352 50
126.96768 20
130.93927 21
130.99812 21
137.0063 24
137.01547 40
137.95779 25
141.93393 46
142.94685 20
144.94629 20
149.00821 641
149.0226 64
Name: 4-nitro-phenol
PrecursorMZ: 138.0169
PrecursorType: [M-H]-
IonMode: Negative
Formula: C6H5NO3
SMILES: C1=CC(=CC=C1[N+](=O)[O-])O
InChI: 
InChIKey: BTJIUGUIPKRLHP-UHFFFAOYSA-N
RetentionTime: 5.302983
CCS: 
CollisionEnergy: 20-40 eV
InstrumentType: UPLC-QTOF-MS
Comment: PI: Cristina Nerin; Data collector: QiZhi Su, GUIA, University of Zaragoza, Spain; Collision energy: 20-40 V; Instrument: Waters HPLC-QTOF-MS (Xevo G2 QTof); Ionization: ESI; Deconvoluted by MS-DIAL; Column: Waters AtlantisTM premier BEH C18 AX column (2.1 × 100mm x 1.7μm); Flow rate: 0.3mL/min; Mobile phase A and B are water and methnaol, respectively, both with 0.1% formic acid; Gradient elution: from A/B (95/5) to A/B (100/0) in 7min, kept for 4 min, then back to A/B (95/5) in 0.1 min, and maintained for additional 1.9 min (13min in total).; Injection volume: 10 μL
Num peaks: 6
92.02475 1620
93.0322 118
108.01896 10224
109.02296 616
120.04447 187
138.01729 6899
Name: 4-nitro-phenol
PrecursorMZ: 138.0167
PrecursorType: [M-H]-
IonMode: Negative
Formula: C6H5NO3
SMILES: C1=CC(=CC=C1[N+](=O)[O-])O
InChI: 
InChIKey: BTJIUGUIPKRLHP-UHFFFAOYSA-N
RetentionTime: 5.375317
CCS: 
CollisionEnergy: 20-40 eV
InstrumentType: UPLC-QTOF-MS
Comment: PI: Cristina Nerin; Data collector: QiZhi Su, GUIA, University of Zaragoza, Spain; Collision energy: 20-40 V; Instrument: Waters HPLC-QTOF-MS (Xevo G2 QTof); Ionization: ESI; Deconvoluted by MS-DIAL; Column: Waters AtlantisTM premier BEH C18 AX column (2.1 × 100mm x 1.7μm); Flow rate: 0.3mL/min; Mobile phase A and B are water and methnaol, respectively, both with 0.1% formic acid; Gradient elution: from A/B (95/5) to A/B (100/0) in 7min, kept for 4 min, then back to A/B (95/5) in 0.1 min, and maintained for additional 1.9 min (13min in total).; Injection volume: 10 μL
Num peaks: 6
92.02453 614
108.01904 4803
108.03666 4805
109.02338 189
138.01671 7046
138.03766 170
Name: Fluorescein
PrecursorMZ: 331.0589
PrecursorType: [M-H]-
IonMode: Negative
Formula: C20H12O5
SMILES: C1=CC=C2C(=C1)C(=O)OC23C4=C(C=C(C=C4)O)OC5=C3C=CC(=C5)O
InChI: 
InChIKey: GNBHRKFJIUUOQI-UHFFFAOYSA-N
RetentionTime: 6.4194
CCS: 
CollisionEnergy: 20-40 eV
InstrumentType: UPLC-QTOF-MS
Comment: PI: Cristina Nerin; Data collector: QiZhi Su, GUIA, University of Zaragoza, Spain; Collision energy: 20-40 V; Instrument: Waters HPLC-QTOF-MS (Xevo G2 QTof); Ionization: ESI; Deconvoluted by MS-DIAL; Column: Waters AtlantisTM premier BEH C18 AX column (2.1 × 100mm x 1.7μm); Flow rate: 0.3mL/min; Mobile phase A and B are water and methnaol, respectively, both with 0.1% formic acid; Gradient elution: from A/B (95/5) to A/B (100/0) in 7min, kept for 4 min, then back to A/B (95/5) in 0.1 min, and maintained for additional 1.9 min (13min in total).; Injection volume: 10 μL
Num peaks: 5
243.07893 3436
285.05249 8507
286.061 33038
287.06805 13158
331.0593 275178
Name: Fluorescein
PrecursorMZ: 663.1295
PrecursorType: [2M-H]-
IonMode: Negative
Formula: C20H12O5
SMILES: C1=CC=C2C(=C1)C(=O)OC23C4=C(C=C(C=C4)O)OC5=C3C=CC(=C5)O
InChI: 
InChIKey: GNBHRKFJIUUOQI-UHFFFAOYSA-N
RetentionTime: 6.4194
CCS: 
CollisionEnergy: 20-40 eV
InstrumentType: UPLC-QTOF-MS
Comment: PI: Cristina Nerin; Data collector: QiZhi Su, GUIA, University of Zaragoza, Spain; Collision energy: 20-40 V; Instrument: Waters HPLC-QTOF-MS (Xevo G2 QTof); Ionization: ESI; Deconvoluted by MS-DIAL; Column: Waters AtlantisTM premier BEH C18 AX column (2.1 × 100mm x 1.7μm); Flow rate: 0.3mL/min; Mobile phase A and B are water and methnaol, respectively, both with 0.1% formic acid; Gradient elution: from A/B (95/5) to A/B (100/0) in 7min, kept for 4 min, then back to A/B (95/5) in 0.1 min, and maintained for additional 1.9 min (13min in total).; Injection volume: 10 μL
Num peaks: 8
243.07893 3436
285.05249 8507
286.061 33038
287.06805 13158
331.0593 273510
332.06244 52410
333.0647 5712
663.12952 19914
Name: Vitamin B6
PrecursorMZ: 337.1371
PrecursorType: [2M-H]-
IonMode: Negative
Formula: C8H11NO3
SMILES: CC1=NC=C(C(=C1O)CO)CO
InChI: 
InChIKey: LXNHXLLTXMVWPM-UHFFFAOYSA-N
RetentionTime: 0.6159334
CCS: 
CollisionEnergy: 20-40 eV
InstrumentType: UPLC-QTOF-MS
Comment: PI: Cristina Nerin; Data collector: QiZhi Su, GUIA, University of Zaragoza, Spain; Collision energy: 20-40 V; Instrument: Waters HPLC-QTOF-MS (Xevo G2 QTof); Ionization: ESI; Deconvoluted by MS-DIAL; Column: Waters AtlantisTM premier BEH C18 AX column (2.1 × 100mm x 1.7μm); Flow rate: 0.3mL/min; Mobile phase A and B are water and methnaol, respectively, both with 0.1% formic acid; Gradient elution: from A/B (95/5) to A/B (100/0) in 7min, kept for 4 min, then back to A/B (95/5) in 0.1 min, and maintained for additional 1.9 min (13min in total).; Injection volume: 10 μL
Num peaks: 45
80.04478 54
90.99509 38
90.9999 38
92.04031 298
92.04723 304
92.05365 304
94.06313 47
94.06824 47
107.03282 998
107.03905 998
108.04239 2391
108.05376 2392
109.04382 197
109.04955 197
120.03661 129
120.0436 129
121.03699 1154
121.04946 1189
121.06079 1180
122.05894 3686
123.02225 57
123.05215 264
123.06482 263
135.02734 209
136.03928 124
138.05489 992
139.05391 65
139.06787 60
148.03748 53
149.03577 45
150.05304 3200
151.04649 340
151.05296 355
151.06703 333
152.06219 39
166.04651 831
167.05069 94
168.06285 2777
169.06111 256
169.07072 256
170.06516 41
170.07312 41
239.9939 92
240.00668 86
337.13589 750
Name: Fluorescein
PrecursorMZ: 331.0588
PrecursorType: [M-H]-
IonMode: Negative
Formula: C20H12O5
SMILES: C1=CC=C2C(=C1)C(=O)OC23C4=C(C=C(C=C4)O)OC5=C3C=CC(=C5)O
InChI: 
InChIKey: GNBHRKFJIUUOQI-UHFFFAOYSA-N
RetentionTime: 6.4765
CCS: 
CollisionEnergy: 20-40 eV
InstrumentType: UPLC-QTOF-MS
Comment: PI: Cristina Nerin; Data collector: QiZhi Su, GUIA, University of Zaragoza, Spain; Collision energy: 20-40 V; Instrument: Waters HPLC-QTOF-MS (Xevo G2 QTof); Ionization: ESI; Deconvoluted by MS-DIAL; Column: Waters AtlantisTM premier BEH C18 AX column (2.1 × 100mm x 1.7μm); Flow rate: 0.3mL/min; Mobile phase A and B are water and methnaol, respectively, both with 0.1% formic acid; Gradient elution: from A/B (95/5) to A/B (100/0) in 7min, kept for 4 min, then back to A/B (95/5) in 0.1 min, and maintained for additional 1.9 min (13min in total).; Injection volume: 10 μL
Num peaks: 9
243.07787 2537
259.07297 1159
259.09351 1228
285.0538 7435
286.06073 16916
287.06726 8113
288.06287 1419
288.07419 1432
331.05902 72376
Name: Vitamin B6
PrecursorMZ: 168.0634
PrecursorType: [M-H]-
IonMode: Negative
Formula: C8H11NO3
SMILES: CC1=NC=C(C(=C1O)CO)CO
InChI: 
InChIKey: LXNHXLLTXMVWPM-UHFFFAOYSA-N
RetentionTime: 0.6197333
CCS: 
CollisionEnergy: 20-40 eV
InstrumentType: UPLC-QTOF-MS
Comment: PI: Cristina Nerin; Data collector: QiZhi Su, GUIA, University of Zaragoza, Spain; Collision energy: 20-40 V; Instrument: Waters HPLC-QTOF-MS (Xevo G2 QTof); Ionization: ESI; Deconvoluted by MS-DIAL; Column: Waters AtlantisTM premier BEH C18 AX column (2.1 × 100mm x 1.7μm); Flow rate: 0.3mL/min; Mobile phase A and B are water and methnaol, respectively, both with 0.1% formic acid; Gradient elution: from A/B (95/5) to A/B (100/0) in 7min, kept for 4 min, then back to A/B (95/5) in 0.1 min, and maintained for additional 1.9 min (13min in total).; Injection volume: 10 μL
Num peaks: 22
90.99411 63
94.06453 44
107.03545 350
108.0425 180
109.04099 214
109.04719 217
121.05 244
122.05867 3622
122.07263 88
123.05234 55
123.06922 37
135.02982 84
136.0343 92
139.04353 46
139.0585 73
150.05193 3211
150.06503 550
151.05594 299
167.04532 99
167.05231 99
168.04492 43
168.06425 2900
Name: Thymol iodide
PrecursorMZ: 548.9771
PrecursorType: [M-H]-
IonMode: Negative
Formula: C20H24I2O2
SMILES: CC1=CC(=C(C=C1C2=CC(=C(C=C2C)OI)C(C)C)C(C)C)OI
InChI: 
InChIKey: SHOKWSLXDAIZPP-UHFFFAOYSA-N
RetentionTime: 8.75185
CCS: 
CollisionEnergy: 20-40 eV
InstrumentType: UPLC-QTOF-MS
Comment: PI: Cristina Nerin; Data collector: QiZhi Su, GUIA, University of Zaragoza, Spain; Collision energy: 20-40 V; Instrument: Waters HPLC-QTOF-MS (Xevo G2 QTof); Ionization: ESI; Deconvoluted by MS-DIAL; Column: Waters AtlantisTM premier BEH C18 AX column (2.1 × 100mm x 1.7μm); Flow rate: 0.3mL/min; Mobile phase A and B are water and methnaol, respectively, both with 0.1% formic acid; Gradient elution: from A/B (95/5) to A/B (100/0) in 7min, kept for 4 min, then back to A/B (95/5) in 0.1 min, and maintained for additional 1.9 min (13min in total).; Injection volume: 10 μL
Num peaks: 5
126.90178 389
126.92026 412
289.98874 327
290.01416 325
548.97772 30562
Name: Thymol iodide
PrecursorMZ: 1098.969
PrecursorType: [2M-H]-
IonMode: Negative
Formula: C20H24I2O2
SMILES: CC1=CC(=C(C=C1C2=CC(=C(C=C2C)OI)C(C)C)C(C)C)OI
InChI: 
InChIKey: SHOKWSLXDAIZPP-UHFFFAOYSA-N
RetentionTime: 8.75185
CCS: 
CollisionEnergy: 20-40 eV
InstrumentType: UPLC-QTOF-MS
Comment: PI: Cristina Nerin; Data collector: QiZhi Su, GUIA, University of Zaragoza, Spain; Collision energy: 20-40 V; Instrument: Waters HPLC-QTOF-MS (Xevo G2 QTof); Ionization: ESI; Deconvoluted by MS-DIAL; Column: Waters AtlantisTM premier BEH C18 AX column (2.1 × 100mm x 1.7μm); Flow rate: 0.3mL/min; Mobile phase A and B are water and methnaol, respectively, both with 0.1% formic acid; Gradient elution: from A/B (95/5) to A/B (100/0) in 7min, kept for 4 min, then back to A/B (95/5) in 0.1 min, and maintained for additional 1.9 min (13min in total).; Injection volume: 10 μL
Num peaks: 9
126.90178 388
126.92026 411
289.98874 327
290.01416 325
548.97772 29917
549.98169 3613
550.9884 314
551.01428 358
845.14899 764
Name: Chlorothiazide
PrecursorMZ: 588.889
PrecursorType: [2M-H]-
IonMode: Negative
Formula: C7H6ClN3O4S2
SMILES: C1=C2C(=CC(=C1Cl)S(=O)(=O)N)S(=O)(=O)N=CN2
InChI: 
InChIKey: JBMKAUGHUNFTOL-UHFFFAOYSA-N
RetentionTime: 1.015633
CCS: 
CollisionEnergy: 20-40 eV
InstrumentType: UPLC-QTOF-MS
Comment: PI: Cristina Nerin; Data collector: QiZhi Su, GUIA, University of Zaragoza, Spain; Collision energy: 20-40 V; Instrument: Waters HPLC-QTOF-MS (Xevo G2 QTof); Ionization: ESI; Deconvoluted by MS-DIAL; Column: Waters AtlantisTM premier BEH C18 AX column (2.1 × 100mm x 1.7μm); Flow rate: 0.3mL/min; Mobile phase A and B are water and methnaol, respectively, both with 0.1% formic acid; Gradient elution: from A/B (95/5) to A/B (100/0) in 7min, kept for 4 min, then back to A/B (95/5) in 0.1 min, and maintained for additional 1.9 min (13min in total).; Injection volume: 10 μL
Num peaks: 20
178.98933 2572
213.95795 21222
213.98848 21219
213.99794 21224
214.96454 5299
214.99101 5300
215.95532 7080
215.98846 7089
216.96097 2008
216.98038 2004
293.93896 64175
293.98096 64209
294.94168 4924
294.98431 4934
295.93588 23960
296.93686 1806
296.95016 1808
297.93094 1599
297.96344 1598
588.89368 882
Name: Chlorothiazide
PrecursorMZ: 293.9396
PrecursorType: [M-H]-
IonMode: Negative
Formula: C7H6ClN3O4S2
SMILES: C1=C2C(=CC(=C1Cl)S(=O)(=O)N)S(=O)(=O)N=CN2
InChI: 
InChIKey: JBMKAUGHUNFTOL-UHFFFAOYSA-N
RetentionTime: 2.734533
CCS: 
CollisionEnergy: 20-40 eV
InstrumentType: UPLC-QTOF-MS
Comment: PI: Cristina Nerin; Data collector: QiZhi Su, GUIA, University of Zaragoza, Spain; Collision energy: 20-40 V; Instrument: Waters HPLC-QTOF-MS (Xevo G2 QTof); Ionization: ESI; Deconvoluted by MS-DIAL; Column: Waters AtlantisTM premier BEH C18 AX column (2.1 × 100mm x 1.7μm); Flow rate: 0.3mL/min; Mobile phase A and B are water and methnaol, respectively, both with 0.1% formic acid; Gradient elution: from A/B (95/5) to A/B (100/0) in 7min, kept for 4 min, then back to A/B (95/5) in 0.1 min, and maintained for additional 1.9 min (13min in total).; Injection volume: 10 μL
Num peaks: 9
178.98918 641
213.95869 6104
214.96593 1530
215.95538 1861
215.98117 1857
216.93442 451
216.95456 458
216.96754 458
293.93896 26588
Name: Chlorothiazide
PrecursorMZ: 588.8907
PrecursorType: [2M-H]-
IonMode: Negative
Formula: C7H6ClN3O4S2
SMILES: C1=C2C(=CC(=C1Cl)S(=O)(=O)N)S(=O)(=O)N=CN2
InChI: 
InChIKey: JBMKAUGHUNFTOL-UHFFFAOYSA-N
RetentionTime: 2.734533
CCS: 
CollisionEnergy: 20-40 eV
InstrumentType: UPLC-QTOF-MS
Comment: PI: Cristina Nerin; Data collector: QiZhi Su, GUIA, University of Zaragoza, Spain; Collision energy: 20-40 V; Instrument: Waters HPLC-QTOF-MS (Xevo G2 QTof); Ionization: ESI; Deconvoluted by MS-DIAL; Column: Waters AtlantisTM premier BEH C18 AX column (2.1 × 100mm x 1.7μm); Flow rate: 0.3mL/min; Mobile phase A and B are water and methnaol, respectively, both with 0.1% formic acid; Gradient elution: from A/B (95/5) to A/B (100/0) in 7min, kept for 4 min, then back to A/B (95/5) in 0.1 min, and maintained for additional 1.9 min (13min in total).; Injection volume: 10 μL
Num peaks: 20
178.98918 641
213.95869 6104
214.96593 1530
215.95538 1861
215.98117 1857
216.93442 451
216.95456 458
216.96754 458
293.88998 21793
293.93896 16733
293.98154 16732
294.91901 1345
294.94318 1367
295.93604 6247
295.96646 6261
296.93185 433
296.9451 435
297.92401 490
297.93814 490
588.88959 353
Name: Citric acid
PrecursorMZ: 191.0171
PrecursorType: [M-H]-
IonMode: Negative
Formula: C6H8O7
SMILES: C(C(=O)O)C(CC(=O)O)(C(=O)O)O
InChI: 
InChIKey: KRKNYBCHXYNGOX-UHFFFAOYSA-N
RetentionTime: 3.57305
CCS: 
CollisionEnergy: 20-40 eV
InstrumentType: UPLC-QTOF-MS
Comment: PI: Cristina Nerin; Data collector: QiZhi Su, GUIA, University of Zaragoza, Spain; Collision energy: 20-40 V; Instrument: Waters HPLC-QTOF-MS (Xevo G2 QTof); Ionization: ESI; Deconvoluted by MS-DIAL; Column: Waters AtlantisTM premier BEH C18 AX column (2.1 × 100mm x 1.7μm); Flow rate: 0.3mL/min; Mobile phase A and B are water and methnaol, respectively, both with 0.1% formic acid; Gradient elution: from A/B (95/5) to A/B (100/0) in 7min, kept for 4 min, then back to A/B (95/5) in 0.1 min, and maintained for additional 1.9 min (13min in total).; Injection volume: 10 μL
Num peaks: 26
55.4258 87
57.03616 60
67.01315 93
67.02103 102
85.02492 1211
85.03069 309
86.02603 60
86.36429 46
87.00678 2637
111.00607 3694
112.00836 186
128.95096 52
129.01378 39
129.02071 48
130.99944 45
155.95045 316
156.96193 54
165.99023 38
166.94531 52
169.92711 70
169.99878 97
172.50038 48
173.00899 65
184.97208 65
191.01678 1453
191.03407 155
Name: Propylparaben
PrecursorMZ: 179.0686
PrecursorType: [M-H]-
IonMode: Negative
Formula: C10H12O3
SMILES: CCCOC(=O)C1=CC=C(C=C1)O
InChI: 
InChIKey: QELSKZZBTMNZEB-UHFFFAOYSA-N
RetentionTime: 6.598367
CCS: 
CollisionEnergy: 20-40 eV
InstrumentType: UPLC-QTOF-MS
Comment: PI: Cristina Nerin; Data collector: QiZhi Su, GUIA, University of Zaragoza, Spain; Collision energy: 20-40 V; Instrument: Waters HPLC-QTOF-MS (Xevo G2 QTof); Ionization: ESI; Deconvoluted by MS-DIAL; Column: Waters AtlantisTM premier BEH C18 AX column (2.1 × 100mm x 1.7μm); Flow rate: 0.3mL/min; Mobile phase A and B are water and methnaol, respectively, both with 0.1% formic acid; Gradient elution: from A/B (95/5) to A/B (100/0) in 7min, kept for 4 min, then back to A/B (95/5) in 0.1 min, and maintained for additional 1.9 min (13min in total).; Injection volume: 10 μL
Num peaks: 13
91.00539 745
91.01608 745
91.0293 743
92.02426 44485
92.98717 12219
93.03128 12214
94.02591 674
94.03435 674
136.01294 4417
137.02177 3070
137.04266 3081
179.06155 556
179.07021 2093
Name: Clioquinol
PrecursorMZ: 303.9006
PrecursorType: [M-H]-
IonMode: Negative
Formula: C9H5ClINO
SMILES: C1=CC2=C(C(=C(C=C2Cl)I)O)N=C1
InChI: 
InChIKey: QCDFBFJGMNKBDO-UHFFFAOYSA-N
RetentionTime: 7.482633
CCS: 
CollisionEnergy: 20-40 eV
InstrumentType: UPLC-QTOF-MS
Comment: PI: Cristina Nerin; Data collector: QiZhi Su, GUIA, University of Zaragoza, Spain; Collision energy: 20-40 V; Instrument: Waters HPLC-QTOF-MS (Xevo G2 QTof); Ionization: ESI; Deconvoluted by MS-DIAL; Column: Waters AtlantisTM premier BEH C18 AX column (2.1 × 100mm x 1.7μm); Flow rate: 0.3mL/min; Mobile phase A and B are water and methnaol, respectively, both with 0.1% formic acid; Gradient elution: from A/B (95/5) to A/B (100/0) in 7min, kept for 4 min, then back to A/B (95/5) in 0.1 min, and maintained for additional 1.9 min (13min in total).; Injection volume: 10 μL
Num peaks: 16
87.00266 83
126.88185 2561
126.90184 2556
153.13478 49
179.077 46
183.05669 124
197.03549 59
213.9493 81
213.96558 81
224.12543 60
247.17375 762
247.18755 760
248.17107 95
255.23575 63
303.90131 4538
303.93027 92
Name: Clioquinol
PrecursorMZ: 303.901
PrecursorType: [M-H]-
IonMode: Negative
Formula: C9H5ClINO
SMILES: C1=CC2=C(C(=C(C=C2Cl)I)O)N=C1
InChI: 
InChIKey: QCDFBFJGMNKBDO-UHFFFAOYSA-N
RetentionTime: 7.532117
CCS: 
CollisionEnergy: 20-40 eV
InstrumentType: UPLC-QTOF-MS
Comment: PI: Cristina Nerin; Data collector: QiZhi Su, GUIA, University of Zaragoza, Spain; Collision energy: 20-40 V; Instrument: Waters HPLC-QTOF-MS (Xevo G2 QTof); Ionization: ESI; Deconvoluted by MS-DIAL; Column: Waters AtlantisTM premier BEH C18 AX column (2.1 × 100mm x 1.7μm); Flow rate: 0.3mL/min; Mobile phase A and B are water and methnaol, respectively, both with 0.1% formic acid; Gradient elution: from A/B (95/5) to A/B (100/0) in 7min, kept for 4 min, then back to A/B (95/5) in 0.1 min, and maintained for additional 1.9 min (13min in total).; Injection volume: 10 μL
Num peaks: 32
71.0155 274
75.00812 111
83.0458 114
83.05485 155
85.03159 278
96.95471 424
96.96236 286
96.96828 262
104.05273 251
110.97179 100
111.00694 139
112.98293 162
126.02002 159
126.90157 2220
131.04251 116
157.08284 108
160.04248 100
179.06938 147
183.01221 288
183.10258 96
213.95471 256
217.96317 128
218.98302 121
221.15759 135
255.23094 107
265.14029 239
265.1532 196
265.18021 112
277.18356 101
293.94263 133
299.15628 139
303.90131 9335
Name: Thymol iodide
PrecursorMZ: 548.977
PrecursorType: [M-H]-
IonMode: Negative
Formula: C20H24I2O2
SMILES: CC1=CC(=C(C=C1C2=CC(=C(C=C2C)OI)C(C)C)C(C)C)OI
InChI: 
InChIKey: SHOKWSLXDAIZPP-UHFFFAOYSA-N
RetentionTime: 8.324966
CCS: 
CollisionEnergy: 20-40 eV
InstrumentType: UPLC-QTOF-MS
Comment: PI: Cristina Nerin; Data collector: QiZhi Su, GUIA, University of Zaragoza, Spain; Collision energy: 20-40 V; Instrument: Waters HPLC-QTOF-MS (Xevo G2 QTof); Ionization: ESI; Deconvoluted by MS-DIAL; Column: Waters AtlantisTM premier BEH C18 AX column (2.1 × 100mm x 1.7μm); Flow rate: 0.3mL/min; Mobile phase A and B are water and methnaol, respectively, both with 0.1% formic acid; Gradient elution: from A/B (95/5) to A/B (100/0) in 7min, kept for 4 min, then back to A/B (95/5) in 0.1 min, and maintained for additional 1.9 min (13min in total).; Injection volume: 10 μL
Num peaks: 9
126.90145 3709
126.91644 3711
423.845 201
423.87152 207
506.88657 530
506.90909 580
506.93646 613
506.96704 615
548.97925 14393
Name: Chlorothiazide
PrecursorMZ: 293.9387
PrecursorType: [M-H]-
IonMode: Negative
Formula: C7H6ClN3O4S2
SMILES: C1=C2C(=CC(=C1Cl)S(=O)(=O)N)S(=O)(=O)N=CN2
InChI: 
InChIKey: JBMKAUGHUNFTOL-UHFFFAOYSA-N
RetentionTime: 1.015633
CCS: 
CollisionEnergy: 20-40 eV
InstrumentType: UPLC-QTOF-MS
Comment: PI: Cristina Nerin; Data collector: QiZhi Su, GUIA, University of Zaragoza, Spain; Collision energy: 20-40 V; Instrument: Waters HPLC-QTOF-MS (Xevo G2 QTof); Ionization: ESI; Deconvoluted by MS-DIAL; Column: Waters AtlantisTM premier BEH C18 AX column (2.1 × 100mm x 1.7μm); Flow rate: 0.3mL/min; Mobile phase A and B are water and methnaol, respectively, both with 0.1% formic acid; Gradient elution: from A/B (95/5) to A/B (100/0) in 7min, kept for 4 min, then back to A/B (95/5) in 0.1 min, and maintained for additional 1.9 min (13min in total).; Injection volume: 10 μL
Num peaks: 11
178.98933 2572
213.95795 21222
213.98848 21219
213.99794 21224
214.96454 5299
214.99101 5300
215.95532 7080
215.98846 7089
216.96097 2008
216.98038 2004
293.93896 72752
Name: Propanil
PrecursorMZ: 262.0016
PrecursorType: [M+FA-H]-
IonMode: Negative
Formula: C9H9Cl2NO
SMILES: CCC(=O)NC1=CC(=C(C=C1)Cl)Cl
InChI: 
InChIKey: LFULEKSKNZEWOE-UHFFFAOYSA-N
RetentionTime: 6.926183
CCS: 
CollisionEnergy: 20-40 eV
InstrumentType: UPLC-QTOF-MS
Comment: PI: Cristina Nerin; Data collector: QiZhi Su, GUIA, University of Zaragoza, Spain; Collision energy: 20-40 V; Instrument: Waters HPLC-QTOF-MS (Xevo G2 QTof); Ionization: ESI; Deconvoluted by MS-DIAL; Column: Waters AtlantisTM premier BEH C18 AX column (2.1 × 100mm x 1.7μm); Flow rate: 0.3mL/min; Mobile phase A and B are water and methnaol, respectively, both with 0.1% formic acid; Gradient elution: from A/B (95/5) to A/B (100/0) in 7min, kept for 4 min, then back to A/B (95/5) in 0.1 min, and maintained for additional 1.9 min (13min in total).; Injection volume: 10 μL
Num peaks: 14
123.99268 4409
125.9829 1464
125.99056 1475
159.96945 90593
160.97195 5201
161.96671 56897
162.96893 3249
163.96291 7529
215.99593 18791
216.99878 1490
217.9931 11925
218.99835 1022
219.98811 1711
219.9977 1686
Name: Testosterone propionate
PrecursorMZ: 389.2349
PrecursorType: [M+FA-H]-
IonMode: Negative
Formula: C22H32O3
SMILES: CCC(=O)OC1CCC2C1(CCC3C2CCC4=CC(=O)CCC34C)C
InChI: 
InChIKey: PDMMFKSKQVNJMI-BLQWBTBKSA-N
RetentionTime: 7.806583
CCS: 
CollisionEnergy: 20-40 eV
InstrumentType: UPLC-QTOF-MS
Comment: PI: Cristina Nerin; Data collector: QiZhi Su, GUIA, University of Zaragoza, Spain; Collision energy: 20-40 V; Instrument: Waters HPLC-QTOF-MS (Xevo G2 QTof); Ionization: ESI; Deconvoluted by MS-DIAL; Column: Waters AtlantisTM premier BEH C18 AX column (2.1 × 100mm x 1.7μm); Flow rate: 0.3mL/min; Mobile phase A and B are water and methnaol, respectively, both with 0.1% formic acid; Gradient elution: from A/B (95/5) to A/B (100/0) in 7min, kept for 4 min, then back to A/B (95/5) in 0.1 min, and maintained for additional 1.9 min (13min in total).; Injection volume: 10 μL
Num peaks: 98
84.05323 18
89.0454 20
91.00108 60
99.00644 46
102.05631 36
125.05883 23
125.08982 63
125.10659 64
129.93236 24
130.94957 41
130.9635 22
137.08929 18
137.10341 18
146.94212 31
148.92439 22
148.93684 20
149.09377 735
149.10216 711
150.09462 42
150.1022 42
151.06097 32
151.10924 22
167.13945 27
169.11768 16
169.12437 16
177.04153 46
177.06023 41
177.08266 21
177.09537 23
179.02539 17
179.07262 77
183.10049 108
195.06412 19
195.13126 16
195.13989 19
197.0994 25
197.11528 27
197.12636 33
197.15379 31
198.11287 24
205.14883 33
207.09712 21
211.16389 17
211.17561 16
225.01144 21
225.22595 24
229.1405 30
233.14873 76
233.16507 80
234.04831 21
255.17986 26
255.19414 17
256.25421 20
268.11691 35
268.17157 37
268.20062 17
271.21796 21
275.21588 31
277.18436 17
283.26776 108
284.25995 26
285.07031 24
293.2059 220
293.22305 266
294.22592 18
297.26642 64
298.24112 21
298.25613 24
301.03073 64
303.19989 22
305.20523 18
305.23721 21
315.25742 33
323.16049 20
324.25305 29
325.21118 38
327.1897 25
340.23654 35
347.19797 21
351.25842 16
367.24368 22
369.19257 24
371.26633 17
375.21344 21
377.26895 549
377.30637 42
378.28 135
379.18008 38
379.19949 20
379.24017 16
379.25366 37
379.28046 71
385.19421 25
385.26337 23
389.23132 1563
389.26361 90
389.3125 21
389.33701 33
Name: Cinchophen
PrecursorMZ: 497.147
PrecursorType: [2M-H]-
IonMode: Negative
Formula: C16H11NO2
SMILES: C1=CC=C(C=C1)C2=NC3=CC=CC=C3C(=C2)C(=O)O
InChI: 
InChIKey: YTRMTPPVNRALON-UHFFFAOYSA-N
RetentionTime: 11.1369
CCS: 
CollisionEnergy: 20-40 eV
InstrumentType: UPLC-QTOF-MS
Comment: PI: Cristina Nerin; Data collector: QiZhi Su, GUIA, University of Zaragoza, Spain; Collision energy: 20-40 V; Instrument: Waters HPLC-QTOF-MS (Xevo G2 QTof); Ionization: ESI; Deconvoluted by MS-DIAL; Column: Waters AtlantisTM premier BEH C18 AX column (2.1 × 100mm x 1.7μm); Flow rate: 0.3mL/min; Mobile phase A and B are water and methnaol, respectively, both with 0.1% formic acid; Gradient elution: from A/B (95/5) to A/B (100/0) in 7min, kept for 4 min, then back to A/B (95/5) in 0.1 min, and maintained for additional 1.9 min (13min in total).; Injection volume: 10 μL
Num peaks: 6
203.07101 5248
204.07849 172728
205.08176 25502
248.06828 34689
249.07158 5501
497.14777 2534
Name: Cinchophen
PrecursorMZ: 248.0684
PrecursorType: [M-H]-
IonMode: Negative
Formula: C16H11NO2
SMILES: C1=CC=C(C=C1)C2=NC3=CC=CC=C3C(=C2)C(=O)O
InChI: 
InChIKey: YTRMTPPVNRALON-UHFFFAOYSA-N
RetentionTime: 11.14452
CCS: 
CollisionEnergy: 20-40 eV
InstrumentType: UPLC-QTOF-MS
Comment: PI: Cristina Nerin; Data collector: QiZhi Su, GUIA, University of Zaragoza, Spain; Collision energy: 20-40 V; Instrument: Waters HPLC-QTOF-MS (Xevo G2 QTof); Ionization: ESI; Deconvoluted by MS-DIAL; Column: Waters AtlantisTM premier BEH C18 AX column (2.1 × 100mm x 1.7μm); Flow rate: 0.3mL/min; Mobile phase A and B are water and methnaol, respectively, both with 0.1% formic acid; Gradient elution: from A/B (95/5) to A/B (100/0) in 7min, kept for 4 min, then back to A/B (95/5) in 0.1 min, and maintained for additional 1.9 min (13min in total).; Injection volume: 10 μL
Num peaks: 4
203.07014 7211
204.07841 176367
205.08177 25607
248.06802 37621
Name: Terbutylazine-2-hydroxy
PrecursorMZ: 210.1335
PrecursorType: [M-H]-
IonMode: Negative
Formula: C9H17N5O
SMILES: CCNC1=NC(=O)NC(=N1)NC(C)(C)C
InChI: 
InChIKey: OYTCZOJKXCTBHG-UHFFFAOYSA-N
RetentionTime: 0.9280167
CCS: 
CollisionEnergy: 20-40 eV
InstrumentType: UPLC-QTOF-MS
Comment: PI: Cristina Nerin; Data collector: QiZhi Su, GUIA, University of Zaragoza, Spain; Collision energy: 20-40 V; Instrument: Waters HPLC-QTOF-MS (Xevo G2 QTof); Ionization: ESI; Deconvoluted by MS-DIAL; Column: Waters AtlantisTM premier BEH C18 AX column (2.1 × 100mm x 1.7μm); Flow rate: 0.3mL/min; Mobile phase A and B are water and methnaol, respectively, both with 0.1% formic acid; Gradient elution: from A/B (95/5) to A/B (100/0) in 7min, kept for 4 min, then back to A/B (95/5) in 0.1 min, and maintained for additional 1.9 min (13min in total).; Injection volume: 10 μL
Num peaks: 6
97.06255 1719
97.07433 1719
97.08111 1715
97.08902 1760
154.07004 1345
210.13301 50261
Name: Terbutylazine-2-hydroxy
PrecursorMZ: 421.2777
PrecursorType: [2M-H]-
IonMode: Negative
Formula: C9H17N5O
SMILES: CCNC1=NC(=O)NC(=N1)NC(C)(C)C
InChI: 
InChIKey: OYTCZOJKXCTBHG-UHFFFAOYSA-N
RetentionTime: 0.9280167
CCS: 
CollisionEnergy: 20-40 eV
InstrumentType: UPLC-QTOF-MS
Comment: PI: Cristina Nerin; Data collector: QiZhi Su, GUIA, University of Zaragoza, Spain; Collision energy: 20-40 V; Instrument: Waters HPLC-QTOF-MS (Xevo G2 QTof); Ionization: ESI; Deconvoluted by MS-DIAL; Column: Waters AtlantisTM premier BEH C18 AX column (2.1 × 100mm x 1.7μm); Flow rate: 0.3mL/min; Mobile phase A and B are water and methnaol, respectively, both with 0.1% formic acid; Gradient elution: from A/B (95/5) to A/B (100/0) in 7min, kept for 4 min, then back to A/B (95/5) in 0.1 min, and maintained for additional 1.9 min (13min in total).; Injection volume: 10 μL
Num peaks: 10
97.06255 1716
97.07433 1718
97.08111 1714
97.08902 1743
154.07004 1345
210.13301 37540
211.13518 3542
290.12793 508
341.10577 882
421.27759 4684
Name: Sulfacetamide
PrecursorMZ: 213.0308
PrecursorType: [M-H]-
IonMode: Negative
Formula: C8H10N2O3S
SMILES: CC(=O)NS(=O)(=O)C1=CC=C(C=C1)N
InChI: 
InChIKey: SKIVFJLNDNKQPD-UHFFFAOYSA-N
RetentionTime: 1.038917
CCS: 
CollisionEnergy: 20-40 eV
InstrumentType: UPLC-QTOF-MS
Comment: PI: Cristina Nerin; Data collector: QiZhi Su, GUIA, University of Zaragoza, Spain; Collision energy: 20-40 V; Instrument: Waters HPLC-QTOF-MS (Xevo G2 QTof); Ionization: ESI; Deconvoluted by MS-DIAL; Column: Waters AtlantisTM premier BEH C18 AX column (2.1 × 100mm x 1.7μm); Flow rate: 0.3mL/min; Mobile phase A and B are water and methnaol, respectively, both with 0.1% formic acid; Gradient elution: from A/B (95/5) to A/B (100/0) in 7min, kept for 4 min, then back to A/B (95/5) in 0.1 min, and maintained for additional 1.9 min (13min in total).; Injection volume: 10 μL
Num peaks: 11
89.0212 314
89.03242 310
101.01736 277
101.02458 277
108.04406 328
108.06251 1111
171.02066 1088
171.98813 238
172.00725 225
195.02095 745
213.03174 22499
Name: Sulfacetamide
PrecursorMZ: 427.0732
PrecursorType: [2M-H]-
IonMode: Negative
Formula: C8H10N2O3S
SMILES: CC(=O)NS(=O)(=O)C1=CC=C(C=C1)N
InChI: 
InChIKey: SKIVFJLNDNKQPD-UHFFFAOYSA-N
RetentionTime: 1.042717
CCS: 
CollisionEnergy: 20-40 eV
InstrumentType: UPLC-QTOF-MS
Comment: PI: Cristina Nerin; Data collector: QiZhi Su, GUIA, University of Zaragoza, Spain; Collision energy: 20-40 V; Instrument: Waters HPLC-QTOF-MS (Xevo G2 QTof); Ionization: ESI; Deconvoluted by MS-DIAL; Column: Waters AtlantisTM premier BEH C18 AX column (2.1 × 100mm x 1.7μm); Flow rate: 0.3mL/min; Mobile phase A and B are water and methnaol, respectively, both with 0.1% formic acid; Gradient elution: from A/B (95/5) to A/B (100/0) in 7min, kept for 4 min, then back to A/B (95/5) in 0.1 min, and maintained for additional 1.9 min (13min in total).; Injection volume: 10 μL
Num peaks: 78
58.02426 200
58.03077 204
59.01056 92
59.01794 127
71.01249 225
79.95553 565
79.97787 236
79.98466 214
79.99029 215
85.02338 66
85.02924 66
88.99875 47
89.0215 242
89.02749 197
92.02735 178
92.04387 298
92.04947 284
97.077 446
103.98445 78
103.9959 85
107.03514 417
107.06168 71
108.03307 1383
108.04288 1417
109.03951 40
109.04944 40
113.01703 124
113.02332 124
120.97969 201
121.9873 324
121.99308 324
122.02917 35
130.05107 65
131.0567 91
132.02522 44
143.0311 48
143.03949 48
145.97343 69
145.98633 91
145.99635 86
146.98105 183
149.04959 66
154.99854 38
155.00826 56
156.00905 1373
156.98927 47
157.00629 113
157.01573 97
158.00539 68
158.01335 68
158.01997 68
171.02008 3405
172.00168 239
172.01091 262
172.02426 290
173.00281 206
173.01276 224
173.02126 220
189.99203 35
190.98018 88
190.99513 90
195.02113 1577
196.01645 55
196.02942 67
197.06456 170
214.02335 390
214.03383 475
214.04942 90
302.05298 85
302.06458 85
341.10358 63
341.11713 57
395.01328 57
395.03143 57
425.06125 48
427.04865 135
427.06442 305
427.08304 399
Name: Sulfacetamide
PrecursorMZ: 213.0313
PrecursorType: [M-H]-
IonMode: Negative
Formula: C8H10N2O3S
SMILES: CC(=O)NS(=O)(=O)C1=CC=C(C=C1)N
InChI: 
InChIKey: SKIVFJLNDNKQPD-UHFFFAOYSA-N
RetentionTime: 2.517017
CCS: 
CollisionEnergy: 20-40 eV
InstrumentType: UPLC-QTOF-MS
Comment: PI: Cristina Nerin; Data collector: QiZhi Su, GUIA, University of Zaragoza, Spain; Collision energy: 20-40 V; Instrument: Waters HPLC-QTOF-MS (Xevo G2 QTof); Ionization: ESI; Deconvoluted by MS-DIAL; Column: Waters AtlantisTM premier BEH C18 AX column (2.1 × 100mm x 1.7μm); Flow rate: 0.3mL/min; Mobile phase A and B are water and methnaol, respectively, both with 0.1% formic acid; Gradient elution: from A/B (95/5) to A/B (100/0) in 7min, kept for 4 min, then back to A/B (95/5) in 0.1 min, and maintained for additional 1.9 min (13min in total).; Injection volume: 10 μL
Num peaks: 43
58.02946 119
63.95801 134
63.96415 133
78.96838 163
78.98563 162
79.94864 257
79.96008 333
79.98034 209
79.98798 188
91.04243 74
92.04421 151
92.05359 149
105.95747 61
107.03265 259
107.03886 262
107.05927 97
108.03119 930
108.04219 960
108.05161 961
120.98292 204
121.98393 118
121.99049 117
131.05611 91
153.00647 74
153.01315 73
155.0009 73
155.01131 71
155.99017 240
156.0105 741
171.02 1967
172.00316 136
172.01236 199
172.0209 202
172.03192 116
173.01634 80
173.02861 73
195.01523 1207
195.02289 1208
196.00969 113
196.02591 118
210.12448 112
210.13522 102
213.03114 5820
Name: Terbutylazine-2-hydroxy
PrecursorMZ: 210.1338
PrecursorType: [M-H]-
IonMode: Negative
Formula: C9H17N5O
SMILES: CCNC1=NC(=O)NC(=N1)NC(C)(C)C
InChI: 
InChIKey: OYTCZOJKXCTBHG-UHFFFAOYSA-N
RetentionTime: 2.6317
CCS: 
CollisionEnergy: 20-40 eV
InstrumentType: UPLC-QTOF-MS
Comment: PI: Cristina Nerin; Data collector: QiZhi Su, GUIA, University of Zaragoza, Spain; Collision energy: 20-40 V; Instrument: Waters HPLC-QTOF-MS (Xevo G2 QTof); Ionization: ESI; Deconvoluted by MS-DIAL; Column: Waters AtlantisTM premier BEH C18 AX column (2.1 × 100mm x 1.7μm); Flow rate: 0.3mL/min; Mobile phase A and B are water and methnaol, respectively, both with 0.1% formic acid; Gradient elution: from A/B (95/5) to A/B (100/0) in 7min, kept for 4 min, then back to A/B (95/5) in 0.1 min, and maintained for additional 1.9 min (13min in total).; Injection volume: 10 μL
Num peaks: 5
97.06677 3893
97.07491 3894
111.06427 806
111.07233 806
210.13348 65740
Name: Terbutylazine-2-hydroxy
PrecursorMZ: 421.2791
PrecursorType: [2M-H]-
IonMode: Negative
Formula: C9H17N5O
SMILES: CCNC1=NC(=O)NC(=N1)NC(C)(C)C
InChI: 
InChIKey: OYTCZOJKXCTBHG-UHFFFAOYSA-N
RetentionTime: 2.635517
CCS: 
CollisionEnergy: 20-40 eV
InstrumentType: UPLC-QTOF-MS
Comment: PI: Cristina Nerin; Data collector: QiZhi Su, GUIA, University of Zaragoza, Spain; Collision energy: 20-40 V; Instrument: Waters HPLC-QTOF-MS (Xevo G2 QTof); Ionization: ESI; Deconvoluted by MS-DIAL; Column: Waters AtlantisTM premier BEH C18 AX column (2.1 × 100mm x 1.7μm); Flow rate: 0.3mL/min; Mobile phase A and B are water and methnaol, respectively, both with 0.1% formic acid; Gradient elution: from A/B (95/5) to A/B (100/0) in 7min, kept for 4 min, then back to A/B (95/5) in 0.1 min, and maintained for additional 1.9 min (13min in total).; Injection volume: 10 μL
Num peaks: 5
97.07452 3894
111.06693 806
210.13368 61619
211.13625 5567
421.27866 9599
Name: Rutin
PrecursorMZ: 609.1459
PrecursorType: [M-H]-
IonMode: Negative
Formula: C27H30O16
SMILES: CC1C(C(C(C(O1)OCC2C(C(C(C(O2)OC3=C(OC4=CC(=CC(=C4C3=O)O)O)C5=CC(=C(C=C5)O)O)O)O)O)O)O)O
InChI: 
InChIKey: IKGXIBQEEMLURG-NVPNHPEKSA-N
RetentionTime: 4.914083
CCS: 
CollisionEnergy: 20-40 eV
InstrumentType: UPLC-QTOF-MS
Comment: PI: Cristina Nerin; Data collector: QiZhi Su, GUIA, University of Zaragoza, Spain; Collision energy: 20-40 V; Instrument: Waters HPLC-QTOF-MS (Xevo G2 QTof); Ionization: ESI; Deconvoluted by MS-DIAL; Column: Waters AtlantisTM premier BEH C18 AX column (2.1 × 100mm x 1.7μm); Flow rate: 0.3mL/min; Mobile phase A and B are water and methnaol, respectively, both with 0.1% formic acid; Gradient elution: from A/B (95/5) to A/B (100/0) in 7min, kept for 4 min, then back to A/B (95/5) in 0.1 min, and maintained for additional 1.9 min (13min in total).; Injection volume: 10 μL
Num peaks: 6
151.00052 876
300.02554 24607
301.03198 21251
302.03613 2847
343.04205 711
609.14514 61199
Name: Rutin
PrecursorMZ: 609.1469
PrecursorType: [M-H]-
IonMode: Negative
Formula: C27H30O16
SMILES: CC1C(C(C(C(O1)OCC2C(C(C(C(O2)OC3=C(OC4=CC(=CC(=C4C3=O)O)O)C5=CC(=C(C=C5)O)O)O)O)O)O)O)O
InChI: 
InChIKey: IKGXIBQEEMLURG-NVPNHPEKSA-N
RetentionTime: 5.257267
CCS: 
CollisionEnergy: 20-40 eV
InstrumentType: UPLC-QTOF-MS
Comment: PI: Cristina Nerin; Data collector: QiZhi Su, GUIA, University of Zaragoza, Spain; Collision energy: 20-40 V; Instrument: Waters HPLC-QTOF-MS (Xevo G2 QTof); Ionization: ESI; Deconvoluted by MS-DIAL; Column: Waters AtlantisTM premier BEH C18 AX column (2.1 × 100mm x 1.7μm); Flow rate: 0.3mL/min; Mobile phase A and B are water and methnaol, respectively, both with 0.1% formic acid; Gradient elution: from A/B (95/5) to A/B (100/0) in 7min, kept for 4 min, then back to A/B (95/5) in 0.1 min, and maintained for additional 1.9 min (13min in total).; Injection volume: 10 μL
Num peaks: 4
300.02603 24911
301.03302 20925
302.03555 2788
609.14667 203052
Name: Propanil
PrecursorMZ: 215.9958
PrecursorType: [M-H]-
IonMode: Negative
Formula: C9H9Cl2NO
SMILES: CCC(=O)NC1=CC(=C(C=C1)Cl)Cl
InChI: 
InChIKey: LFULEKSKNZEWOE-UHFFFAOYSA-N
RetentionTime: 6.926183
CCS: 
CollisionEnergy: 20-40 eV
InstrumentType: UPLC-QTOF-MS
Comment: PI: Cristina Nerin; Data collector: QiZhi Su, GUIA, University of Zaragoza, Spain; Collision energy: 20-40 V; Instrument: Waters HPLC-QTOF-MS (Xevo G2 QTof); Ionization: ESI; Deconvoluted by MS-DIAL; Column: Waters AtlantisTM premier BEH C18 AX column (2.1 × 100mm x 1.7μm); Flow rate: 0.3mL/min; Mobile phase A and B are water and methnaol, respectively, both with 0.1% formic acid; Gradient elution: from A/B (95/5) to A/B (100/0) in 7min, kept for 4 min, then back to A/B (95/5) in 0.1 min, and maintained for additional 1.9 min (13min in total).; Injection volume: 10 μL
Num peaks: 9
123.99268 4413
125.9829 1467
125.99056 1477
159.96945 90629
160.97195 5203
161.96671 56901
162.96893 3250
163.96291 7525
215.99593 18846
Name: Trifluoroacetic acid
PrecursorMZ: 112.984
PrecursorType: [M-H]-
IonMode: Negative
Formula: C2HF3O2
SMILES: C(=O)(C(F)(F)F)O
InChI: 
InChIKey: DTQVDTLACAAQTR-UHFFFAOYSA-N
RetentionTime: 0.5397167
CCS: 
CollisionEnergy: 20-40 eV
InstrumentType: UPLC-QTOF-MS
Comment: PI: Cristina Nerin; Data collector: QiZhi Su, GUIA, University of Zaragoza, Spain; Collision energy: 20-40 V; Instrument: Waters HPLC-QTOF-MS (Xevo G2 QTof); Ionization: ESI; Deconvoluted by MS-DIAL; Column: Waters AtlantisTM premier BEH C18 AX column (2.1 × 100mm x 1.7μm); Flow rate: 0.3mL/min; Mobile phase A and B are water and methnaol, respectively, both with 0.1% formic acid; Gradient elution: from A/B (95/5) to A/B (100/0) in 7min, kept for 4 min, then back to A/B (95/5) in 0.1 min, and maintained for additional 1.9 min (13min in total).; Injection volume: 10 μL
Num peaks: 5
86.97048 47
102.93057 84
102.93563 77
102.94907 80
112.98288 3441
Name: "10,12-pentacosadiynoic acid"
PrecursorMZ: 373.3087
PrecursorType: [M-H]-
IonMode: Negative
Formula: C25H42O2
SMILES: CCCCCCCCCCCCC#CC#CCCCCCCCCC(=O)O
InChI: 
InChIKey: ZPUDRBWHCWYMQS-UHFFFAOYSA-N
RetentionTime: 9.2357
CCS: 
CollisionEnergy: 20-40 eV
InstrumentType: UPLC-QTOF-MS
Comment: PI: Cristina Nerin; Data collector: QiZhi Su, GUIA, University of Zaragoza, Spain; Collision energy: 20-40 V; Instrument: Waters HPLC-QTOF-MS (Xevo G2 QTof); Ionization: ESI; Deconvoluted by MS-DIAL; Column: Waters AtlantisTM premier BEH C18 AX column (2.1 × 100mm x 1.7μm); Flow rate: 0.3mL/min; Mobile phase A and B are water and methnaol, respectively, both with 0.1% formic acid; Gradient elution: from A/B (95/5) to A/B (100/0) in 7min, kept for 4 min, then back to A/B (95/5) in 0.1 min, and maintained for additional 1.9 min (13min in total).; Injection volume: 10 μL
Num peaks: 4
183.00893 342
325.17435 261
329.31662 473
373.30795 23937
Name: (+)-Lactose
PrecursorMZ: 387.1127
PrecursorType: [M+FA-H]-
IonMode: Negative
Formula: C12H22O11
SMILES: C(C1C(C(C(C(O1)OC2C(OC(C(C2O)O)O)CO)O)O)O)O
InChI: 
InChIKey: GUBGYTABKSRVRQ-DCSYEGIMSA-N
RetentionTime: 0.8062
CCS: 
CollisionEnergy: 20-40 eV
InstrumentType: UPLC-QTOF-MS
Comment: PI: Cristina Nerin; Data collector: QiZhi Su, GUIA, University of Zaragoza, Spain; Collision energy: 20-40 V; Instrument: Waters HPLC-QTOF-MS (Xevo G2 QTof); Ionization: ESI; Deconvoluted by MS-DIAL; Column: Waters AtlantisTM premier BEH C18 AX column (2.1 × 100mm x 1.7μm); Flow rate: 0.3mL/min; Mobile phase A and B are water and methnaol, respectively, both with 0.1% formic acid; Gradient elution: from A/B (95/5) to A/B (100/0) in 7min, kept for 4 min, then back to A/B (95/5) in 0.1 min, and maintained for additional 1.9 min (13min in total).; Injection volume: 10 μL
Num peaks: 91
59.01284 470
59.01653 470
66.78652 27
66.83234 40
66.86994 34
66.90366 37
66.91132 46
66.95838 52
67.00706 28
67.05898 58
67.06403 48
67.07059 36
67.10229 25
67.12468 24
67.3458 26
67.35778 24
71.01325 200
71.02335 203
73.02765 644
81.02679 138
81.03461 138
83.012 351
83.0257 290
85.02815 126
86.99927 184
87.00691 184
88.00903 21
88.01563 21
88.64947 20
88.74069 19
88.87234 19
89.02269 1728
89.0378 1537
90.01727 93
90.02456 93
95.01423 57
95.01807 57
97.01966 874
97.02652 856
97.03272 842
98.0238 102
98.03334 102
99.03513 35
99.04188 35
101.02325 1842
103.00359 40
113.02225 990
115.03949 151
115.04949 201
116.0374 36
116.05106 22
119.03444 402
125.02092 161
131.02727 311
131.0338 318
132.03178 25
132.04324 25
133.0547 62
143.03171 1382
143.04829 1358
144.04002 108
146.9855 27
149.0325 127
149.03969 137
149.04663 137
161.0433 80
163.03693 69
173.04654 31
179.05388 1213
180.05304 81
181.05833 83
221.05843 264
221.06882 287
221.07953 206
222.05688 28
263.07013 622
263.08133 617
264.07263 98
281.07968 340
281.09354 190
285.27148 22
304.99854 29
341.10672 1794
341.14053 43
343.09772 76
343.1207 118
377.08633 177
379.09058 32
383.11298 19
387.11548 1336
387.16446 19
Name: Barbital
PrecursorMZ: 183.0743
PrecursorType: [M-H]-
IonMode: Negative
Formula: C8H12N2O3
SMILES: CCC1(C(=O)NC(=O)NC1=O)CC
InChI: 
InChIKey: FTOAOBMCPZCFFF-UHFFFAOYSA-N
RetentionTime: 3.923283
CCS: 
CollisionEnergy: 20-40 eV
InstrumentType: UPLC-QTOF-MS
Comment: PI: Cristina Nerin; Data collector: QiZhi Su, GUIA, University of Zaragoza, Spain; Collision energy: 20-40 V; Instrument: Waters HPLC-QTOF-MS (Xevo G2 QTof); Ionization: ESI; Deconvoluted by MS-DIAL; Column: Waters AtlantisTM premier BEH C18 AX column (2.1 × 100mm x 1.7μm); Flow rate: 0.3mL/min; Mobile phase A and B are water and methnaol, respectively, both with 0.1% formic acid; Gradient elution: from A/B (95/5) to A/B (100/0) in 7min, kept for 4 min, then back to A/B (95/5) in 0.1 min, and maintained for additional 1.9 min (13min in total).; Injection volume: 10 μL
Num peaks: 84
50.84695 20
55.60654 39
61.98812 37
67.88647 19
73.02596 21
73.53851 27
75.00948 25
78.03436 20
79.56393 20
79.94554 21
79.95607 21
80.95839 26
80.96886 38
86.97271 59
86.97915 53
87.25867 26
94.06126 29
96.08086 20
96.97604 20
97.03249 20
100.41468 33
100.9377 19
101.41862 29
101.93564 44
101.94324 56
102.94733 20
106.68439 20
111.04722 20
113.01968 20
114.7059 35
115.48513 21
118.89994 29
120.00401 28
120.89553 75
121.9379 19
122.95033 29
126.90607 466
126.9183 26
127.95993 36
127.97136 28
129.97197 20
129.98021 24
130.96368 141
131.03235 23
131.97208 42
132.94994 21
134.02919 22
138.9146 26
139.88643 22
140.06218 36
140.07162 192
140.93611 25
141.06604 20
141.96704 19
142.93222 19
142.96654 22
143.06938 20
149.8967 67
151.92336 20
153.9015 19
158.89238 45
161.88954 38
161.93311 22
163.05005 20
164.92365 21
165.92099 20
166.85239 35
166.8644 26
167.03815 23
168.61951 33
168.95259 28
171.0657 25
171.95087 49
173.02658 44
173.06351 28
174.8951 19
174.94739 53
174.96132 87
178.99864 29
179.95947 25
180.81516 21
183.05997 111
183.07253 922
183.0927 51
Name: Sulfanilic acid
PrecursorMZ: 172.0043
PrecursorType: [M-H]-
IonMode: Negative
Formula: C6H7NO3S
SMILES: C1=CC(=CC=C1N)S(=O)(=O)O
InChI: 
InChIKey: HVBSAKJJOYLTQU-UHFFFAOYSA-N
RetentionTime: 4.56335
CCS: 
CollisionEnergy: 20-40 eV
InstrumentType: UPLC-QTOF-MS
Comment: PI: Cristina Nerin; Data collector: QiZhi Su, GUIA, University of Zaragoza, Spain; Collision energy: 20-40 V; Instrument: Waters HPLC-QTOF-MS (Xevo G2 QTof); Ionization: ESI; Deconvoluted by MS-DIAL; Column: Waters AtlantisTM premier BEH C18 AX column (2.1 × 100mm x 1.7μm); Flow rate: 0.3mL/min; Mobile phase A and B are water and methnaol, respectively, both with 0.1% formic acid; Gradient elution: from A/B (95/5) to A/B (100/0) in 7min, kept for 4 min, then back to A/B (95/5) in 0.1 min, and maintained for additional 1.9 min (13min in total).; Injection volume: 10 μL
Num peaks: 7
79.95545 7827
79.9687 7827
81.95079 380
81.96621 377
107.03654 303
108.04256 1991
172.00386 21949
Name: (+)-Lactose
PrecursorMZ: 729.2303
PrecursorType: [2M+FA-H]-
IonMode: Negative
Formula: C12H22O11
SMILES: C(C1C(C(C(C(O1)OC2C(OC(C(C2O)O)O)CO)O)O)O)O
InChI: 
InChIKey: GUBGYTABKSRVRQ-DCSYEGIMSA-N
RetentionTime: 0.7871667
CCS: 
CollisionEnergy: 20-40 eV
InstrumentType: UPLC-QTOF-MS
Comment: PI: Cristina Nerin; Data collector: QiZhi Su, GUIA, University of Zaragoza, Spain; Collision energy: 20-40 V; Instrument: Waters HPLC-QTOF-MS (Xevo G2 QTof); Ionization: ESI; Deconvoluted by MS-DIAL; Column: Waters AtlantisTM premier BEH C18 AX column (2.1 × 100mm x 1.7μm); Flow rate: 0.3mL/min; Mobile phase A and B are water and methnaol, respectively, both with 0.1% formic acid; Gradient elution: from A/B (95/5) to A/B (100/0) in 7min, kept for 4 min, then back to A/B (95/5) in 0.1 min, and maintained for additional 1.9 min (13min in total).; Injection volume: 10 μL
Num peaks: 52
71.01281 315
73.02916 802
81.03192 205
83.01006 417
83.01635 420
85.01166 103
85.02654 116
87.00634 163
87.02517 148
97.02782 953
97.03505 958
101.02307 1435
113.01562 834
113.02335 874
113.04301 561
115.03156 401
115.0409 425
119.03094 424
119.03918 431
119.0503 313
125.01204 141
125.02515 129
131.03902 372
143.03337 615
143.0495 526
144.03534 172
149.04234 130
161.04323 9222
161.06642 114
162.04503 761
179.05383 5108
180.04884 130
180.06244 137
181.04955 103
181.05901 108
263.07468 797
264.07468 118
341.1066 3433
342.11188 342
343.11002 107
377.08133 196
387.08316 125
387.10385 1250
387.11777 1396
388.12018 144
503.15454 124
623.19525 197
623.22589 143
684.22876 1522
685.21417 836
686.2124 101
686.23572 165
Name: Terephthalic acid
PrecursorMZ: 165.0173
PrecursorType: [M-H]-
IonMode: Negative
Formula: C8H6O4
SMILES: C1=CC(=CC=C1C(=O)O)C(=O)O
InChI: 
InChIKey: KKEYFWRCBNTPAC-UHFFFAOYSA-N
RetentionTime: 6.583017
CCS: 
CollisionEnergy: 20-40 eV
InstrumentType: UPLC-QTOF-MS
Comment: PI: Cristina Nerin; Data collector: QiZhi Su, GUIA, University of Zaragoza, Spain; Collision energy: 20-40 V; Instrument: Waters HPLC-QTOF-MS (Xevo G2 QTof); Ionization: ESI; Deconvoluted by MS-DIAL; Column: Waters AtlantisTM premier BEH C18 AX column (2.1 × 100mm x 1.7μm); Flow rate: 0.3mL/min; Mobile phase A and B are water and methnaol, respectively, both with 0.1% formic acid; Gradient elution: from A/B (95/5) to A/B (100/0) in 7min, kept for 4 min, then back to A/B (95/5) in 0.1 min, and maintained for additional 1.9 min (13min in total).; Injection volume: 10 μL
Num peaks: 6
77.03478 286
77.04122 288
121.02705 11139
122.02953 696
122.0414 693
165.01768 3839
Name: Bumetanide
PrecursorMZ: 363.1011
PrecursorType: [M-H]-
IonMode: Negative
Formula: C17H20N2O5S
SMILES: CCCCNC1=C(C(=CC(=C1)C(=O)O)S(=O)(=O)N)OC2=CC=CC=C2
InChI: 
InChIKey: MAEIEVLCKWDQJH-UHFFFAOYSA-N
RetentionTime: 7.044217
CCS: 
CollisionEnergy: 20-40 eV
InstrumentType: UPLC-QTOF-MS
Comment: PI: Cristina Nerin; Data collector: QiZhi Su, GUIA, University of Zaragoza, Spain; Collision energy: 20-40 V; Instrument: Waters HPLC-QTOF-MS (Xevo G2 QTof); Ionization: ESI; Deconvoluted by MS-DIAL; Column: Waters AtlantisTM premier BEH C18 AX column (2.1 × 100mm x 1.7μm); Flow rate: 0.3mL/min; Mobile phase A and B are water and methnaol, respectively, both with 0.1% formic acid; Gradient elution: from A/B (95/5) to A/B (100/0) in 7min, kept for 4 min, then back to A/B (95/5) in 0.1 min, and maintained for additional 1.9 min (13min in total).; Injection volume: 10 μL
Num peaks: 3
79.96301 4073
79.97952 3980
363.10052 318075
Name: Bumetanide
PrecursorMZ: 363.1007
PrecursorType: [M-H]-
IonMode: Negative
Formula: C17H20N2O5S
SMILES: CCCCNC1=C(C(=CC(=C1)C(=O)O)S(=O)(=O)N)OC2=CC=CC=C2
InChI: 
InChIKey: MAEIEVLCKWDQJH-UHFFFAOYSA-N
RetentionTime: 7.101316
CCS: 
CollisionEnergy: 20-40 eV
InstrumentType: UPLC-QTOF-MS
Comment: PI: Cristina Nerin; Data collector: QiZhi Su, GUIA, University of Zaragoza, Spain; Collision energy: 20-40 V; Instrument: Waters HPLC-QTOF-MS (Xevo G2 QTof); Ionization: ESI; Deconvoluted by MS-DIAL; Column: Waters AtlantisTM premier BEH C18 AX column (2.1 × 100mm x 1.7μm); Flow rate: 0.3mL/min; Mobile phase A and B are water and methnaol, respectively, both with 0.1% formic acid; Gradient elution: from A/B (95/5) to A/B (100/0) in 7min, kept for 4 min, then back to A/B (95/5) in 0.1 min, and maintained for additional 1.9 min (13min in total).; Injection volume: 10 μL
Num peaks: 1
363.10037 263612
Name: (+)-Lactose
PrecursorMZ: 341.1075
PrecursorType: [M-H]-
IonMode: Negative
Formula: C12H22O11
SMILES: C(C1C(C(C(C(O1)OC2C(OC(C(C2O)O)O)CO)O)O)O)O
InChI: 
InChIKey: GUBGYTABKSRVRQ-DCSYEGIMSA-N
RetentionTime: 0.8062
CCS: 
CollisionEnergy: 20-40 eV
InstrumentType: UPLC-QTOF-MS
Comment: PI: Cristina Nerin; Data collector: QiZhi Su, GUIA, University of Zaragoza, Spain; Collision energy: 20-40 V; Instrument: Waters HPLC-QTOF-MS (Xevo G2 QTof); Ionization: ESI; Deconvoluted by MS-DIAL; Column: Waters AtlantisTM premier BEH C18 AX column (2.1 × 100mm x 1.7μm); Flow rate: 0.3mL/min; Mobile phase A and B are water and methnaol, respectively, both with 0.1% formic acid; Gradient elution: from A/B (95/5) to A/B (100/0) in 7min, kept for 4 min, then back to A/B (95/5) in 0.1 min, and maintained for additional 1.9 min (13min in total).; Injection volume: 10 μL
Num peaks: 54
59.01284 470
59.01653 470
67.05898 58
71.01325 200
71.02335 203
73.02765 644
81.02679 138
81.03461 138
83.012 351
83.0257 290
85.02815 126
86.99927 184
87.00691 184
89.02269 1728
89.0378 1537
90.01727 93
90.02456 93
95.01423 57
95.01807 57
97.01966 874
97.02652 856
97.03272 842
98.0238 102
98.03334 102
101.02325 1842
113.02225 990
115.03949 151
115.04949 201
119.03444 402
125.02092 161
131.02727 311
131.0338 318
133.0547 62
143.03171 1382
143.04829 1358
144.04002 108
149.0325 127
149.03969 137
149.04663 137
161.0433 80
163.03693 69
179.05388 1213
180.05304 81
181.05833 83
221.05843 264
221.06882 287
221.07953 206
263.07013 622
263.08133 617
264.07263 98
281.07968 340
281.09354 190
341.10672 5363
341.14053 102
Name: Glycocholic acid
PrecursorMZ: 929.614
PrecursorType: [2M-H]-
IonMode: Negative
Formula: C26H43NO6
SMILES: CC(CCC(=O)NCC(=O)O)C1CCC2C1(C(CC3C2C(CC4C3(CCC(C4)O)C)O)O)C
InChI: 
InChIKey: RFDAIACWWDREDC-FRVQLJSFSA-N
RetentionTime: 7.703817
CCS: 
CollisionEnergy: 20-40 eV
InstrumentType: UPLC-QTOF-MS
Comment: PI: Cristina Nerin; Data collector: QiZhi Su, GUIA, University of Zaragoza, Spain; Collision energy: 20-40 V; Instrument: Waters HPLC-QTOF-MS (Xevo G2 QTof); Ionization: ESI; Deconvoluted by MS-DIAL; Column: Waters AtlantisTM premier BEH C18 AX column (2.1 × 100mm x 1.7μm); Flow rate: 0.3mL/min; Mobile phase A and B are water and methnaol, respectively, both with 0.1% formic acid; Gradient elution: from A/B (95/5) to A/B (100/0) in 7min, kept for 4 min, then back to A/B (95/5) in 0.1 min, and maintained for additional 1.9 min (13min in total).; Injection volume: 10 μL
Num peaks: 5
391.28189 19921
392.28839 4716
392.30161 4715
464.30173 3474
929.61432 90692
Name: Chenodeoxycholic acid
PrecursorMZ: 783.5786
PrecursorType: [2M-H]-
IonMode: Negative
Formula: C24H40O4
SMILES: CC(CCC(=O)O)C1CCC2C1(CCC3C2C(CC4C3(CCC(C4)O)C)O)C
InChI: 
InChIKey: RUDATBOHQWOJDD-BSWAIDMHSA-N
RetentionTime: 7.760933
CCS: 
CollisionEnergy: 20-40 eV
InstrumentType: UPLC-QTOF-MS
Comment: PI: Cristina Nerin; Data collector: QiZhi Su, GUIA, University of Zaragoza, Spain; Collision energy: 20-40 V; Instrument: Waters HPLC-QTOF-MS (Xevo G2 QTof); Ionization: ESI; Deconvoluted by MS-DIAL; Column: Waters AtlantisTM premier BEH C18 AX column (2.1 × 100mm x 1.7μm); Flow rate: 0.3mL/min; Mobile phase A and B are water and methnaol, respectively, both with 0.1% formic acid; Gradient elution: from A/B (95/5) to A/B (100/0) in 7min, kept for 4 min, then back to A/B (95/5) in 0.1 min, and maintained for additional 1.9 min (13min in total).; Injection volume: 10 μL
Num peaks: 4
391.28488 392969
392.28769 91398
393.29105 10607
783.57922 68971
Name: Chenodeoxycholic acid
PrecursorMZ: 437.2892
PrecursorType: [M+FA-H]-
IonMode: Negative
Formula: C24H40O4
SMILES: CC(CCC(=O)O)C1CCC2C1(CCC3C2C(CC4C3(CCC(C4)O)C)O)C
InChI: 
InChIKey: RUDATBOHQWOJDD-BSWAIDMHSA-N
RetentionTime: 7.77235
CCS: 
CollisionEnergy: 20-40 eV
InstrumentType: UPLC-QTOF-MS
Comment: PI: Cristina Nerin; Data collector: QiZhi Su, GUIA, University of Zaragoza, Spain; Collision energy: 20-40 V; Instrument: Waters HPLC-QTOF-MS (Xevo G2 QTof); Ionization: ESI; Deconvoluted by MS-DIAL; Column: Waters AtlantisTM premier BEH C18 AX column (2.1 × 100mm x 1.7μm); Flow rate: 0.3mL/min; Mobile phase A and B are water and methnaol, respectively, both with 0.1% formic acid; Gradient elution: from A/B (95/5) to A/B (100/0) in 7min, kept for 4 min, then back to A/B (95/5) in 0.1 min, and maintained for additional 1.9 min (13min in total).; Injection volume: 10 μL
Num peaks: 3
391.284 354847
392.28696 82170
393.29013 10277
Name: Chenodeoxycholic acid
PrecursorMZ: 391.2829
PrecursorType: [M-H]-
IonMode: Negative
Formula: C24H40O4
SMILES: CC(CCC(=O)O)C1CCC2C1(CCC3C2C(CC4C3(CCC(C4)O)C)O)C
InChI: 
InChIKey: RUDATBOHQWOJDD-BSWAIDMHSA-N
RetentionTime: 7.783767
CCS: 
CollisionEnergy: 20-40 eV
InstrumentType: UPLC-QTOF-MS
Comment: PI: Cristina Nerin; Data collector: QiZhi Su, GUIA, University of Zaragoza, Spain; Collision energy: 20-40 V; Instrument: Waters HPLC-QTOF-MS (Xevo G2 QTof); Ionization: ESI; Deconvoluted by MS-DIAL; Column: Waters AtlantisTM premier BEH C18 AX column (2.1 × 100mm x 1.7μm); Flow rate: 0.3mL/min; Mobile phase A and B are water and methnaol, respectively, both with 0.1% formic acid; Gradient elution: from A/B (95/5) to A/B (100/0) in 7min, kept for 4 min, then back to A/B (95/5) in 0.1 min, and maintained for additional 1.9 min (13min in total).; Injection volume: 10 μL
Num peaks: 1
391.28391 253602
Name: Glycocholic acid
PrecursorMZ: 464.3004
PrecursorType: [M-H]-
IonMode: Negative
Formula: C26H43NO6
SMILES: CC(CCC(=O)NCC(=O)O)C1CCC2C1(C(CC3C2C(CC4C3(CCC(C4)O)C)O)O)C
InChI: 
InChIKey: RFDAIACWWDREDC-FRVQLJSFSA-N
RetentionTime: 7.787583
CCS: 
CollisionEnergy: 20-40 eV
InstrumentType: UPLC-QTOF-MS
Comment: PI: Cristina Nerin; Data collector: QiZhi Su, GUIA, University of Zaragoza, Spain; Collision energy: 20-40 V; Instrument: Waters HPLC-QTOF-MS (Xevo G2 QTof); Ionization: ESI; Deconvoluted by MS-DIAL; Column: Waters AtlantisTM premier BEH C18 AX column (2.1 × 100mm x 1.7μm); Flow rate: 0.3mL/min; Mobile phase A and B are water and methnaol, respectively, both with 0.1% formic acid; Gradient elution: from A/B (95/5) to A/B (100/0) in 7min, kept for 4 min, then back to A/B (95/5) in 0.1 min, and maintained for additional 1.9 min (13min in total).; Injection volume: 10 μL
Num peaks: 4
391.28369 218335
392.2869 53776
393.28928 6312
464.30042 28489
Name: Enoxolone
PrecursorMZ: 469.332
PrecursorType: [M-H]-
IonMode: Negative
Formula: C30H46O4
SMILES: CC1(C2CCC3(C(C2(CCC1O)C)C(=O)C=C4C3(CCC5(C4CC(CC5)(C)C(=O)O)C)C)C)C
InChI: 
InChIKey: MPDGHEJMBKOTSU-YKLVYJNSSA-N
RetentionTime: 7.970383
CCS: 
CollisionEnergy: 20-40 eV
InstrumentType: UPLC-QTOF-MS
Comment: PI: Cristina Nerin; Data collector: QiZhi Su, GUIA, University of Zaragoza, Spain; Collision energy: 20-40 V; Instrument: Waters HPLC-QTOF-MS (Xevo G2 QTof); Ionization: ESI; Deconvoluted by MS-DIAL; Column: Waters AtlantisTM premier BEH C18 AX column (2.1 × 100mm x 1.7μm); Flow rate: 0.3mL/min; Mobile phase A and B are water and methnaol, respectively, both with 0.1% formic acid; Gradient elution: from A/B (95/5) to A/B (100/0) in 7min, kept for 4 min, then back to A/B (95/5) in 0.1 min, and maintained for additional 1.9 min (13min in total).; Injection volume: 10 μL
Num peaks: 1
469.33209 390964
Name: Enoxolone
PrecursorMZ: 939.6748
PrecursorType: [2M-H]-
IonMode: Negative
Formula: C30H46O4
SMILES: CC1(C2CCC3(C(C2(CCC1O)C)C(=O)C=C4C3(CCC5(C4CC(CC5)(C)C(=O)O)C)C)C)C
InChI: 
InChIKey: MPDGHEJMBKOTSU-YKLVYJNSSA-N
RetentionTime: 7.993233
CCS: 
CollisionEnergy: 20-40 eV
InstrumentType: UPLC-QTOF-MS
Comment: PI: Cristina Nerin; Data collector: QiZhi Su, GUIA, University of Zaragoza, Spain; Collision energy: 20-40 V; Instrument: Waters HPLC-QTOF-MS (Xevo G2 QTof); Ionization: ESI; Deconvoluted by MS-DIAL; Column: Waters AtlantisTM premier BEH C18 AX column (2.1 × 100mm x 1.7μm); Flow rate: 0.3mL/min; Mobile phase A and B are water and methnaol, respectively, both with 0.1% formic acid; Gradient elution: from A/B (95/5) to A/B (100/0) in 7min, kept for 4 min, then back to A/B (95/5) in 0.1 min, and maintained for additional 1.9 min (13min in total).; Injection volume: 10 μL
Num peaks: 4
469.33237 340121
470.33548 100164
471.33875 14392
939.67426 29425
Name: Glycodeoxycholic acid
PrecursorMZ: 448.3065
PrecursorType: [M-H]-
IonMode: Negative
Formula: C26H43NO5
SMILES: CC(CCC(=O)NCC(=O)O)C1CCC2C1(C(CC3C2CCC4C3(CCC(C4)O)C)O)C
InChI: 
InChIKey: WVULKSPCQVQLCU-BUXLTGKBSA-N
RetentionTime: 8.118867
CCS: 
CollisionEnergy: 20-40 eV
InstrumentType: UPLC-QTOF-MS
Comment: PI: Cristina Nerin; Data collector: QiZhi Su, GUIA, University of Zaragoza, Spain; Collision energy: 20-40 V; Instrument: Waters HPLC-QTOF-MS (Xevo G2 QTof); Ionization: ESI; Deconvoluted by MS-DIAL; Column: Waters AtlantisTM premier BEH C18 AX column (2.1 × 100mm x 1.7μm); Flow rate: 0.3mL/min; Mobile phase A and B are water and methnaol, respectively, both with 0.1% formic acid; Gradient elution: from A/B (95/5) to A/B (100/0) in 7min, kept for 4 min, then back to A/B (95/5) in 0.1 min, and maintained for additional 1.9 min (13min in total).; Injection volume: 10 μL
Num peaks: 2
74.02317 9058
448.30661 361971
Name: Glycodeoxycholic acid
PrecursorMZ: 897.624
PrecursorType: [2M-H]-
IonMode: Negative
Formula: C26H43NO5
SMILES: CC(CCC(=O)NCC(=O)O)C1CCC2C1(C(CC3C2CCC4C3(CCC(C4)O)C)O)C
InChI: 
InChIKey: WVULKSPCQVQLCU-BUXLTGKBSA-N
RetentionTime: 8.134583
CCS: 
CollisionEnergy: 20-40 eV
InstrumentType: UPLC-QTOF-MS
Comment: PI: Cristina Nerin; Data collector: QiZhi Su, GUIA, University of Zaragoza, Spain; Collision energy: 20-40 V; Instrument: Waters HPLC-QTOF-MS (Xevo G2 QTof); Ionization: ESI; Deconvoluted by MS-DIAL; Column: Waters AtlantisTM premier BEH C18 AX column (2.1 × 100mm x 1.7μm); Flow rate: 0.3mL/min; Mobile phase A and B are water and methnaol, respectively, both with 0.1% formic acid; Gradient elution: from A/B (95/5) to A/B (100/0) in 7min, kept for 4 min, then back to A/B (95/5) in 0.1 min, and maintained for additional 1.9 min (13min in total).; Injection volume: 10 μL
Num peaks: 5
74.02348 8861
448.30695 332788
449.31018 83494
450.31195 13112
897.62537 67940
Name: Thiobarbituric Acid
PrecursorMZ: 142.9899
PrecursorType: [M-H]-
IonMode: Negative
Formula: C4H4N2O2S
SMILES: C1C(=O)NC(=S)NC1=O
InChI: 
InChIKey: RVBUGGBMJDPOST-UHFFFAOYSA-N
RetentionTime: 8.66425
CCS: 
CollisionEnergy: 20-40 eV
InstrumentType: UPLC-QTOF-MS
Comment: PI: Cristina Nerin; Data collector: QiZhi Su, GUIA, University of Zaragoza, Spain; Collision energy: 20-40 V; Instrument: Waters HPLC-QTOF-MS (Xevo G2 QTof); Ionization: ESI; Deconvoluted by MS-DIAL; Column: Waters AtlantisTM premier BEH C18 AX column (2.1 × 100mm x 1.7μm); Flow rate: 0.3mL/min; Mobile phase A and B are water and methnaol, respectively, both with 0.1% formic acid; Gradient elution: from A/B (95/5) to A/B (100/0) in 7min, kept for 4 min, then back to A/B (95/5) in 0.1 min, and maintained for additional 1.9 min (13min in total).; Injection volume: 10 μL
Num peaks: 8
65.01577 236
75.00103 11498
76.00172 257
76.99673 407
77.00617 187
91.02494 132
96.95823 286
142.9899 12262
Name: Thiobarbituric Acid
PrecursorMZ: 142.9898
PrecursorType: [M-H]-
IonMode: Negative
Formula: C4H4N2O2S
SMILES: C1C(=O)NC(=S)NC1=O
InChI: 
InChIKey: RVBUGGBMJDPOST-UHFFFAOYSA-N
RetentionTime: 8.915517
CCS: 
CollisionEnergy: 20-40 eV
InstrumentType: UPLC-QTOF-MS
Comment: PI: Cristina Nerin; Data collector: QiZhi Su, GUIA, University of Zaragoza, Spain; Collision energy: 20-40 V; Instrument: Waters HPLC-QTOF-MS (Xevo G2 QTof); Ionization: ESI; Deconvoluted by MS-DIAL; Column: Waters AtlantisTM premier BEH C18 AX column (2.1 × 100mm x 1.7μm); Flow rate: 0.3mL/min; Mobile phase A and B are water and methnaol, respectively, both with 0.1% formic acid; Gradient elution: from A/B (95/5) to A/B (100/0) in 7min, kept for 4 min, then back to A/B (95/5) in 0.1 min, and maintained for additional 1.9 min (13min in total).; Injection volume: 10 μL
Num peaks: 8
57.97499 206
65.01446 154
75.00089 9802
75.01049 244
76.99609 264
96.96074 197
128.01987 142
142.98996 11406
Name: Thiobarbituric Acid
PrecursorMZ: 142.9899
PrecursorType: [M-H]-
IonMode: Negative
Formula: C4H4N2O2S
SMILES: C1C(=O)NC(=S)NC1=O
InChI: 
InChIKey: RVBUGGBMJDPOST-UHFFFAOYSA-N
RetentionTime: 8.995517
CCS: 
CollisionEnergy: 20-40 eV
InstrumentType: UPLC-QTOF-MS
Comment: PI: Cristina Nerin; Data collector: QiZhi Su, GUIA, University of Zaragoza, Spain; Collision energy: 20-40 V; Instrument: Waters HPLC-QTOF-MS (Xevo G2 QTof); Ionization: ESI; Deconvoluted by MS-DIAL; Column: Waters AtlantisTM premier BEH C18 AX column (2.1 × 100mm x 1.7μm); Flow rate: 0.3mL/min; Mobile phase A and B are water and methnaol, respectively, both with 0.1% formic acid; Gradient elution: from A/B (95/5) to A/B (100/0) in 7min, kept for 4 min, then back to A/B (95/5) in 0.1 min, and maintained for additional 1.9 min (13min in total).; Injection volume: 10 μL
Num peaks: 4
75.00082 2183
76.99216 126
76.99815 124
142.98975 10727
Name: Silymarin
PrecursorMZ: 481.1116
PrecursorType: [M-H]-
IonMode: Negative
Formula: C25H22O10
SMILES: COC1=C(C=CC(=C1)C2C(OC3=C(O2)C=C(C=C3)C4C(C(=O)C5=C(C=C(C=C5O4)O)O)O)CO)O
InChI: 
InChIKey: SEBFKMXJBCUCAI-WAABAYLZSA-N
RetentionTime: 5.120183
CCS: 
CollisionEnergy: 20-40 eV
InstrumentType: UPLC-QTOF-MS
Comment: PI: Cristina Nerin; Data collector: QiZhi Su, GUIA, University of Zaragoza, Spain; Collision energy: 20-40 V; Instrument: Waters HPLC-QTOF-MS (Xevo G2 QTof); Ionization: ESI; Deconvoluted by MS-DIAL; Column: Waters AtlantisTM premier BEH C18 AX column (2.1 × 100mm x 1.7μm); Flow rate: 0.3mL/min; Mobile phase A and B are water and methnaol, respectively, both with 0.1% formic acid; Gradient elution: from A/B (95/5) to A/B (100/0) in 7min, kept for 4 min, then back to A/B (95/5) in 0.1 min, and maintained for additional 1.9 min (13min in total).; Injection volume: 10 μL
Num peaks: 8
125.02237 5483
178.99576 1937
347.0806 441
355.08023 928
389.10089 406
463.09689 1560
481.1124 39586
481.16187 571
Name: Silymarin
PrecursorMZ: 963.2374
PrecursorType: [2M-H]-
IonMode: Negative
Formula: C25H22O10
SMILES: COC1=C(C=CC(=C1)C2C(OC3=C(O2)C=C(C=C3)C4C(C(=O)C5=C(C=C(C=C5O4)O)O)O)CO)O
InChI: 
InChIKey: SEBFKMXJBCUCAI-WAABAYLZSA-N
RetentionTime: 5.123983
CCS: 
CollisionEnergy: 20-40 eV
InstrumentType: UPLC-QTOF-MS
Comment: PI: Cristina Nerin; Data collector: QiZhi Su, GUIA, University of Zaragoza, Spain; Collision energy: 20-40 V; Instrument: Waters HPLC-QTOF-MS (Xevo G2 QTof); Ionization: ESI; Deconvoluted by MS-DIAL; Column: Waters AtlantisTM premier BEH C18 AX column (2.1 × 100mm x 1.7μm); Flow rate: 0.3mL/min; Mobile phase A and B are water and methnaol, respectively, both with 0.1% formic acid; Gradient elution: from A/B (95/5) to A/B (100/0) in 7min, kept for 4 min, then back to A/B (95/5) in 0.1 min, and maintained for additional 1.9 min (13min in total).; Injection volume: 10 μL
Num peaks: 45
125.02111 7525
126.01971 470
126.02859 470
151.00066 1198
152.00919 950
153.01805 908
178.99536 3046
179.01527 3547
179.98999 566
180.00288 592
180.01915 707
181.01013 350
287.05136 350
310.03967 423
310.05591 455
325.05807 3844
325.07028 3761
326.07278 802
337.05685 975
337.07172 1035
347.09229 502
355.08127 2175
355.09418 1517
356.08768 492
365.09927 393
389.09775 517
389.11249 457
407.10034 528
407.11981 568
419.12576 359
423.10327 582
433.09021 2526
434.09348 583
435.10263 872
451.10141 2761
452.1127 391
453.10019 586
453.12238 596
463.10202 1861
464.1044 414
481.1113 34622
482.11432 7647
483.11517 1492
963.22424 1559
963.25604 1038
Name: Silymarin
PrecursorMZ: 481.1124
PrecursorType: [M-H]-
IonMode: Negative
Formula: C25H22O10
SMILES: COC1=C(C=CC(=C1)C2C(OC3=C(O2)C=C(C=C3)C4C(C(=O)C5=C(C=C(C=C5O4)O)O)O)CO)O
InChI: 
InChIKey: SEBFKMXJBCUCAI-WAABAYLZSA-N
RetentionTime: 5.920133
CCS: 
CollisionEnergy: 20-40 eV
InstrumentType: UPLC-QTOF-MS
Comment: PI: Cristina Nerin; Data collector: QiZhi Su, GUIA, University of Zaragoza, Spain; Collision energy: 20-40 V; Instrument: Waters HPLC-QTOF-MS (Xevo G2 QTof); Ionization: ESI; Deconvoluted by MS-DIAL; Column: Waters AtlantisTM premier BEH C18 AX column (2.1 × 100mm x 1.7μm); Flow rate: 0.3mL/min; Mobile phase A and B are water and methnaol, respectively, both with 0.1% formic acid; Gradient elution: from A/B (95/5) to A/B (100/0) in 7min, kept for 4 min, then back to A/B (95/5) in 0.1 min, and maintained for additional 1.9 min (13min in total).; Injection volume: 10 μL
Num peaks: 16
125.0217 11018
126.02459 767
150.99957 1571
152.00902 4580
178.99561 2215
180.00386 2849
257.04214 1426
273.03745 1817
284.03577 1136
301.03217 7973
302.03595 1249
451.10162 724
453.10498 1335
453.12189 1565
463.10022 1246
481.11191 72335
Name: Silymarin
PrecursorMZ: 963.2337
PrecursorType: [2M-H]-
IonMode: Negative
Formula: C25H22O10
SMILES: COC1=C(C=CC(=C1)C2C(OC3=C(O2)C=C(C=C3)C4C(C(=O)C5=C(C=C(C=C5O4)O)O)O)CO)O
InChI: 
InChIKey: SEBFKMXJBCUCAI-WAABAYLZSA-N
RetentionTime: 5.920133
CCS: 
CollisionEnergy: 20-40 eV
InstrumentType: UPLC-QTOF-MS
Comment: PI: Cristina Nerin; Data collector: QiZhi Su, GUIA, University of Zaragoza, Spain; Collision energy: 20-40 V; Instrument: Waters HPLC-QTOF-MS (Xevo G2 QTof); Ionization: ESI; Deconvoluted by MS-DIAL; Column: Waters AtlantisTM premier BEH C18 AX column (2.1 × 100mm x 1.7μm); Flow rate: 0.3mL/min; Mobile phase A and B are water and methnaol, respectively, both with 0.1% formic acid; Gradient elution: from A/B (95/5) to A/B (100/0) in 7min, kept for 4 min, then back to A/B (95/5) in 0.1 min, and maintained for additional 1.9 min (13min in total).; Injection volume: 10 μL
Num peaks: 21
125.0217 3566
125.03836 3563
152.00902 1890
178.99561 899
180.00386 1260
257.02411 519
257.04214 436
257.05823 405
273.03745 425
273.05453 619
301.03217 3929
302.03595 590
451.10162 404
453.10498 928
453.12189 925
463.10022 1010
463.11801 1298
481.11191 39928
482.11533 8985
483.12152 1636
963.23657 3404
Name: Cholic acid
PrecursorMZ: 815.5709
PrecursorType: [2M-H]-
IonMode: Negative
Formula: C24H40O5
SMILES: CC(CCC(=O)O)C1CCC2C1(C(CC3C2C(CC4C3(CCC(C4)O)C)O)O)C
InChI: 
InChIKey: BHQCQFFYRZLCQQ-OELDTZBJSA-N
RetentionTime: 7.433033
CCS: 
CollisionEnergy: 20-40 eV
InstrumentType: UPLC-QTOF-MS
Comment: PI: Cristina Nerin; Data collector: QiZhi Su, GUIA, University of Zaragoza, Spain; Collision energy: 20-40 V; Instrument: Waters HPLC-QTOF-MS (Xevo G2 QTof); Ionization: ESI; Deconvoluted by MS-DIAL; Column: Waters AtlantisTM premier BEH C18 AX column (2.1 × 100mm x 1.7μm); Flow rate: 0.3mL/min; Mobile phase A and B are water and methnaol, respectively, both with 0.1% formic acid; Gradient elution: from A/B (95/5) to A/B (100/0) in 7min, kept for 4 min, then back to A/B (95/5) in 0.1 min, and maintained for additional 1.9 min (13min in total).; Injection volume: 10 μL
Num peaks: 2
815.5708 101524
815.6369 1242
Name: Cholic acid
PrecursorMZ: 407.2799
PrecursorType: [M-H]-
IonMode: Negative
Formula: C24H40O5
SMILES: CC(CCC(=O)O)C1CCC2C1(C(CC3C2C(CC4C3(CCC(C4)O)C)O)O)C
InChI: 
InChIKey: BHQCQFFYRZLCQQ-OELDTZBJSA-N
RetentionTime: 7.455867
CCS: 
CollisionEnergy: 20-40 eV
InstrumentType: UPLC-QTOF-MS
Comment: PI: Cristina Nerin; Data collector: QiZhi Su, GUIA, University of Zaragoza, Spain; Collision energy: 20-40 V; Instrument: Waters HPLC-QTOF-MS (Xevo G2 QTof); Ionization: ESI; Deconvoluted by MS-DIAL; Column: Waters AtlantisTM premier BEH C18 AX column (2.1 × 100mm x 1.7μm); Flow rate: 0.3mL/min; Mobile phase A and B are water and methnaol, respectively, both with 0.1% formic acid; Gradient elution: from A/B (95/5) to A/B (100/0) in 7min, kept for 4 min, then back to A/B (95/5) in 0.1 min, and maintained for additional 1.9 min (13min in total).; Injection volume: 10 μL
Num peaks: 1
407.27985 335085
Name: Cholic acid
PrecursorMZ: 453.2849
PrecursorType: [M+FA-H]-
IonMode: Negative
Formula: C24H40O5
SMILES: CC(CCC(=O)O)C1CCC2C1(C(CC3C2C(CC4C3(CCC(C4)O)C)O)O)C
InChI: 
InChIKey: BHQCQFFYRZLCQQ-OELDTZBJSA-N
RetentionTime: 7.455867
CCS: 
CollisionEnergy: 20-40 eV
InstrumentType: UPLC-QTOF-MS
Comment: PI: Cristina Nerin; Data collector: QiZhi Su, GUIA, University of Zaragoza, Spain; Collision energy: 20-40 V; Instrument: Waters HPLC-QTOF-MS (Xevo G2 QTof); Ionization: ESI; Deconvoluted by MS-DIAL; Column: Waters AtlantisTM premier BEH C18 AX column (2.1 × 100mm x 1.7μm); Flow rate: 0.3mL/min; Mobile phase A and B are water and methnaol, respectively, both with 0.1% formic acid; Gradient elution: from A/B (95/5) to A/B (100/0) in 7min, kept for 4 min, then back to A/B (95/5) in 0.1 min, and maintained for additional 1.9 min (13min in total).; Injection volume: 10 μL
Num peaks: 3
407.27985 335085
408.28339 75180
409.28592 8822
Name: Ursodeoxycholic acid
PrecursorMZ: 391.2839
PrecursorType: [M-H]-
IonMode: Negative
Formula: C24H40O4
SMILES: CC(CCC(=O)O)C1CCC2C1(CCC3C2C(CC4C3(CCC(C4)O)C)O)C
InChI: 
InChIKey: RUDATBOHQWOJDD-UZVSRGJWSA-N
RetentionTime: 7.326367
CCS: 
CollisionEnergy: 20-40 eV
InstrumentType: UPLC-QTOF-MS
Comment: PI: Cristina Nerin; Data collector: QiZhi Su, GUIA, University of Zaragoza, Spain; Collision energy: 20-40 V; Instrument: Waters HPLC-QTOF-MS (Xevo G2 QTof); Ionization: ESI; Deconvoluted by MS-DIAL; Column: Waters AtlantisTM premier BEH C18 AX column (2.1 × 100mm x 1.7μm); Flow rate: 0.3mL/min; Mobile phase A and B are water and methnaol, respectively, both with 0.1% formic acid; Gradient elution: from A/B (95/5) to A/B (100/0) in 7min, kept for 4 min, then back to A/B (95/5) in 0.1 min, and maintained for additional 1.9 min (13min in total).; Injection volume: 10 μL
Num peaks: 1
391.28339 382411
Name: Tioxolone
PrecursorMZ: 334.9709
PrecursorType: [2M-H]-
IonMode: Negative
Formula: C7H4O3S
SMILES: C1=CC2=C(C=C1O)OC(=O)S2
InChI: 
InChIKey: SLYPOVJCSQHITR-UHFFFAOYSA-N
RetentionTime: 5.33335
CCS: 
CollisionEnergy: 20-40 eV
InstrumentType: UPLC-QTOF-MS
Comment: PI: Cristina Nerin; Data collector: QiZhi Su, GUIA, University of Zaragoza, Spain; Collision energy: 20-40 V; Instrument: Waters HPLC-QTOF-MS (Xevo G2 QTof); Ionization: ESI; Deconvoluted by MS-DIAL; Column: Waters AtlantisTM premier BEH C18 AX column (2.1 × 100mm x 1.7μm); Flow rate: 0.3mL/min; Mobile phase A and B are water and methnaol, respectively, both with 0.1% formic acid; Gradient elution: from A/B (95/5) to A/B (100/0) in 7min, kept for 4 min, then back to A/B (95/5) in 0.1 min, and maintained for additional 1.9 min (13min in total).; Injection volume: 10 μL
Num peaks: 18
63.0246 146
79.01665 851
82.99484 258
83.00409 133
84.97564 141
94.99506 510
110.98889 10602
111.99033 377
111.99577 145
112.98642 581
122.99004 1509
123.98946 116
124.98323 115
138.98354 7610
139.98598 504
140.97855 145
140.98956 124
166.97858 1841
Name: Nitrofurazone
PrecursorMZ: 197.0293
PrecursorType: [M-H]-
IonMode: Negative
Formula: C6H6N4O4
SMILES: C1=C(OC(=C1)[N+](=O)[O-])C=NNC(=O)N
InChI: 
InChIKey: IAIWVQXQOWNYOU-FPYGCLRLSA-N
RetentionTime: 3.675783
CCS: 
CollisionEnergy: 20-40 eV
InstrumentType: UPLC-QTOF-MS
Comment: PI: Cristina Nerin; Data collector: QiZhi Su, GUIA, University of Zaragoza, Spain; Collision energy: 20-40 V; Instrument: Waters HPLC-QTOF-MS (Xevo G2 QTof); Ionization: ESI; Deconvoluted by MS-DIAL; Column: Waters AtlantisTM premier BEH C18 AX column (2.1 × 100mm x 1.7μm); Flow rate: 0.3mL/min; Mobile phase A and B are water and methnaol, respectively, both with 0.1% formic acid; Gradient elution: from A/B (95/5) to A/B (100/0) in 7min, kept for 4 min, then back to A/B (95/5) in 0.1 min, and maintained for additional 1.9 min (13min in total).; Injection volume: 10 μL
Num peaks: 26
64.0133 15
64.01752 15
79.02784 257
79.03184 258
79.95975 23
80.01556 35
80.02304 188
80.03397 188
80.03927 181
80.97211 17
82.01429 95
84.01669 18
84.02243 18
89.99573 71
90.00001 71
90.00556 71
92.02448 20
95.01195 306
116.9258 18
120.93433 16
120.94331 16
124.02008 50
124.0264 50
150.02724 100
179.96626 14
197.03003 1365
Name: Tioxolone
PrecursorMZ: 166.9783
PrecursorType: [M-H]-
IonMode: Negative
Formula: C7H4O3S
SMILES: C1=CC2=C(C=C1O)OC(=O)S2
InChI: 
InChIKey: SLYPOVJCSQHITR-UHFFFAOYSA-N
RetentionTime: 5.352383
CCS: 
CollisionEnergy: 20-40 eV
InstrumentType: UPLC-QTOF-MS
Comment: PI: Cristina Nerin; Data collector: QiZhi Su, GUIA, University of Zaragoza, Spain; Collision energy: 20-40 V; Instrument: Waters HPLC-QTOF-MS (Xevo G2 QTof); Ionization: ESI; Deconvoluted by MS-DIAL; Column: Waters AtlantisTM premier BEH C18 AX column (2.1 × 100mm x 1.7μm); Flow rate: 0.3mL/min; Mobile phase A and B are water and methnaol, respectively, both with 0.1% formic acid; Gradient elution: from A/B (95/5) to A/B (100/0) in 7min, kept for 4 min, then back to A/B (95/5) in 0.1 min, and maintained for additional 1.9 min (13min in total).; Injection volume: 10 μL
Num peaks: 23
63.0218 144
68.97871 223
68.98739 223
79.01737 1040
82.9944 396
84.9883 144
94.98548 559
94.99334 567
95.00214 571
110.98889 12696
111.98888 552
111.99681 552
112.97411 489
112.98708 492
122.98875 1898
123.00664 1892
138.98286 8082
139.98477 511
139.99281 506
140.97687 328
140.99307 306
166.97874 2547
166.99583 145
Name: Niflumic acid
PrecursorMZ: 281.0539
PrecursorType: [M-H]-
IonMode: Negative
Formula: C13H9F3N2O2
SMILES: C1=CC(=CC(=C1)NC2=C(C=CC=N2)C(=O)O)C(F)(F)F
InChI: 
InChIKey: JZFPYUNJRRFVQU-UHFFFAOYSA-N
RetentionTime: 9.658783
CCS: 
CollisionEnergy: 20-40 eV
InstrumentType: UPLC-QTOF-MS
Comment: PI: Cristina Nerin; Data collector: QiZhi Su, GUIA, University of Zaragoza, Spain; Collision energy: 20-40 V; Instrument: Waters HPLC-QTOF-MS (Xevo G2 QTof); Ionization: ESI; Deconvoluted by MS-DIAL; Column: Waters AtlantisTM premier BEH C18 AX column (2.1 × 100mm x 1.7μm); Flow rate: 0.3mL/min; Mobile phase A and B are water and methnaol, respectively, both with 0.1% formic acid; Gradient elution: from A/B (95/5) to A/B (100/0) in 7min, kept for 4 min, then back to A/B (95/5) in 0.1 min, and maintained for additional 1.9 min (13min in total).; Injection volume: 10 μL
Num peaks: 13
177.04398 70207
178.04611 7727
195.0343 5877
197.05037 25332
210.05151 8907
216.04866 45915
217.05612 51354
218.05901 5420
235.04762 77307
236.05153 8624
237.06342 413077
238.06633 52087
281.05334 202814
Name: Niflumic acid
PrecursorMZ: 563.1169
PrecursorType: [2M-H]-
IonMode: Negative
Formula: C13H9F3N2O2
SMILES: C1=CC(=CC(=C1)NC2=C(C=CC=N2)C(=O)O)C(F)(F)F
InChI: 
InChIKey: JZFPYUNJRRFVQU-UHFFFAOYSA-N
RetentionTime: 9.674017
CCS: 
CollisionEnergy: 20-40 eV
InstrumentType: UPLC-QTOF-MS
Comment: PI: Cristina Nerin; Data collector: QiZhi Su, GUIA, University of Zaragoza, Spain; Collision energy: 20-40 V; Instrument: Waters HPLC-QTOF-MS (Xevo G2 QTof); Ionization: ESI; Deconvoluted by MS-DIAL; Column: Waters AtlantisTM premier BEH C18 AX column (2.1 × 100mm x 1.7μm); Flow rate: 0.3mL/min; Mobile phase A and B are water and methnaol, respectively, both with 0.1% formic acid; Gradient elution: from A/B (95/5) to A/B (100/0) in 7min, kept for 4 min, then back to A/B (95/5) in 0.1 min, and maintained for additional 1.9 min (13min in total).; Injection volume: 10 μL
Num peaks: 14
177.04401 68718
178.04781 7345
195.0351 5979
197.05057 24010
210.05191 8086
216.04871 42017
217.05612 52382
218.05951 5229
235.0477 72842
236.05157 8725
237.06332 435945
238.06587 53384
281.05331 240184
282.05673 32236
Name: Tioxolone
PrecursorMZ: 166.9781
PrecursorType: [M-H]-
IonMode: Negative
Formula: C7H4O3S
SMILES: C1=CC2=C(C=C1O)OC(=O)S2
InChI: 
InChIKey: SLYPOVJCSQHITR-UHFFFAOYSA-N
RetentionTime: 5.356167
CCS: 
CollisionEnergy: 20-40 eV
InstrumentType: UPLC-QTOF-MS
Comment: PI: Cristina Nerin; Data collector: QiZhi Su, GUIA, University of Zaragoza, Spain; Collision energy: 20-40 V; Instrument: Waters HPLC-QTOF-MS (Xevo G2 QTof); Ionization: ESI; Deconvoluted by MS-DIAL; Column: Waters AtlantisTM premier BEH C18 AX column (2.1 × 100mm x 1.7μm); Flow rate: 0.3mL/min; Mobile phase A and B are water and methnaol, respectively, both with 0.1% formic acid; Gradient elution: from A/B (95/5) to A/B (100/0) in 7min, kept for 4 min, then back to A/B (95/5) in 0.1 min, and maintained for additional 1.9 min (13min in total).; Injection volume: 10 μL
Num peaks: 18
68.98032 673
68.99722 675
79.01765 2774
94.99445 1991
95.00419 2024
110.97054 36671
110.98856 36465
111.98801 1312
111.99425 1377
122.97014 6098
122.98867 6099
123.98851 483
123.99474 483
138.98341 31010
139.98805 376
140.97868 1252
140.99376 1258
166.97829 9331
Name: Quinine
PrecursorMZ: 369.1796
PrecursorType: [M+FA-H]-
IonMode: Negative
Formula: C20H24N2O2
SMILES: COC1=CC2=C(C=CN=C2C=C1)C(C3CC4CCN3CC4C=C)O
InChI: 
InChIKey: LOUPRKONTZGTKE-WZBLMQSHSA-N
RetentionTime: 0.89375
CCS: 
CollisionEnergy: 20-40 eV
InstrumentType: UPLC-QTOF-MS
Comment: PI: Cristina Nerin; Data collector: QiZhi Su, GUIA, University of Zaragoza, Spain; Collision energy: 20-40 V; Instrument: Waters HPLC-QTOF-MS (Xevo G2 QTof); Ionization: ESI; Deconvoluted by MS-DIAL; Column: Waters AtlantisTM premier BEH C18 AX column (2.1 × 100mm x 1.7μm); Flow rate: 0.3mL/min; Mobile phase A and B are water and methnaol, respectively, both with 0.1% formic acid; Gradient elution: from A/B (95/5) to A/B (100/0) in 7min, kept for 4 min, then back to A/B (95/5) in 0.1 min, and maintained for additional 1.9 min (13min in total).; Injection volume: 10 μL
Num peaks: 156
58.65105 39
59.01162 25
59.15523 25
63.96012 19
71.01416 20
78.91959 67
78.98376 301
79.98592 21
80.9118 27
80.98196 25
81.52721 25
83.9282 24
88.99811 54
89.00353 111
89.02004 20
94.97715 50
101.93644 19
102.94925 25
102.96646 26
104.70194 21
107.02724 32
107.86331 24
109.01642 42
109.04385 25
110.02063 35
113.0261 40
114.52499 24
115.95576 33
117.93669 20
118.02809 20
118.99087 28
120.04221 31
120.98589 20
121.02435 22
130.04355 22
131.00586 110
131.03523 24
132.0031 28
132.74355 38
133.54123 44
133.56256 32
134.98149 29
138.03622 93
139.03375 41
142.06496 24
142.88577 28
144.04509 25
145.03229 45
145.04521 56
145.93167 28
145.97386 21
146.94225 27
146.97466 39
148.97966 20
148.99811 20
149.90282 21
150.88135 40
150.95599 36
152.02979 22
152.07481 31
155.94508 36
155.99892 19
156.03395 77
156.05521 20
157.04811 73
159.02708 28
159.06421 46
159.89775 26
159.94049 64
162.94043 20
164.944 28
165.11285 21
166.9176 20
167.96121 20
169.87514 19
170.85013 19
170.95859 135
171.93924 44
171.97879 42
173.98428 121
176.97487 26
176.98433 20
178.97116 32
181.07443 24
183.04123 21
184.0184 24
185.03951 19
188.05515 26
188.06996 43
188.94623 21
189.05324 19
190.99794 68
191.99548 20
193.03212 52
199.02414 36
199.05084 92
202.98686 23
204.87422 19
208.32552 30
212.88834 19
213.0488 35
215.07858 28
216.04678 23
216.93219 24
217.0291 20
218.0246 41
219.02905 20
223.90656 22
224.04689 21
226.91789 25
231.84412 45
231.94038 24
232.09178 20
234.90314 28
234.9951 23
236.97578 26
237.0325 22
238.96877 20
240.43832 30
244.97684 25
245.02831 21
245.05722 22
245.77739 37
246.05119 23
248.03978 20
250.11803 20
259.10681 70
260.1243 23
264.05042 32
271.06326 30
273.03476 27
281.07104 24
291.14444 60
297.08871 25
309.14212 21
315.02737 23
316.01456 22
331.05988 25
334.02045 23
338.91803 31
338.92953 22
343.03522 20
347.47653 20
347.9888 23
349.05313 24
349.96936 24
349.98053 24
352.14096 46
352.17383 20
354.15305 35
360.14886 32
361.14905 45
364.95926 22
365.07086 45
369.17685 643
369.19672 179
Name: Sulfasalazine
PrecursorMZ: 397.0589
PrecursorType: [M-H]-
IonMode: Negative
Formula: C18H14N4O5S
SMILES: C1=CC=NC(=C1)NS(=O)(=O)C2=CC=C(C=C2)N=NC3=CC(=C(C=C3)O)C(=O)O
InChI: 
InChIKey: NCEXYHBECQHGNR-UHFFFAOYSA-N
RetentionTime: 11.41533
CCS: 
CollisionEnergy: 20-40 eV
InstrumentType: UPLC-QTOF-MS
Comment: PI: Cristina Nerin; Data collector: QiZhi Su, GUIA, University of Zaragoza, Spain; Collision energy: 20-40 V; Instrument: Waters HPLC-QTOF-MS (Xevo G2 QTof); Ionization: ESI; Deconvoluted by MS-DIAL; Column: Waters AtlantisTM premier BEH C18 AX column (2.1 × 100mm x 1.7μm); Flow rate: 0.3mL/min; Mobile phase A and B are water and methnaol, respectively, both with 0.1% formic acid; Gradient elution: from A/B (95/5) to A/B (100/0) in 7min, kept for 4 min, then back to A/B (95/5) in 0.1 min, and maintained for additional 1.9 min (13min in total).; Injection volume: 10 μL
Num peaks: 12
92.02436 1943
168.06598 782
169.06419 413
196.06099 9462
197.06894 35916
198.07135 3775
212.05592 2512
240.05124 3832
241.05806 1463
289.1076 3183
290.11429 437
397.05869 19784
Name: Tioxolone
PrecursorMZ: 334.9658
PrecursorType: [2M-H]-
IonMode: Negative
Formula: C7H4O3S
SMILES: C1=CC2=C(C=C1O)OC(=O)S2
InChI: 
InChIKey: SLYPOVJCSQHITR-UHFFFAOYSA-N
RetentionTime: 5.356167
CCS: 
CollisionEnergy: 20-40 eV
InstrumentType: UPLC-QTOF-MS
Comment: PI: Cristina Nerin; Data collector: QiZhi Su, GUIA, University of Zaragoza, Spain; Collision energy: 20-40 V; Instrument: Waters HPLC-QTOF-MS (Xevo G2 QTof); Ionization: ESI; Deconvoluted by MS-DIAL; Column: Waters AtlantisTM premier BEH C18 AX column (2.1 × 100mm x 1.7μm); Flow rate: 0.3mL/min; Mobile phase A and B are water and methnaol, respectively, both with 0.1% formic acid; Gradient elution: from A/B (95/5) to A/B (100/0) in 7min, kept for 4 min, then back to A/B (95/5) in 0.1 min, and maintained for additional 1.9 min (13min in total).; Injection volume: 10 μL
Num peaks: 18
68.98032 673
68.99722 675
79.01765 2774
94.99445 1991
95.00419 2024
110.97054 36671
110.98856 36465
111.98801 1312
111.99425 1377
122.97014 6098
122.98867 6099
123.98851 483
123.99474 483
138.98341 31010
139.98805 376
140.97868 1252
140.99376 1258
167.9901 811
Name: Silibinin
PrecursorMZ: 963.2355
PrecursorType: [2M-H]-
IonMode: Negative
Formula: C25H22O10
SMILES: COC1=C(C=CC(=C1)C2C(OC3=C(O2)C=C(C=C3)C4C(C(=O)C5=C(C=C(C=C5O4)O)O)O)CO)O
InChI: 
InChIKey: SEBFKMXJBCUCAI-HKTJVKLFSA-N
RetentionTime: 5.8097
CCS: 
CollisionEnergy: 20-40 eV
InstrumentType: UPLC-QTOF-MS
Comment: PI: Cristina Nerin; Data collector: QiZhi Su, GUIA, University of Zaragoza, Spain; Collision energy: 20-40 V; Instrument: Waters HPLC-QTOF-MS (Xevo G2 QTof); Ionization: ESI; Deconvoluted by MS-DIAL; Column: Waters AtlantisTM premier BEH C18 AX column (2.1 × 100mm x 1.7μm); Flow rate: 0.3mL/min; Mobile phase A and B are water and methnaol, respectively, both with 0.1% formic acid; Gradient elution: from A/B (95/5) to A/B (100/0) in 7min, kept for 4 min, then back to A/B (95/5) in 0.1 min, and maintained for additional 1.9 min (13min in total).; Injection volume: 10 μL
Num peaks: 13
125.02185 16509
151.00128 2334
152.00911 6221
178.99515 2913
180.00288 2570
273.03717 2392
301.03238 11914
453.11984 3168
463.10007 3841
481.11218 198036
482.11545 45325
483.11765 8024
963.23602 27143
Name: Silibinin
PrecursorMZ: 481.1124
PrecursorType: [M-H]-
IonMode: Negative
Formula: C25H22O10
SMILES: COC1=C(C=CC(=C1)C2C(OC3=C(O2)C=C(C=C3)C4C(C(=O)C5=C(C=C(C=C5O4)O)O)O)CO)O
InChI: 
InChIKey: SEBFKMXJBCUCAI-HKTJVKLFSA-N
RetentionTime: 5.8668
CCS: 
CollisionEnergy: 20-40 eV
InstrumentType: UPLC-QTOF-MS
Comment: PI: Cristina Nerin; Data collector: QiZhi Su, GUIA, University of Zaragoza, Spain; Collision energy: 20-40 V; Instrument: Waters HPLC-QTOF-MS (Xevo G2 QTof); Ionization: ESI; Deconvoluted by MS-DIAL; Column: Waters AtlantisTM premier BEH C18 AX column (2.1 × 100mm x 1.7μm); Flow rate: 0.3mL/min; Mobile phase A and B are water and methnaol, respectively, both with 0.1% formic acid; Gradient elution: from A/B (95/5) to A/B (100/0) in 7min, kept for 4 min, then back to A/B (95/5) in 0.1 min, and maintained for additional 1.9 min (13min in total).; Injection volume: 10 μL
Num peaks: 12
125.02158 15452
151.00259 2085
152.00945 5910
178.99474 2792
180.00433 3595
257.04517 2424
273.03976 2187
301.03305 14120
302.03864 2261
453.11707 4592
463.10339 3125
481.11215 206834
Name: Dexamethasone
PrecursorMZ: 391.189
PrecursorType: [M-H]-
IonMode: Negative
Formula: C22H29FO5
SMILES: CC1CC2C3CCC4=CC(=O)C=CC4(C3(C(CC2(C1(C(=O)CO)O)C)O)F)C
InChI: 
InChIKey: UREBDLICKHMUKA-CXSFZGCWSA-N
RetentionTime: 6.39645
CCS: 
CollisionEnergy: 20-40 eV
InstrumentType: UPLC-QTOF-MS
Comment: PI: Cristina Nerin; Data collector: QiZhi Su, GUIA, University of Zaragoza, Spain; Collision energy: 20-40 V; Instrument: Waters HPLC-QTOF-MS (Xevo G2 QTof); Ionization: ESI; Deconvoluted by MS-DIAL; Column: Waters AtlantisTM premier BEH C18 AX column (2.1 × 100mm x 1.7μm); Flow rate: 0.3mL/min; Mobile phase A and B are water and methnaol, respectively, both with 0.1% formic acid; Gradient elution: from A/B (95/5) to A/B (100/0) in 7min, kept for 4 min, then back to A/B (95/5) in 0.1 min, and maintained for additional 1.9 min (13min in total).; Injection volume: 10 μL
Num peaks: 34
165.05252 765
174.95296 1547
176.04198 1007
186.04961 901
186.06584 1096
186.07625 1067
190.06157 1450
241.11635 728
265.11917 1027
277.08334 1301
279.09961 1275
291.09891 2096
292.10724 29245
293.11099 7374
307.13058 71917
308.13467 16083
309.14084 1156
310.11813 9915
311.12241 2524
311.16153 2575
325.14117 47192
326.14517 8799
327.13861 4216
328.1355 769
328.14764 801
341.15714 961
341.17343 1637
343.16867 2493
343.18811 2729
345.14746 20199
346.1517 2577
362.18228 45164
363.18546 1528
391.18866 2041
Name: Dexamethasone
PrecursorMZ: 829.3962
PrecursorType: [2M+FA-H]-
IonMode: Negative
Formula: C22H29FO5
SMILES: CC1CC2C3CCC4=CC(=O)C=CC4(C3(C(CC2(C1(C(=O)CO)O)C)O)F)C
InChI: 
InChIKey: UREBDLICKHMUKA-CXSFZGCWSA-N
RetentionTime: 6.39645
CCS: 
CollisionEnergy: 20-40 eV
InstrumentType: UPLC-QTOF-MS
Comment: PI: Cristina Nerin; Data collector: QiZhi Su, GUIA, University of Zaragoza, Spain; Collision energy: 20-40 V; Instrument: Waters HPLC-QTOF-MS (Xevo G2 QTof); Ionization: ESI; Deconvoluted by MS-DIAL; Column: Waters AtlantisTM premier BEH C18 AX column (2.1 × 100mm x 1.7μm); Flow rate: 0.3mL/min; Mobile phase A and B are water and methnaol, respectively, both with 0.1% formic acid; Gradient elution: from A/B (95/5) to A/B (100/0) in 7min, kept for 4 min, then back to A/B (95/5) in 0.1 min, and maintained for additional 1.9 min (13min in total).; Injection volume: 10 μL
Num peaks: 39
165.05252 869
174.95296 838
176.04198 1007
186.04961 901
186.06584 1096
186.07625 1067
190.06157 1450
204.07108 810
241.11635 728
265.11917 850
277.08334 1523
279.09961 1275
291.09891 2096
292.10724 30448
293.11099 7374
294.11539 847
307.13058 71917
308.13467 16083
309.14084 1619
310.11813 9901
311.12241 2524
311.16153 2888
325.14117 47192
326.14517 8799
327.13861 4216
328.1355 769
328.14764 801
341.15714 767
341.17343 1375
343.16867 2861
343.18811 2729
345.14746 20199
346.1517 2065
362.18228 45164
363.18546 4269
437.19479 46835
438.19745 9869
784.3725 830
829.39575 8405
Name: Dexamethasone
PrecursorMZ: 437.1951
PrecursorType: [M-H]-
IonMode: Negative
Formula: C22H29FO5
SMILES: CC1CC2C3CCC4=CC(=O)C=CC4(C3(C(CC2(C1(C(=O)CO)O)C)O)F)C
InChI: 
InChIKey: UREBDLICKHMUKA-CXSFZGCWSA-N
RetentionTime: 6.404067
CCS: 
CollisionEnergy: 20-40 eV
InstrumentType: UPLC-QTOF-MS
Comment: PI: Cristina Nerin; Data collector: QiZhi Su, GUIA, University of Zaragoza, Spain; Collision energy: 20-40 V; Instrument: Waters HPLC-QTOF-MS (Xevo G2 QTof); Ionization: ESI; Deconvoluted by MS-DIAL; Column: Waters AtlantisTM premier BEH C18 AX column (2.1 × 100mm x 1.7μm); Flow rate: 0.3mL/min; Mobile phase A and B are water and methnaol, respectively, both with 0.1% formic acid; Gradient elution: from A/B (95/5) to A/B (100/0) in 7min, kept for 4 min, then back to A/B (95/5) in 0.1 min, and maintained for additional 1.9 min (13min in total).; Injection volume: 10 μL
Num peaks: 20
223.07213 823
277.09442 576
292.10666 2241
293.11139 584
294.1142 725
308.13568 1404
309.13367 1381
309.14362 1382
310.11819 1216
311.12347 1399
311.16211 1132
312.15506 562
325.14108 3826
326.14545 1581
327.14066 1096
345.14764 1810
362.1821 3427
363.18582 3804
391.1868 2385
437.19443 51714
Name: Dexamethasone
PrecursorMZ: 783.3895
PrecursorType: [2M-H]-
IonMode: Negative
Formula: C22H29FO5
SMILES: CC1CC2C3CCC4=CC(=O)C=CC4(C3(C(CC2(C1(C(=O)CO)O)C)O)F)C
InChI: 
InChIKey: UREBDLICKHMUKA-CXSFZGCWSA-N
RetentionTime: 6.404067
CCS: 
CollisionEnergy: 20-40 eV
InstrumentType: UPLC-QTOF-MS
Comment: PI: Cristina Nerin; Data collector: QiZhi Su, GUIA, University of Zaragoza, Spain; Collision energy: 20-40 V; Instrument: Waters HPLC-QTOF-MS (Xevo G2 QTof); Ionization: ESI; Deconvoluted by MS-DIAL; Column: Waters AtlantisTM premier BEH C18 AX column (2.1 × 100mm x 1.7μm); Flow rate: 0.3mL/min; Mobile phase A and B are water and methnaol, respectively, both with 0.1% formic acid; Gradient elution: from A/B (95/5) to A/B (100/0) in 7min, kept for 4 min, then back to A/B (95/5) in 0.1 min, and maintained for additional 1.9 min (13min in total).; Injection volume: 10 μL
Num peaks: 14
292.10666 4796
307.13095 70426
308.13568 15582
310.11819 5753
311.12347 2543
325.14108 46165
346.14899 2473
346.16061 2476
361.17874 225408
362.1821 44747
391.1868 2687
437.19443 49191
438.19727 10363
783.38953 3547
Name: Ursodeoxycholic acid
PrecursorMZ: 437.289
PrecursorType: [M+FA-H]-
IonMode: Negative
Formula: C24H40O4
SMILES: CC(CCC(=O)O)C1CCC2C1(CCC3C2C(CC4C3(CCC(C4)O)C)O)C
InChI: 
InChIKey: RUDATBOHQWOJDD-UZVSRGJWSA-N
RetentionTime: 7.280684
CCS: 
CollisionEnergy: 20-40 eV
InstrumentType: UPLC-QTOF-MS
Comment: PI: Cristina Nerin; Data collector: QiZhi Su, GUIA, University of Zaragoza, Spain; Collision energy: 20-40 V; Instrument: Waters HPLC-QTOF-MS (Xevo G2 QTof); Ionization: ESI; Deconvoluted by MS-DIAL; Column: Waters AtlantisTM premier BEH C18 AX column (2.1 × 100mm x 1.7μm); Flow rate: 0.3mL/min; Mobile phase A and B are water and methnaol, respectively, both with 0.1% formic acid; Gradient elution: from A/B (95/5) to A/B (100/0) in 7min, kept for 4 min, then back to A/B (95/5) in 0.1 min, and maintained for additional 1.9 min (13min in total).; Injection volume: 10 μL
Num peaks: 3
391.28339 95047
392.28665 23610
393.28946 2730
Name: Ursodeoxycholic acid
PrecursorMZ: 783.5775
PrecursorType: [2M-H]-
IonMode: Negative
Formula: C24H40O4
SMILES: CC(CCC(=O)O)C1CCC2C1(CCC3C2C(CC4C3(CCC(C4)O)C)O)C
InChI: 
InChIKey: RUDATBOHQWOJDD-UZVSRGJWSA-N
RetentionTime: 7.292117
CCS: 
CollisionEnergy: 20-40 eV
InstrumentType: UPLC-QTOF-MS
Comment: PI: Cristina Nerin; Data collector: QiZhi Su, GUIA, University of Zaragoza, Spain; Collision energy: 20-40 V; Instrument: Waters HPLC-QTOF-MS (Xevo G2 QTof); Ionization: ESI; Deconvoluted by MS-DIAL; Column: Waters AtlantisTM premier BEH C18 AX column (2.1 × 100mm x 1.7μm); Flow rate: 0.3mL/min; Mobile phase A and B are water and methnaol, respectively, both with 0.1% formic acid; Gradient elution: from A/B (95/5) to A/B (100/0) in 7min, kept for 4 min, then back to A/B (95/5) in 0.1 min, and maintained for additional 1.9 min (13min in total).; Injection volume: 10 μL
Num peaks: 4
391.28339 394550
392.28635 93354
393.29083 11083
783.57739 159141
Name: L-Thiaproline
PrecursorMZ: 132.0094
PrecursorType: [M-H]-
IonMode: Negative
Formula: C4H7NO2S
SMILES: C1C(NCS1)C(=O)O
InChI: 
InChIKey: DZLNHFMRPBPULJ-VKHMYHEASA-N
RetentionTime: 0.9851167
CCS: 
CollisionEnergy: 20-40 eV
InstrumentType: UPLC-QTOF-MS
Comment: PI: Cristina Nerin; Data collector: QiZhi Su, GUIA, University of Zaragoza, Spain; Collision energy: 20-40 V; Instrument: Waters HPLC-QTOF-MS (Xevo G2 QTof); Ionization: ESI; Deconvoluted by MS-DIAL; Column: Waters AtlantisTM premier BEH C18 AX column (2.1 × 100mm x 1.7μm); Flow rate: 0.3mL/min; Mobile phase A and B are water and methnaol, respectively, both with 0.1% formic acid; Gradient elution: from A/B (95/5) to A/B (100/0) in 7min, kept for 4 min, then back to A/B (95/5) in 0.1 min, and maintained for additional 1.9 min (13min in total).; Injection volume: 10 μL
Num peaks: 28
74.35326 37
79.95429 25
80.55072 27
86.02436 26
92.02451 26
96.79575 23
96.95711 103
99.95301 23
103.00007 25
103.00583 45
104.90865 35
112.91357 23
115.15598 30
115.93409 111
116.93031 111
119.87533 112
121.82198 26
121.88746 32
121.91114 25
121.97066 39
122.88554 23
125.02739 25
129.9193 53
130.00493 26
130.01663 87
131.01224 81
132.00935 2204
132.03143 36
Name: Alizarine Yellow R
PrecursorMZ: 286.0453
PrecursorType: [M-H]-
IonMode: Negative
Formula: C13H9N3O5
SMILES: C1=CC(=CC=C1N=NC2=CC(=C(C=C2)O)C(=O)O)[N+](=O)[O-]
InChI: 
InChIKey: YVJPMMYYRNHJAU-UHFFFAOYSA-N
RetentionTime: 8.751817
CCS: 
CollisionEnergy: 20-40 eV
InstrumentType: UPLC-QTOF-MS
Comment: PI: Cristina Nerin; Data collector: QiZhi Su, GUIA, University of Zaragoza, Spain; Collision energy: 20-40 V; Instrument: Waters HPLC-QTOF-MS (Xevo G2 QTof); Ionization: ESI; Deconvoluted by MS-DIAL; Column: Waters AtlantisTM premier BEH C18 AX column (2.1 × 100mm x 1.7μm); Flow rate: 0.3mL/min; Mobile phase A and B are water and methnaol, respectively, both with 0.1% formic acid; Gradient elution: from A/B (95/5) to A/B (100/0) in 7min, kept for 4 min, then back to A/B (95/5) in 0.1 min, and maintained for additional 1.9 min (13min in total).; Injection volume: 10 μL
Num peaks: 66
78.02538 730
78.0336 751
78.03905 756
91.01643 646
92.02108 2517
92.0256 2520
107.02568 462
107.03281 363
107.04253 346
108.01926 109
122.02251 2329
122.03941 2534
123.02436 185
136.02513 306
136.03754 311
137.03319 6968
138.01524 490
138.0351 261
143.0491 1111
144.04791 176
144.05501 178
144.06607 161
151.02289 674
152.00858 85
152.03046 168
156.045 100
156.06094 110
167.05034 220
167.05666 147
168.05186 259
168.05913 247
168.07356 211
169.05496 193
173.0018 193
173.00801 202
181.04845 724
182.03651 161
182.04999 102
184.02689 82
184.04677 142
184.05678 196
187.03865 1274
188.0424 91
192.07306 74
196.0621 714
196.07567 631
197.04224 96
197.0614 250
209.08389 375
212.04514 661
212.0593 1079
213.03989 109
213.05913 202
214.03777 200
214.05142 213
242.05533 1801
243.05432 528
243.06441 466
243.07355 387
244.05605 87
265.13867 196
265.15289 200
269.08176 77
269.09711 75
270.04288 74
286.04318 3513
Name: Dipyridamole
PrecursorMZ: 549.3141
PrecursorType: [M+FA-H]-
IonMode: Negative
Formula: C24H40N8O4
SMILES: C1CCN(CC1)C2=NC(=NC3=C2N=C(N=C3N4CCCCC4)N(CCO)CCO)N(CCO)CCO
InChI: 
InChIKey: IZEKFCXSFNUWAM-UHFFFAOYSA-N
RetentionTime: 4.483467
CCS: 
CollisionEnergy: 20-40 eV
InstrumentType: UPLC-QTOF-MS
Comment: PI: Cristina Nerin; Data collector: QiZhi Su, GUIA, University of Zaragoza, Spain; Collision energy: 20-40 V; Instrument: Waters HPLC-QTOF-MS (Xevo G2 QTof); Ionization: ESI; Deconvoluted by MS-DIAL; Column: Waters AtlantisTM premier BEH C18 AX column (2.1 × 100mm x 1.7μm); Flow rate: 0.3mL/min; Mobile phase A and B are water and methnaol, respectively, both with 0.1% formic acid; Gradient elution: from A/B (95/5) to A/B (100/0) in 7min, kept for 4 min, then back to A/B (95/5) in 0.1 min, and maintained for additional 1.9 min (13min in total).; Injection volume: 10 μL
Num peaks: 1
549.31439 77384
Name: Dipyridamole
PrecursorMZ: 1053.634
PrecursorType: [2M+FA-H]-
IonMode: Negative
Formula: C24H40N8O4
SMILES: C1CCN(CC1)C2=NC(=NC3=C2N=C(N=C3N4CCCCC4)N(CCO)CCO)N(CCO)CCO
InChI: 
InChIKey: IZEKFCXSFNUWAM-UHFFFAOYSA-N
RetentionTime: 4.483467
CCS: 
CollisionEnergy: 20-40 eV
InstrumentType: UPLC-QTOF-MS
Comment: PI: Cristina Nerin; Data collector: QiZhi Su, GUIA, University of Zaragoza, Spain; Collision energy: 20-40 V; Instrument: Waters HPLC-QTOF-MS (Xevo G2 QTof); Ionization: ESI; Deconvoluted by MS-DIAL; Column: Waters AtlantisTM premier BEH C18 AX column (2.1 × 100mm x 1.7μm); Flow rate: 0.3mL/min; Mobile phase A and B are water and methnaol, respectively, both with 0.1% formic acid; Gradient elution: from A/B (95/5) to A/B (100/0) in 7min, kept for 4 min, then back to A/B (95/5) in 0.1 min, and maintained for additional 1.9 min (13min in total).; Injection volume: 10 μL
Num peaks: 4
549.31439 74185
550.31647 18768
551.32001 2794
1053.6333 18769
Name: Captopril
PrecursorMZ: 216.068
PrecursorType: [M-H]-
IonMode: Negative
Formula: C9H15NO3S
SMILES: CC(CS)C(=O)N1CCCC1C(=O)O
InChI: 
InChIKey: FAKRSMQSSFJEIM-RQJHMYQMSA-N
RetentionTime: 5.222983
CCS: 
CollisionEnergy: 20-40 eV
InstrumentType: UPLC-QTOF-MS
Comment: PI: Cristina Nerin; Data collector: QiZhi Su, GUIA, University of Zaragoza, Spain; Collision energy: 20-40 V; Instrument: Waters HPLC-QTOF-MS (Xevo G2 QTof); Ionization: ESI; Deconvoluted by MS-DIAL; Column: Waters AtlantisTM premier BEH C18 AX column (2.1 × 100mm x 1.7μm); Flow rate: 0.3mL/min; Mobile phase A and B are water and methnaol, respectively, both with 0.1% formic acid; Gradient elution: from A/B (95/5) to A/B (100/0) in 7min, kept for 4 min, then back to A/B (95/5) in 0.1 min, and maintained for additional 1.9 min (13min in total).; Injection volume: 10 μL
Num peaks: 18
80.96577 97
114.05426 8326
115.05904 281
126.09086 684
130.03072 208
136.07573 135
138.09004 106
139.0874 124
152.89568 92
170.08 340
182.08066 4367
183.08398 180
183.09679 162
184.08592 88
192.06456 111
196.95735 100
200.94946 112
216.06714 1272
Name: Captopril
PrecursorMZ: 216.0681
PrecursorType: [M-H]-
IonMode: Negative
Formula: C9H15NO3S
SMILES: CC(CS)C(=O)N1CCCC1C(=O)O
InChI: 
InChIKey: FAKRSMQSSFJEIM-RQJHMYQMSA-N
RetentionTime: 5.3943
CCS: 
CollisionEnergy: 20-40 eV
InstrumentType: UPLC-QTOF-MS
Comment: PI: Cristina Nerin; Data collector: QiZhi Su, GUIA, University of Zaragoza, Spain; Collision energy: 20-40 V; Instrument: Waters HPLC-QTOF-MS (Xevo G2 QTof); Ionization: ESI; Deconvoluted by MS-DIAL; Column: Waters AtlantisTM premier BEH C18 AX column (2.1 × 100mm x 1.7μm); Flow rate: 0.3mL/min; Mobile phase A and B are water and methnaol, respectively, both with 0.1% formic acid; Gradient elution: from A/B (95/5) to A/B (100/0) in 7min, kept for 4 min, then back to A/B (95/5) in 0.1 min, and maintained for additional 1.9 min (13min in total).; Injection volume: 10 μL
Num peaks: 12
114.05409 10311
115.05893 603
120.08502 114
126.09166 637
136.07335 341
138.08997 316
170.08125 286
182.08023 3899
182.09711 279
183.07956 426
183.09006 143
216.06699 1507
Name: Prednisone
PrecursorMZ: 357.1696
PrecursorType: [M-H]-
IonMode: Negative
Formula: C21H26O5
SMILES: CC12CC(=O)C3C(C1CCC2(C(=O)CO)O)CCC4=CC(=O)C=CC34C
InChI: 
InChIKey: XOFYZVNMUHMLCC-ZPOLXVRWSA-N
RetentionTime: 5.927783
CCS: 
CollisionEnergy: 20-40 eV
InstrumentType: UPLC-QTOF-MS
Comment: PI: Cristina Nerin; Data collector: QiZhi Su, GUIA, University of Zaragoza, Spain; Collision energy: 20-40 V; Instrument: Waters HPLC-QTOF-MS (Xevo G2 QTof); Ionization: ESI; Deconvoluted by MS-DIAL; Column: Waters AtlantisTM premier BEH C18 AX column (2.1 × 100mm x 1.7μm); Flow rate: 0.3mL/min; Mobile phase A and B are water and methnaol, respectively, both with 0.1% formic acid; Gradient elution: from A/B (95/5) to A/B (100/0) in 7min, kept for 4 min, then back to A/B (95/5) in 0.1 min, and maintained for additional 1.9 min (13min in total).; Injection volume: 10 μL
Num peaks: 19
123.0433 18632
125.04301 5212
125.05915 5195
136.05151 3978
137.05876 5568
149.05846 7147
201.09045 5918
270.12256 3629
270.13474 3598
284.13937 3354
284.1517 3445
285.1485 15267
299.16382 44751
300.16791 8045
324.13644 4264
327.15897 326858
328.16245 61918
329.16495 6760
357.16943 10682
Name: Prednisone
PrecursorMZ: 403.1754
PrecursorType: [M+FA-H]-
IonMode: Negative
Formula: C21H26O5
SMILES: CC12CC(=O)C3C(C1CCC2(C(=O)CO)O)CCC4=CC(=O)C=CC34C
InChI: 
InChIKey: XOFYZVNMUHMLCC-ZPOLXVRWSA-N
RetentionTime: 5.927783
CCS: 
CollisionEnergy: 20-40 eV
InstrumentType: UPLC-QTOF-MS
Comment: PI: Cristina Nerin; Data collector: QiZhi Su, GUIA, University of Zaragoza, Spain; Collision energy: 20-40 V; Instrument: Waters HPLC-QTOF-MS (Xevo G2 QTof); Ionization: ESI; Deconvoluted by MS-DIAL; Column: Waters AtlantisTM premier BEH C18 AX column (2.1 × 100mm x 1.7μm); Flow rate: 0.3mL/min; Mobile phase A and B are water and methnaol, respectively, both with 0.1% formic acid; Gradient elution: from A/B (95/5) to A/B (100/0) in 7min, kept for 4 min, then back to A/B (95/5) in 0.1 min, and maintained for additional 1.9 min (13min in total).; Injection volume: 10 μL
Num peaks: 20
123.0433 18562
125.04301 5162
125.05915 5142
136.05151 3935
137.05876 5542
149.05846 7102
201.09045 6258
270.12256 3702
270.13474 3668
284.13937 3465
284.1517 3569
285.1485 15260
299.16382 48076
300.16791 8505
324.13644 4245
327.15897 341788
328.16245 66230
329.16495 6913
357.16943 10218
403.17508 8409
Name: Prednisone
PrecursorMZ: 715.3499
PrecursorType: [2M-H]-
IonMode: Negative
Formula: C21H26O5
SMILES: CC12CC(=O)C3C(C1CCC2(C(=O)CO)O)CCC4=CC(=O)C=CC34C
InChI: 
InChIKey: XOFYZVNMUHMLCC-ZPOLXVRWSA-N
RetentionTime: 5.931583
CCS: 
CollisionEnergy: 20-40 eV
InstrumentType: UPLC-QTOF-MS
Comment: PI: Cristina Nerin; Data collector: QiZhi Su, GUIA, University of Zaragoza, Spain; Collision energy: 20-40 V; Instrument: Waters HPLC-QTOF-MS (Xevo G2 QTof); Ionization: ESI; Deconvoluted by MS-DIAL; Column: Waters AtlantisTM premier BEH C18 AX column (2.1 × 100mm x 1.7μm); Flow rate: 0.3mL/min; Mobile phase A and B are water and methnaol, respectively, both with 0.1% formic acid; Gradient elution: from A/B (95/5) to A/B (100/0) in 7min, kept for 4 min, then back to A/B (95/5) in 0.1 min, and maintained for additional 1.9 min (13min in total).; Injection volume: 10 μL
Num peaks: 52
121.06344 404
122.03838 310
122.05412 396
123.04294 2079
124.03497 242
124.04496 271
124.05354 270
125.05838 462
125.07751 416
135.02289 336
135.07556 355
135.08147 345
136.05075 1174
137.05856 1291
145.0634 472
149.0381 486
149.05885 1563
150.05753 253
150.06638 248
151.0761 810
162.06561 377
163.07333 570
186.0585 197
187.08899 198
191.10638 259
201.08932 876
201.1087 317
203.10448 559
203.11441 516
269.1095 402
269.11835 400
270.12399 725
282.1279 222
284.13916 499
285.14764 2239
286.15292 392
299.16336 2539
300.16769 351
301.16794 293
301.181 265
309.14743 391
324.13733 489
327.15909 19388
328.16229 3954
329.16519 1709
330.17349 400
330.18851 308
339.13397 260
339.15952 275
357.16971 888
403.17551 711
715.34967 9803
Name: Prednisone
PrecursorMZ: 761.3553
PrecursorType: [2M+FA-H]-
IonMode: Negative
Formula: C21H26O5
SMILES: CC12CC(=O)C3C(C1CCC2(C(=O)CO)O)CCC4=CC(=O)C=CC34C
InChI: 
InChIKey: XOFYZVNMUHMLCC-ZPOLXVRWSA-N
RetentionTime: 5.9392
CCS: 
CollisionEnergy: 20-40 eV
InstrumentType: UPLC-QTOF-MS
Comment: PI: Cristina Nerin; Data collector: QiZhi Su, GUIA, University of Zaragoza, Spain; Collision energy: 20-40 V; Instrument: Waters HPLC-QTOF-MS (Xevo G2 QTof); Ionization: ESI; Deconvoluted by MS-DIAL; Column: Waters AtlantisTM premier BEH C18 AX column (2.1 × 100mm x 1.7μm); Flow rate: 0.3mL/min; Mobile phase A and B are water and methnaol, respectively, both with 0.1% formic acid; Gradient elution: from A/B (95/5) to A/B (100/0) in 7min, kept for 4 min, then back to A/B (95/5) in 0.1 min, and maintained for additional 1.9 min (13min in total).; Injection volume: 10 μL
Num peaks: 78
109.06012 64
120.05181 142
120.0594 144
120.07159 134
121.06435 124
122.03562 212
123.04266 729
123.06274 4133
123.07922 97
123.08667 104
124.04438 118
124.05228 118
125.05843 206
126.05727 71
126.06612 65
133.07623 70
135.03831 118
135.04605 107
136.05029 492
137.05888 467
138.05589 64
138.06381 68
145.06354 353
149.05829 682
150.06299 90
151.0743 308
162.06273 308
162.07137 290
163.07336 439
174.06483 75
176.08057 79
176.09561 79
177.08913 376
185.08002 75
186.06134 85
186.07007 96
191.09062 206
191.10713 147
192.10944 66
201.0914 323
203.10593 273
203.13246 132
216.05812 76
216.0686 74
243.13615 90
255.17215 73
255.18811 107
269.1015 176
269.11896 158
270.12363 170
271.14417 148
283.12201 78
284.14044 407
285.14786 459
286.15475 238
287.14832 71
287.15921 96
299.16382 260
300.16806 4830
301.16623 271
301.17664 336
309.14816 171
310.15259 118
310.16281 185
327.15903 6382
327.1972 148
327.24832 254
327.31201 75
327.32892 78
328.16211 1043
329.16531 729
339.17657 1817
357.17032 5627
358.17572 118
393.14505 86
404.17514 867
718.33801 86
761.35596 5685
Name: Methyl Red
PrecursorMZ: 268.1062
PrecursorType: [M-H]-
IonMode: Negative
Formula: C15H15N3O2
SMILES: CN(C)C1=CC=C(C=C1)N=NC2=CC=CC=C2C(=O)O
InChI: 
InChIKey: CEQFOVLGLXCDCX-UHFFFAOYSA-N
RetentionTime: 7.280733
CCS: 
CollisionEnergy: 20-40 eV
InstrumentType: UPLC-QTOF-MS
Comment: PI: Cristina Nerin; Data collector: QiZhi Su, GUIA, University of Zaragoza, Spain; Collision energy: 20-40 V; Instrument: Waters HPLC-QTOF-MS (Xevo G2 QTof); Ionization: ESI; Deconvoluted by MS-DIAL; Column: Waters AtlantisTM premier BEH C18 AX column (2.1 × 100mm x 1.7μm); Flow rate: 0.3mL/min; Mobile phase A and B are water and methnaol, respectively, both with 0.1% formic acid; Gradient elution: from A/B (95/5) to A/B (100/0) in 7min, kept for 4 min, then back to A/B (95/5) in 0.1 min, and maintained for additional 1.9 min (13min in total).; Injection volume: 10 μL
Num peaks: 70
59.56315 47
70.89326 60
72.70125 66
78.21111 44
79.95633 133
90.00792 54
90.03714 53
90.86212 55
91.03978 502
96.95432 135
96.9604 79
96.97208 51
108.02216 77
114.04801 225
114.05339 645
114.0655 59
114.97716 47
114.9835 43
121.05822 53
135.03099 467
135.03831 192
135.05116 48
136.02678 81
138.09134 44
139.09924 58
141.08395 69
143.04497 442
144.05103 55
155.03368 47
158.02371 70
164.0179 102
165.01375 44
171.0439 68
179.06036 220
180.06529 193
181.04599 206
182.07788 1127
183.00877 85
183.01863 66
183.08438 98
187.03636 521
187.04428 238
191.06509 43
191.96594 75
193.04788 139
193.05905 44
195.13565 60
197.03886 55
201.03601 51
207.06903 59
208.07645 106
208.08832 457
209.03658 60
209.08524 107
211.05922 44
214.04767 141
214.05525 116
216.05685 58
222.05954 55
223.09608 304
223.10597 373
224.10938 86
224.12213 386
226.13359 121
232.03372 52
255.10796 45
262.18518 76
263.5824 43
267.11847 52
268.10605 4233
Name: Methyl Red
PrecursorMZ: 537.23
PrecursorType: [2M-H]-
IonMode: Negative
Formula: C15H15N3O2
SMILES: CN(C)C1=CC=C(C=C1)N=NC2=CC=CC=C2C(=O)O
InChI: 
InChIKey: CEQFOVLGLXCDCX-UHFFFAOYSA-N
RetentionTime: 7.28455
CCS: 
CollisionEnergy: 20-40 eV
InstrumentType: UPLC-QTOF-MS
Comment: PI: Cristina Nerin; Data collector: QiZhi Su, GUIA, University of Zaragoza, Spain; Collision energy: 20-40 V; Instrument: Waters HPLC-QTOF-MS (Xevo G2 QTof); Ionization: ESI; Deconvoluted by MS-DIAL; Column: Waters AtlantisTM premier BEH C18 AX column (2.1 × 100mm x 1.7μm); Flow rate: 0.3mL/min; Mobile phase A and B are water and methnaol, respectively, both with 0.1% formic acid; Gradient elution: from A/B (95/5) to A/B (100/0) in 7min, kept for 4 min, then back to A/B (95/5) in 0.1 min, and maintained for additional 1.9 min (13min in total).; Injection volume: 10 μL
Num peaks: 216
59.01241 45
63.40373 117
70.53519 39
72.99165 37
83.00964 73
83.04427 46
90.03186 46
91.04202 520
91.04812 164
92.04805 123
96.95706 213
96.96399 106
102.63689 96
104.05057 46
105.0563 126
108.02281 102
113.04312 36
114.05424 1041
114.06557 228
115.05209 39
119.04971 53
122.97194 51
127.92973 47
129.08398 43
130.03453 44
134.62854 49
135.03111 525
135.05203 98
136.04825 42
137.02338 59
137.05946 64
143.03928 120
143.04953 995
151.10707 57
152.02979 58
152.99683 41
153.0645 41
155.03966 62
155.94536 47
158.01828 40
164.11543 57
175.03368 55
175.84914 117
177.01566 45
179.0728 69
180.07343 48
181.04163 91
181.05222 95
181.06367 42
181.08771 42
182.08176 1860
183.00726 224
183.02052 70
183.08365 67
184.01308 58
185.00363 39
185.11732 48
187.0231 99
187.03859 1038
187.09123 50
187.10744 71
188.04594 109
189.03893 81
190.9745 43
193.0455 271
194.05402 47
195.08163 37
195.83411 47
197.04721 48
204.04161 87
205.06044 41
207.07808 58
208.08292 229
209.09392 110
210.09688 51
210.10956 72
213.05696 56
214.04784 75
214.1367 68
216.07487 136
218.06293 36
218.95569 38
221.07211 85
223.11113 572
224.11153 142
225.0782 38
226.12698 57
227.06252 49
228.01628 39
229.14316 50
230.05836 44
233.04448 55
235.09686 65
237.09691 51
239.19789 41
241.05214 42
242.2583 39
245.11203 79
248.04727 81
251.09088 54
254.08252 90
254.09438 45
256.11923 50
256.99951 41
257.05899 44
261.07288 43
261.14215 38
265.14185 46
267.00555 54
267.06998 56
268.10843 3514
268.14972 114
269.10736 480
269.11865 202
270.11877 269
270.14374 59
271.12347 114
275.97186 47
280.1553 71
281.04224 41
282.05191 40
283.05945 67
283.15656 41
285.14813 42
288.18481 45
291.08478 39
293.07956 69
293.16995 81
295.05499 42
298.11209 109
300.02042 75
300.13074 42
300.18549 101
302.05072 49
309.18097 41
310.12527 40
311.1727 107
312.17041 43
313.11084 82
321.04984 117
324.99429 39
325.07382 85
325.16959 56
325.18344 57
325.19952 71
326.07571 36
326.1842 138
327.1763 91
328.03552 44
331.09634 53
332.06497 85
334.08588 71
335.05338 42
336.07199 82
336.11356 53
337.01233 55
337.10529 189
339.1882 149
346.08582 102
348.28186 61
349.10617 50
351.11945 93
353.05362 43
354.07666 55
354.26813 39
355.10846 79
355.15591 61
373.06927 47
377.0553 56
379.06976 333
380.06677 52
385.10278 43
387.08572 42
387.0957 71
387.17755 40
394.18961 44
395.20651 45
396.06659 40
397.23288 48
397.24591 61
399.05914 42
401.177 49
405.17645 37
413.03021 62
415.06757 74
416.08966 47
419.30396 36
420.07584 68
422.14111 42
428.14154 61
431.13354 246
432.12659 52
432.14331 65
433.1626 37
434.1488 51
443.2316 72
443.30621 85
444.00568 36
453.11234 73
453.16473 60
456.2735 40
459.20322 42
469.08405 49
491.24408 54
497.37207 48
501.29971 44
503.26953 38
509.29239 53
511.26636 42
513.18506 44
521.21753 39
527.18427 38
531.17798 53
535.19666 82
535.23676 42
537.22711 722
Name: 2-Ethylhexyl mercaptoacetate
PrecursorMZ: 407.2281
PrecursorType: [2M-H]-
IonMode: Negative
Formula: C10H20O2S
SMILES: CCCCC(CC)COC(=O)CS
InChI: 
InChIKey: OWHSTLLOZWTNTQ-UHFFFAOYSA-N
RetentionTime: 8.431383
CCS: 
CollisionEnergy: 20-40 eV
InstrumentType: UPLC-QTOF-MS
Comment: PI: Cristina Nerin; Data collector: QiZhi Su, GUIA, University of Zaragoza, Spain; Collision energy: 20-40 V; Instrument: Waters HPLC-QTOF-MS (Xevo G2 QTof); Ionization: ESI; Deconvoluted by MS-DIAL; Column: Waters AtlantisTM premier BEH C18 AX column (2.1 × 100mm x 1.7μm); Flow rate: 0.3mL/min; Mobile phase A and B are water and methnaol, respectively, both with 0.1% formic acid; Gradient elution: from A/B (95/5) to A/B (100/0) in 7min, kept for 4 min, then back to A/B (95/5) in 0.1 min, and maintained for additional 1.9 min (13min in total).; Injection volume: 10 μL
Num peaks: 39
57.05859 2483
57.07125 2420
71.08615 11271
78.9678 13023
93.05731 3902
93.07439 3895
106.96337 4869
106.97932 4451
108.97798 17222
110.97409 1368
110.98618 1373
136.97284 112364
137.97557 4602
138.95132 8677
138.96875 8802
157.07733 5802
164.96751 40037
165.96776 2146
165.97726 2149
166.96359 3008
182.9782 30525
183.96552 1303
183.98178 1447
184.97452 2905
184.98935 2751
210.08139 1130
246.1021 3299
247.10081 1182
247.11053 1315
284.2908 1274
284.30502 1285
295.08597 4449
295.10336 4918
313.0975 7375
314.09967 1332
317.08533 10143
318.0863 1538
319.0874 1129
407.2276 7184
Name: Sudan Black B
PrecursorMZ: 455.1972
PrecursorType: [M-H]-
IonMode: Negative
Formula: C29H24N6
SMILES: CC1(NC2=C3C(=C(C=C2)N=NC4=CC=C(C5=CC=CC=C54)N=NC6=CC=CC=C6)C=CC=C3N1)C
InChI: 
InChIKey: YCUVUDODLRLVIC-UHFFFAOYSA-N
RetentionTime: 8.046367
CCS: 
CollisionEnergy: 20-40 eV
InstrumentType: UPLC-QTOF-MS
Comment: PI: Cristina Nerin; Data collector: QiZhi Su, GUIA, University of Zaragoza, Spain; Collision energy: 20-40 V; Instrument: Waters HPLC-QTOF-MS (Xevo G2 QTof); Ionization: ESI; Deconvoluted by MS-DIAL; Column: Waters AtlantisTM premier BEH C18 AX column (2.1 × 100mm x 1.7μm); Flow rate: 0.3mL/min; Mobile phase A and B are water and methnaol, respectively, both with 0.1% formic acid; Gradient elution: from A/B (95/5) to A/B (100/0) in 7min, kept for 4 min, then back to A/B (95/5) in 0.1 min, and maintained for additional 1.9 min (13min in total).; Injection volume: 10 μL
Num peaks: 259
78.04116 287
78.04688 258
78.06343 332
91.07468 180
104.04935 387
105.04582 529
106.06675 544
126.04581 1448
126.06672 1363
143.08875 620
153.04903 213
153.06223 233
157.05956 324
157.09579 194
166.08202 137
168.0567 254
169.06198 433
170.07248 1687
171.07489 2124
171.08939 1280
177.13933 111
179.0616 1572
179.07423 2157
179.08969 518
179.57097 287
179.5912 247
181.0782 4441
181.09029 4433
183.09209 5845
184.06497 388
184.07478 1448
184.08456 2182
184.09399 2156
184.11279 1292
185.09535 538
186.08167 436
186.09779 622
186.11253 539
187.58736 152
187.59604 113
188.06937 109
193.07732 997
194.08452 961
194.15039 119
194.16585 122
198.10394 1086
198.11554 1914
199.11049 564
199.12376 381
199.13416 121
202.07802 1511
202.10678 447
203.05574 699
203.07443 357
204.08046 2414
205.06778 256
205.08139 1068
206.08408 121
206.0898 127
207.0779 159
209.09383 494
210.10365 345
212.11642 4917
213.10733 1212
213.12164 2066
213.13089 1308
214.0938 113
214.11974 173
216.06769 157
216.07581 218
221.08417 109
221.09827 120
221.11758 141
222.09276 277
222.10628 267
225.1153 766
225.13277 535
229.06522 543
229.07957 444
229.09767 188
230.08466 5650
234.07117 222
234.08553 212
237.07672 2470
242.08623 130
242.09903 130
243.08971 132
247.11116 10163
249.11841 1302
249.12735 1388
259.0863 210
260.10373 133
260.1156 119
261.11096 160
262.05951 141
262.10086 110
267.10699 177
267.12442 128
268.12195 153
270.0983 122
270.10745 108
279.08923 189
280.0802 247
280.09671 705
280.10861 705
282.10648 233
282.11957 218
291.11359 143
292.10684 489
292.11749 450
293.09521 197
293.11386 246
294.13773 276
295.09958 527
295.11569 1024
295.13474 760
295.14743 119
296.11694 785
296.13211 1141
297.09192 152
297.11148 385
297.12503 412
297.14401 172
304.10269 390
305.09872 601
305.11801 660
306.09039 124
306.11963 258
307.0896 264
307.1315 1356
308.11066 868
308.1322 642
308.14767 334
309.1373 4683
310.13577 1152
310.15085 1053
311.12415 260
311.14456 504
313.12796 145
315.26468 225
316.63849 122
318.09985 202
318.11746 364
319.11496 1288
319.12646 1596
321.13409 748
322.13556 296
323.13303 1087
324.15762 161
324.3201 156
324.33621 164
325.65509 109
326.1329 107
332.1105 405
334.13309 1023
336.14493 2435
337.14548 1011
338.14917 1061
341.25244 161
341.27368 108
348.13663 1937
350.14087 914
351.11978 513
351.13837 2788
352.16574 2386
358.12119 136
358.14474 106
361.13501 151
361.1507 352
362.1246 141
362.14426 167
364.15298 1040
364.17126 481
365.16183 202
365.1795 2400
366.16769 379
367.1488 187
370.13004 153
371.1619 119
373.13632 447
374.14624 422
374.16464 498
374.18802 108
375.16168 783
375.17999 625
376.16232 2179
376.18008 2213
377.17801 1723
378.16617 670
378.18527 714
384.14267 242
384.16196 119
385.1344 224
385.1535 180
386.134 127
386.15707 174
386.1676 192
388.14465 164
388.17288 137
390.17331 1012
391.22531 104
392.19696 4913
393.20209 2326
393.2196 2346
396.14758 218
396.16165 482
397.15012 752
397.16708 604
398.15564 326
398.18369 151
399.15295 1021
399.17062 286
400.15994 1315
401.15216 1415
403.17361 319
404.1806 127
405.1937 260
407.20593 461
410.1449 413
410.18137 365
411.16681 446
411.18604 860
412.14212 105
412.17493 1333
412.1897 1279
413.17654 3090
413.3118 334
413.33359 360
414.16907 1683
414.18881 485
415.17419 640
415.18835 625
416.15735 110
416.18234 453
416.20413 323
417.18362 262
418.19797 168
419.19193 125
423.16156 230
424.15189 999
424.16754 853
426.19077 117
427.17389 548
427.19305 537
428.17941 331
428.19559 674
428.21335 378
430.23322 113
438.17657 479
440.18622 4940
442.18927 5077
443.19315 2032
444.19376 343
444.21756 103
448.69373 110
455.15561 160
455.17883 594
455.20328 2248
455.69678 639
Name: Minocycline?
PrecursorMZ: 456.1765
PrecursorType: [M-HCl-H]-
IonMode: Negative
Formula: C23H28ClN3O7
SMILES: CN(C)C1C2CC3CC4=C(C=CC(=C4C(=C3C(=O)C2(C(=C(C1=O)C(=O)N)O)O)O)O)N(C)C.Cl
InChI: 
InChIKey: WTJXVDPDEQKTCV-VQAITOIOSA-N
RetentionTime: 0.88995
CCS: 
CollisionEnergy: 20-40 eV
InstrumentType: UPLC-QTOF-MS
Comment: PI: Cristina Nerin; Data collector: QiZhi Su, GUIA, University of Zaragoza, Spain; Collision energy: 20-40 V; Instrument: Waters HPLC-QTOF-MS (Xevo G2 QTof); Ionization: ESI; Deconvoluted by MS-DIAL; Column: Waters AtlantisTM premier BEH C18 AX column (2.1 × 100mm x 1.7μm); Flow rate: 0.3mL/min; Mobile phase A and B are water and methnaol, respectively, both with 0.1% formic acid; Gradient elution: from A/B (95/5) to A/B (100/0) in 7min, kept for 4 min, then back to A/B (95/5) in 0.1 min, and maintained for additional 1.9 min (13min in total).; Injection volume: 10 μL
Num peaks: 103
125.05688 300
125.0658 330
125.07647 333
126.05003 149
126.05922 149
142.01051 262
142.01651 262
154.03589 241
162.01118 162
162.02151 176
162.99014 139
163.00186 144
169.05237 498
169.0638 508
180.02074 836
180.03156 842
181.03236 184
187.07368 85
202.07469 158
202.08684 163
209.08578 115
209.09529 112
215.04941 90
215.06319 87
230.07747 116
253.07698 229
254.11581 155
268.09531 229
268.1152 133
271.07571 182
271.08771 210
271.10449 109
278.11121 111
280.08521 157
280.09872 182
280.11829 86
282.10764 314
282.12271 315
284.0827 109
284.09277 135
284.1058 139
286.10657 7571
287.10944 1320
288.10712 140
288.1189 141
291.08881 98
298.09497 424
298.11023 493
299.09955 131
299.11697 146
300.11523 98
300.12735 110
306.10837 200
306.12524 172
307.07117 150
307.08728 183
308.08514 286
308.10114 270
309.08701 103
309.09814 117
322.10397 502
322.11603 500
323.10376 95
324.09888 98
324.10776 107
324.12857 112
327.16977 188
335.07983 162
339.16888 93
340.12564 76
341.18509 76
343.15381 254
343.16995 272
350.09036 610
350.10651 705
351.09961 174
351.11801 171
351.16547 148
367.15936 292
368.11899 76
368.16525 107
369.1817 151
371.15945 6230
372.16461 1171
372.18463 155
373.15323 158
373.17197 179
394.08673 679
394.11765 172
395.0863 167
395.10168 188
395.14117 214
395.16837 273
396.16956 79
413.17007 1941
414.16144 319
414.17831 354
439.14709 753
439.16583 734
440.15134 189
440.17593 109
456.17694 3107
456.2074 352
Name: Minocycline?
PrecursorMZ: 456.176
PrecursorType: [M-HCl-H]-
IonMode: Negative
Formula: C23H28ClN3O7
SMILES: CN(C)C1C2CC3CC4=C(C=CC(=C4C(=C3C(=O)C2(C(=C(C1=O)C(=O)N)O)O)O)O)N(C)C.Cl
InChI: 
InChIKey: WTJXVDPDEQKTCV-VQAITOIOSA-N
RetentionTime: 2.0178
CCS: 
CollisionEnergy: 20-40 eV
InstrumentType: UPLC-QTOF-MS
Comment: PI: Cristina Nerin; Data collector: QiZhi Su, GUIA, University of Zaragoza, Spain; Collision energy: 20-40 V; Instrument: Waters HPLC-QTOF-MS (Xevo G2 QTof); Ionization: ESI; Deconvoluted by MS-DIAL; Column: Waters AtlantisTM premier BEH C18 AX column (2.1 × 100mm x 1.7μm); Flow rate: 0.3mL/min; Mobile phase A and B are water and methnaol, respectively, both with 0.1% formic acid; Gradient elution: from A/B (95/5) to A/B (100/0) in 7min, kept for 4 min, then back to A/B (95/5) in 0.1 min, and maintained for additional 1.9 min (13min in total).; Injection volume: 10 μL
Num peaks: 73
124.99046 23
126.0496 22
136.04121 22
152.0703 28
154.0368 34
202.08005 19
202.09023 19
226.12589 30
253.06798 18
253.07956 13
254.11066 34
258.10309 19
258.11823 24
265.10788 13
268.09042 15
269.0625 15
272.09369 26
281.07913 11
281.09769 14
282.11206 25
282.12534 21
284.12769 31
284.14624 35
286.10071 496
286.11139 445
288.11115 15
289.11368 23
292.06461 49
298.13043 10
299.17697 30
301.10214 12
306.11386 10
307.08475 25
307.0957 25
307.11554 34
308.08533 22
308.10962 15
309.09131 10
310.06271 16
311.15018 12
321.13931 27
322.12289 62
323.10837 41
323.11938 35
328.18674 14
339.17703 12
342.12836 13
343.2052 25
350.09979 135
351.09113 33
352.12552 12
352.17038 14
366.07266 15
366.10504 22
367.16296 25
371.1597 303
371.19147 42
372.12943 40
372.16855 45
373.16827 40
373.18234 46
379.06705 13
394.08386 98
394.09845 88
395.0867 29
396.17361 30
413.1767 156
414.15671 32
414.1709 30
441.15503 11
456.14581 31
456.16733 140
456.18323 303
Name: Fominoben 2HCl
PrecursorMZ: 400.1424
PrecursorType: [M-HCl-H]-
IonMode: Negative
Formula: C21H25Cl2N3O3
SMILES: CN(CC1=C(C=CC=C1Cl)NC(=O)C2=CC=CC=C2)CC(=O)N3CCOCC3.Cl
InChI: 
InChIKey: ZAOHKACVOFGZOI-UHFFFAOYSA-N
RetentionTime: 4.285417
CCS: 
CollisionEnergy: 20-40 eV
InstrumentType: UPLC-QTOF-MS
Comment: PI: Cristina Nerin; Data collector: QiZhi Su, GUIA, University of Zaragoza, Spain; Collision energy: 20-40 V; Instrument: Waters HPLC-QTOF-MS (Xevo G2 QTof); Ionization: ESI; Deconvoluted by MS-DIAL; Column: Waters AtlantisTM premier BEH C18 AX column (2.1 × 100mm x 1.7μm); Flow rate: 0.3mL/min; Mobile phase A and B are water and methnaol, respectively, both with 0.1% formic acid; Gradient elution: from A/B (95/5) to A/B (100/0) in 7min, kept for 4 min, then back to A/B (95/5) in 0.1 min, and maintained for additional 1.9 min (13min in total).; Injection volume: 10 μL
Num peaks: 74
71.00095 31
72.2243 20
77.03732 26
80.02661 19
102.97453 22
105.0139 22
121.02288 29
121.02851 74
128.07213 20
130.9632 30
130.97607 22
131.03897 26
139.05197 20
142.01544 20
150.01048 21
164.01843 27
166.00296 79
167.03384 26
168.00175 35
168.99873 54
174.95584 25
179.00772 25
179.03586 250
180.02092 32
180.04192 24
181.03479 26
181.04433 24
184.02032 21
185.88588 25
203.96886 43
206.96426 20
216.88345 26
219.80492 132
226.03796 431
226.05562 41
227.04271 55
228.03903 149
228.06398 37
229.0441 24
243.04959 84
243.10101 20
244.04082 108
244.0486 350
244.07356 52
245.04073 39
245.05116 42
246.04022 29
246.05479 106
251.99915 25
253.03258 28
257.08557 24
265.02112 20
271.06174 154
271.08069 20
272.06952 24
273.04834 26
273.06149 64
276.07617 21
285.00732 43
287.10779 51
307.32245 29
311.13193 20
314.85382 24
324.06268 25
326.99298 21
327.4895 20
338.25851 22
352.08401 63
368.05478 20
371.15286 20
380.11816 41
384.26083 20
386.12714 21
400.146 1060
Name: Pyridoxal phosphate
PrecursorMZ: 493.0411
PrecursorType: [2M-2H2O-H]-
IonMode: Negative
Formula: C8H12NO7P
SMILES: CC1=NC=C(C(=C1O)C=O)COP(=O)(O)O.O
InChI: 
InChIKey: CEEQUQSGVRRXQI-UHFFFAOYSA-N
RetentionTime: 4.08755
CCS: 
CollisionEnergy: 20-40 eV
InstrumentType: UPLC-QTOF-MS
Comment: PI: Cristina Nerin; Data collector: QiZhi Su, GUIA, University of Zaragoza, Spain; Collision energy: 20-40 V; Instrument: Waters HPLC-QTOF-MS (Xevo G2 QTof); Ionization: ESI; Deconvoluted by MS-DIAL; Column: Waters AtlantisTM premier BEH C18 AX column (2.1 × 100mm x 1.7μm); Flow rate: 0.3mL/min; Mobile phase A and B are water and methnaol, respectively, both with 0.1% formic acid; Gradient elution: from A/B (95/5) to A/B (100/0) in 7min, kept for 4 min, then back to A/B (95/5) in 0.1 min, and maintained for additional 1.9 min (13min in total).; Injection volume: 10 μL
Num peaks: 16
78.94765 132
78.9575 3198
96.96776 9966
126.90572 114
138.05211 120
211.04337 131
228.00914 379
239.04358 156
246.01549 8303
246.043 286
247.01006 233
247.02223 433
248.02312 191
248.8828 188
325.98279 313
493.04196 2041
Name: Pyridoxal phosphate
PrecursorMZ: 246.0157
PrecursorType: [M-H2O-H]-
IonMode: Negative
Formula: C8H12NO7P
SMILES: CC1=NC=C(C(=C1O)C=O)COP(=O)(O)O.O
InChI: 
InChIKey: CEEQUQSGVRRXQI-UHFFFAOYSA-N
RetentionTime: 4.129416
CCS: 
CollisionEnergy: 20-40 eV
InstrumentType: UPLC-QTOF-MS
Comment: PI: Cristina Nerin; Data collector: QiZhi Su, GUIA, University of Zaragoza, Spain; Collision energy: 20-40 V; Instrument: Waters HPLC-QTOF-MS (Xevo G2 QTof); Ionization: ESI; Deconvoluted by MS-DIAL; Column: Waters AtlantisTM premier BEH C18 AX column (2.1 × 100mm x 1.7μm); Flow rate: 0.3mL/min; Mobile phase A and B are water and methnaol, respectively, both with 0.1% formic acid; Gradient elution: from A/B (95/5) to A/B (100/0) in 7min, kept for 4 min, then back to A/B (95/5) in 0.1 min, and maintained for additional 1.9 min (13min in total).; Injection volume: 10 μL
Num peaks: 9
78.95808 3021
96.96735 9654
148.04123 145
218.02135 117
228.00494 663
239.02519 207
239.03847 276
240.03931 111
246.01611 8645
Name: Sulfacetamide sodium
PrecursorMZ: 213.032
PrecursorType: [M-Na]-
IonMode: Negative
Formula: HFOPS
SMILES: CC(=O)[N-]S(=O)(=O)C1=CC=C(C=C1)N.[Na+]
InChI: 
InChIKey: PQMSFAORUFMASU-UHFFFAOYSA-M
RetentionTime: 1.046583
CCS: 
CollisionEnergy: 20-40 eV
InstrumentType: UPLC-QTOF-MS
Comment: PI: Cristina Nerin; Data collector: QiZhi Su, GUIA, University of Zaragoza, Spain; Collision energy: 20-40 V; Instrument: Waters HPLC-QTOF-MS (Xevo G2 QTof); Ionization: ESI; Deconvoluted by MS-DIAL; Column: Waters AtlantisTM premier BEH C18 AX column (2.1 × 100mm x 1.7μm); Flow rate: 0.3mL/min; Mobile phase A and B are water and methnaol, respectively, both with 0.1% formic acid; Gradient elution: from A/B (95/5) to A/B (100/0) in 7min, kept for 4 min, then back to A/B (95/5) in 0.1 min, and maintained for additional 1.9 min (13min in total).; Injection volume: 10 μL
Num peaks: 34
58.03098 83
63.95548 76
63.96235 76
79.95339 111
79.97618 87
79.98421 81
92.0436 111
101.03633 52
107.03547 117
107.06414 39
108.04367 636
109.05889 52
120.98289 146
121.98194 103
121.99548 101
131.05765 86
145.02238 33
146.9847 36
155.9874 181
156.00029 548
156.00597 548
156.01935 524
157.01364 46
171.01701 1299
171.02411 1324
172.00554 160
172.02748 163
195.00731 630
195.02171 625
196.02167 63
196.03249 63
197.06743 55
213.03102 3087
213.05084 154
Name: Sulfacetamide sodium
PrecursorMZ: 213.0315
PrecursorType: [M-Na]-
IonMode: Negative
Formula: HFOPS
SMILES: CC(=O)[N-]S(=O)(=O)C1=CC=C(C=C1)N.[Na+]
InChI: 
InChIKey: PQMSFAORUFMASU-UHFFFAOYSA-M
RetentionTime: 2.517167
CCS: 
CollisionEnergy: 20-40 eV
InstrumentType: UPLC-QTOF-MS
Comment: PI: Cristina Nerin; Data collector: QiZhi Su, GUIA, University of Zaragoza, Spain; Collision energy: 20-40 V; Instrument: Waters HPLC-QTOF-MS (Xevo G2 QTof); Ionization: ESI; Deconvoluted by MS-DIAL; Column: Waters AtlantisTM premier BEH C18 AX column (2.1 × 100mm x 1.7μm); Flow rate: 0.3mL/min; Mobile phase A and B are water and methnaol, respectively, both with 0.1% formic acid; Gradient elution: from A/B (95/5) to A/B (100/0) in 7min, kept for 4 min, then back to A/B (95/5) in 0.1 min, and maintained for additional 1.9 min (13min in total).; Injection volume: 10 μL
Num peaks: 48
58.02786 33
63.96258 98
74.00374 33
78.96873 123
78.97501 34
79.95615 114
79.98005 173
81.97414 37
92.04179 36
92.04931 32
102.94566 34
103.98074 48
105.96902 35
107.035 305
107.05829 44
108.03218 63
108.04496 789
108.05391 56
109.0462 58
120.9863 149
121.98507 193
121.99366 124
123.98069 34
127.95135 28
130.96634 29
131.06528 48
152.2484 62
155.01093 85
156.00414 207
156.01265 393
156.02303 37
161.02133 30
164.89281 49
168.04852 40
171.02115 2039
172.00217 100
172.0152 112
172.02972 28
173.01288 28
174.10175 42
195.01701 673
195.02538 614
195.04448 28
196.0278 75
207.09843 37
209.38057 31
210.3369 38
213.03166 2538
Name: Phenobarbital sodium
PrecursorMZ: 231.0745
PrecursorType: [M-Na]-
IonMode: Negative
Formula: HFOS
SMILES: CCC1(C(=O)NC(=NC1=O)[O-])C2=CC=CC=C2.[Na+]
InChI: 
InChIKey: WRLGYAWRGXKSKG-UHFFFAOYSA-M
RetentionTime: 5.249817
CCS: 
CollisionEnergy: 20-40 eV
InstrumentType: UPLC-QTOF-MS
Comment: PI: Cristina Nerin; Data collector: QiZhi Su, GUIA, University of Zaragoza, Spain; Collision energy: 20-40 V; Instrument: Waters HPLC-QTOF-MS (Xevo G2 QTof); Ionization: ESI; Deconvoluted by MS-DIAL; Column: Waters AtlantisTM premier BEH C18 AX column (2.1 × 100mm x 1.7μm); Flow rate: 0.3mL/min; Mobile phase A and B are water and methnaol, respectively, both with 0.1% formic acid; Gradient elution: from A/B (95/5) to A/B (100/0) in 7min, kept for 4 min, then back to A/B (95/5) in 0.1 min, and maintained for additional 1.9 min (13min in total).; Injection volume: 10 μL
Num peaks: 114
71.01155 24
74.9489 23
79.95522 121
79.96094 57
80.95999 30
85.03273 43
93.02559 29
93.03248 72
96.95519 26
99.00185 25
99.08079 20
102.95029 23
103.08983 30
107.05222 20
108.03663 52
108.04367 162
109.04794 19
111.01145 26
111.08427 35
114.03851 88
117.02625 43
118.78869 22
119.92873 35
122.06143 20
122.89484 26
123.03601 51
125.02087 19
131.02667 22
133.07146 30
134.01698 26
135.93433 21
136.05371 20
137.06644 39
138.01421 49
139.04161 27
139.92099 34
141.91951 27
141.93941 30
144.05881 22
145.87733 28
145.92719 23
147.85257 23
148.05714 27
149.91624 24
152.01859 21
154.04544 24
155.04431 20
155.91356 33
156.99414 20
157.05937 29
159.02957 45
161.8869 20
163.98457 21
166.95407 61
167.04308 39
167.87437 25
168.94246 21
168.9523 21
169.009 19
169.03705 20
170.00821 20
170.94618 23
171.99959 120
172.00877 255
172.01726 88
173.00858 21
173.01614 50
173.02747 69
173.07298 67
175.88947 55
176.0143 29
179.03381 20
180.94209 23
183.03725 187
183.09766 26
184.0444 45
184.91985 20
184.92841 39
186.00804 64
186.93237 30
188.04581 21
188.06744 24
189.94124 39
191.02873 26
193.07397 25
196.02832 39
199.01884 27
199.03554 20
205.01718 23
208.98933 24
209.0002 23
210.0202 23
210.02928 37
211.00867 20
211.02776 24
211.04088 69
212.93901 50
212.97897 25
213.96581 20
214.0022 25
214.02724 33
215.9884 296
218.00294 43
219.05247 23
219.07864 20
222.57335 43
223.93877 24
225.87599 20
226.02272 20
227.0148 41
227.02611 93
228.01857 39
231.07239 711
231.09134 82
Name: Phenobarbital sodium
PrecursorMZ: 231.0747
PrecursorType: [M-Na]-
IonMode: Negative
Formula: HFOS
SMILES: CCC1(C(=O)NC(=NC1=O)[O-])C2=CC=CC=C2.[Na+]
InChI: 
InChIKey: WRLGYAWRGXKSKG-UHFFFAOYSA-M
RetentionTime: 5.325967
CCS: 
CollisionEnergy: 20-40 eV
InstrumentType: UPLC-QTOF-MS
Comment: PI: Cristina Nerin; Data collector: QiZhi Su, GUIA, University of Zaragoza, Spain; Collision energy: 20-40 V; Instrument: Waters HPLC-QTOF-MS (Xevo G2 QTof); Ionization: ESI; Deconvoluted by MS-DIAL; Column: Waters AtlantisTM premier BEH C18 AX column (2.1 × 100mm x 1.7μm); Flow rate: 0.3mL/min; Mobile phase A and B are water and methnaol, respectively, both with 0.1% formic acid; Gradient elution: from A/B (95/5) to A/B (100/0) in 7min, kept for 4 min, then back to A/B (95/5) in 0.1 min, and maintained for additional 1.9 min (13min in total).; Injection volume: 10 μL
Num peaks: 94
50.677 20
54.64485 21
67.02903 38
70.99606 43
71.35803 27
71.92604 21
74.07233 80
74.34665 36
79.95273 71
79.95866 59
80.96796 36
81.93687 23
87.4275 20
96.96137 31
99.92815 29
101.04271 38
108.041 27
109.0265 20
109.04688 20
115.92464 28
116.92954 22
117.02679 30
118.02597 43
121.02497 106
122.04108 28
122.29704 20
128.87804 49
130.94537 21
130.96524 29
131.04532 27
132.04138 29
136.09213 39
138.93233 20
140.94212 80
144.08063 57
145.0435 21
148.90005 21
149.03084 23
155.91771 28
156.91028 42
157.04015 19
159.02692 36
161.02106 21
165.01715 29
167.86565 23
168.05011 20
168.9501 20
170.00291 22
171.03587 63
171.9543 31
171.97298 25
171.99448 21
172.01089 353
172.95395 20
173.01347 19
173.99445 78
174.9034 23
174.94666 46
175.19824 27
176.89561 23
177.69281 21
177.90324 25
180.9263 27
181.93719 20
183.01941 27
183.03667 20
184.03951 23
185.01756 21
185.98039 29
186.04662 21
188.08449 21
189.06813 31
189.93509 44
193.07906 23
194.93214 36
195.04417 56
196.93474 26
199.01051 30
199.04097 20
211.04414 45
212.03273 36
213.96692 23
214.05431 25
215.06015 42
216.99414 31
219.99677 30
223.01672 22
225.16931 25
229.03023 70
229.08028 43
229.97565 54
230.94482 22
231.06917 565
231.07762 1094
Name: Resazurin
PrecursorMZ: 228.028
PrecursorType: [M-Na]-
IonMode: Negative
Formula: HFIOPS
SMILES: C1=CC2=C(C=C1[O-])OC3=CC(=O)C=CC3=[N+]2[O-].[Na+]
InChI: 
InChIKey: IVGPGQSSDLDOLH-UHFFFAOYSA-M
RetentionTime: 5.981266
CCS: 
CollisionEnergy: 20-40 eV
InstrumentType: UPLC-QTOF-MS
Comment: PI: Cristina Nerin; Data collector: QiZhi Su, GUIA, University of Zaragoza, Spain; Collision energy: 20-40 V; Instrument: Waters HPLC-QTOF-MS (Xevo G2 QTof); Ionization: ESI; Deconvoluted by MS-DIAL; Column: Waters AtlantisTM premier BEH C18 AX column (2.1 × 100mm x 1.7μm); Flow rate: 0.3mL/min; Mobile phase A and B are water and methnaol, respectively, both with 0.1% formic acid; Gradient elution: from A/B (95/5) to A/B (100/0) in 7min, kept for 4 min, then back to A/B (95/5) in 0.1 min, and maintained for additional 1.9 min (13min in total).; Injection volume: 10 μL
Num peaks: 44
76.01855 398
76.02911 398
79.01701 2171
95.00499 754
95.0127 757
105.0066 1050
105.02088 1082
116.03454 503
116.04847 509
118.02724 2027
118.03462 2027
120.00432 640
120.01163 645
133.01462 2285
133.02844 2302
144.04199 1958
145.0219 401
145.04341 467
146.02104 1579
146.02803 1594
155.03014 796
155.03763 808
155.04848 804
156.04622 614
158.01801 528
158.026 548
168.04369 471
172.03741 1941
173.02805 424
174.95929 412
182.01761 513
182.02618 521
183.03046 1480
184.02966 1603
184.03796 1619
198.03038 576
199.02156 683
199.03206 698
200.02893 435
211.02287 738
211.03696 717
212.0332 13056
213.0352 1535
228.02818 38126
Name: PPG (9)
PrecursorMZ: 585.3843
PrecursorType: [M+FA-H]-
IonMode: Negative
Formula: C27H56O10
SMILES: CC(O)COC(C)COC(C)COC(C)COC(C)COC(C)COC(C)COC(C)COC(C)CO
InChI: 
InChIKey: DXVLAUMXGHQKAV-UHFFFAOYNA-N
RetentionTime: 7.120883
CCS: 
CollisionEnergy: 20-40 eV
InstrumentType: UPLC-QTOF-MS
Comment: PI: Cristina Nerin; Data collector: QiZhi Su, GUIA, University of Zaragoza, Spain; Collision energy: 20-40 V; Instrument: Waters HPLC-QTOF-MS (Xevo G2 QTof); Ionization: ESI; Deconvoluted by MS-DIAL; Column: Waters AtlantisTM premier BEH C18 AX column (2.1 × 100mm x 1.7μm); Flow rate: 0.3mL/min; Mobile phase A and B are water and methnaol, respectively, both with 0.1% formic acid; Gradient elution: from A/B (95/5) to A/B (100/0) in 7min, kept for 4 min, then back to A/B (95/5) in 0.1 min, and maintained for additional 1.9 min (13min in total).; Injection volume: 10 μL
Num peaks: 89
53.84384 102
61.98656 70
79.95237 114
79.95792 180
80.96254 110
80.97002 110
85.06802 106
85.89583 80
96.95943 129
107.04712 1193
115.92524 56
119.04532 81
127.0584 82
127.0748 61
130.95294 60
155.98569 183
170.00575 101
170.99767 65
178.04732 68
183.00984 1176
184.0042 196
184.02095 138
185.00169 101
185.01523 281
185.03558 235
193.0865 63
198.02982 70
207.10147 57
207.81856 83
209.06068 338
211.11752 118
215.15625 66
225.05124 150
239.02649 162
239.03355 95
239.05867 59
274.02835 113
285.10596 56
286.0918 133
286.10248 94
293.17813 154
297.14877 164
298.14044 126
301.12158 230
309.14633 57
309.16156 98
311.16708 1568
311.20212 66
312.16516 311
317.10712 78
325.18213 965
325.19913 259
326.18924 89
327.19107 82
339.16364 69
339.19177 191
341.05359 96
341.06635 95
351.05222 119
357.20444 93
365.05856 132
366.03876 80
366.05258 228
366.06613 229
367.05341 68
367.09033 62
379.06985 57
380.07254 80
381.08096 5531
381.11414 188
382.06836 381
382.08755 938
382.12173 56
383.06973 220
383.07864 125
383.09982 84
403.05698 557
403.07098 147
404.06595 107
409.18445 114
432.05521 57
445.09506 57
448.17325 61
455.16479 60
465.05762 62
509.854 106
538.87054 62
562.3606 89
584.75696 62
Name: PPG (10)
PrecursorMZ: 643.428
PrecursorType: [M+FA-H]-
IonMode: Negative
Formula: C30H62O11
SMILES: CC(O)COC(C)COC(C)COC(C)COC(C)COC(C)COC(C)COC(C)COC(C)COC(C)CO
InChI: 
InChIKey: MCVKSYYBBHNAFN-UHFFFAOYNA-N
RetentionTime: 7.276967
CCS: 
CollisionEnergy: 20-40 eV
InstrumentType: UPLC-QTOF-MS
Comment: PI: Cristina Nerin; Data collector: QiZhi Su, GUIA, University of Zaragoza, Spain; Collision energy: 20-40 V; Instrument: Waters HPLC-QTOF-MS (Xevo G2 QTof); Ionization: ESI; Deconvoluted by MS-DIAL; Column: Waters AtlantisTM premier BEH C18 AX column (2.1 × 100mm x 1.7μm); Flow rate: 0.3mL/min; Mobile phase A and B are water and methnaol, respectively, both with 0.1% formic acid; Gradient elution: from A/B (95/5) to A/B (100/0) in 7min, kept for 4 min, then back to A/B (95/5) in 0.1 min, and maintained for additional 1.9 min (13min in total).; Injection volume: 10 μL
Num peaks: 75
56.57489 63
79.95559 507
80.96288 130
80.97011 84
96.9612 226
98.95132 121
107.04665 621
107.0566 169
155.98553 123
156.9872 68
170.00243 107
183.00494 602
183.01433 1033
184.01572 476
185.01849 339
186.01544 101
197.00659 141
209.05029 120
209.06139 294
211.07993 73
239.03258 265
255.07338 171
267.25787 79
286.09644 110
297.14426 107
298.14594 74
298.16428 217
300.12988 86
301.1156 96
301.12732 89
301.14117 97
311.08411 89
311.16956 2151
312.17258 291
312.18564 126
313.16956 196
313.18613 78
314.22711 69
317.11578 69
325.18594 982
326.17407 62
326.19006 96
326.21194 75
327.19064 98
335.03397 64
339.19965 162
341.05603 246
341.07077 180
351.01822 68
351.03635 74
352.03918 96
365.0582 117
366.05511 451
367.04465 72
367.07114 78
379.06021 65
381.07971 6159
382.08148 1129
382.10876 96
383.0643 120
383.0845 367
386.09305 72
395.05429 126
403.05341 406
404.04443 70
404.06494 71
404.09787 66
405.0434 76
419.04156 65
447.11472 65
471.04431 100
509.85397 89
511.86563 133
589.78497 63
590.79144 176
Name: PPG (11)
PrecursorMZ: 701.4667
PrecursorType: [M+FA-H]-
IonMode: Negative
Formula: C33H68O12
SMILES: CC(O)COC(C)COC(C)COC(C)COC(C)COC(C)COC(C)COC(C)COC(C)COC(C)COC(C)CO
InChI: 
InChIKey: ZRTKYIJRMCSONJ-UHFFFAOYNA-N
RetentionTime: 7.394983
CCS: 
CollisionEnergy: 20-40 eV
InstrumentType: UPLC-QTOF-MS
Comment: PI: Cristina Nerin; Data collector: QiZhi Su, GUIA, University of Zaragoza, Spain; Collision energy: 20-40 V; Instrument: Waters HPLC-QTOF-MS (Xevo G2 QTof); Ionization: ESI; Deconvoluted by MS-DIAL; Column: Waters AtlantisTM premier BEH C18 AX column (2.1 × 100mm x 1.7μm); Flow rate: 0.3mL/min; Mobile phase A and B are water and methnaol, respectively, both with 0.1% formic acid; Gradient elution: from A/B (95/5) to A/B (100/0) in 7min, kept for 4 min, then back to A/B (95/5) in 0.1 min, and maintained for additional 1.9 min (13min in total).; Injection volume: 10 μL
Num peaks: 119
53.40646 55
59.01137 97
79.95436 435
80.96329 223
92.9977 117
95.01211 120
96.95799 298
103.00717 119
107.04945 891
113.49424 52
119.04838 65
125.06277 70
147.01276 58
155.98505 187
156.98723 110
169.98724 79
169.99733 125
170.00807 148
181.04736 61
183.00822 2062
184.00313 136
184.01639 328
184.03006 70
185.01463 412
185.02217 130
197.01532 76
197.02934 88
198.0312 57
207.08858 51
209.05537 455
210.05756 85
210.07172 60
210.99089 70
212.06551 66
213.08928 62
225.05824 87
227.15572 68
233.14772 177
233.16232 93
237.99995 57
239.22386 102
240.03841 51
253.07933 59
258.10709 51
265.14969 53
283.08221 58
283.20447 108
284.08661 140
285.10495 57
285.13522 72
291.20132 88
293.17401 109
297.1506 396
298.16455 87
299.10907 164
301.09729 68
301.12259 60
309.13657 53
309.15198 74
309.17435 100
311.07373 75
311.16721 3330
312.16809 403
312.17868 149
313.16528 116
317.1174 70
323.17371 92
325.18262 1324
326.18143 408
327.17838 82
328.06241 67
337.2001 114
339.19745 349
339.21344 73
340.19995 127
341.06314 213
342.06119 99
351.02951 110
351.04471 58
353.03043 52
353.04434 118
356.69571 78
365.04694 151
366.04517 131
366.05896 230
367.06705 53
368.04971 59
380.08197 209
381.077 5094
381.12051 116
381.23685 81
382.06567 329
382.0856 1048
383.08044 287
384.09372 52
394.11884 76
403.06207 703
403.09229 97
404.05432 130
404.08032 69
421.2121 91
425.26254 83
442.89056 81
459.479 52
461.35931 76
465.03873 77
467.04651 65
471.03439 62
509.87619 54
510.86755 79
515.0365 70
532.02637 65
540.97266 57
588.7915 120
604.93793 77
625.00726 56
629.31732 52
662.26349 71
696.72784 82
Name: PPG (12)
PrecursorMZ: 759.5102
PrecursorType: [M+FA-H]-
IonMode: Negative
Formula: C36H74O13
SMILES: CC(O)COC(C)COC(C)COC(C)COC(C)COC(C)COC(C)COC(C)COC(C)COC(C)COC(C)COC(C)CO
InChI: 
InChIKey: XUAGABNXLLHNRF-UHFFFAOYNA-N
RetentionTime: 7.50165
CCS: 
CollisionEnergy: 20-40 eV
InstrumentType: UPLC-QTOF-MS
Comment: PI: Cristina Nerin; Data collector: QiZhi Su, GUIA, University of Zaragoza, Spain; Collision energy: 20-40 V; Instrument: Waters HPLC-QTOF-MS (Xevo G2 QTof); Ionization: ESI; Deconvoluted by MS-DIAL; Column: Waters AtlantisTM premier BEH C18 AX column (2.1 × 100mm x 1.7μm); Flow rate: 0.3mL/min; Mobile phase A and B are water and methnaol, respectively, both with 0.1% formic acid; Gradient elution: from A/B (95/5) to A/B (100/0) in 7min, kept for 4 min, then back to A/B (95/5) in 0.1 min, and maintained for additional 1.9 min (13min in total).; Injection volume: 10 μL
Num peaks: 99
79.95562 138
79.96043 132
80.96506 189
83.04902 96
93.0273 72
96.95609 133
96.96046 314
102.95833 101
107.04597 607
119.04434 156
123.08131 66
125.08857 88
137.00562 68
143.07739 124
149.09192 68
155.98441 189
157.99503 126
170.00284 123
171.01123 136
173.078 79
183.01035 3634
183.99747 115
184.01067 360
184.02011 316
185.00757 298
185.02002 349
198.03389 138
209.04811 264
209.06491 260
210.0668 59
221.14267 182
223.07898 62
233.1498 62
239.03662 250
244.08131 75
255.03041 84
268.23996 62
284.56641 66
293.17276 128
297.14792 217
299.11075 126
301.1319 182
311.16721 3333
311.18921 298
312.15936 230
312.17422 406
313.16241 124
315.25781 75
319.46051 61
325.1806 1658
326.18149 232
326.20105 69
327.17328 75
338.01868 92
339.19315 436
339.20633 326
340.21182 118
341.0618 288
341.16684 59
341.18866 114
342.18198 66
345.009 118
351.02643 79
353.1723 79
354.04236 65
365.04861 102
366.04309 155
366.05316 356
366.06897 212
367.0596 172
371.18988 123
379.06006 99
380.06369 133
380.09189 65
380.15369 66
381.07822 5893
382.08203 1366
382.10672 244
383.06769 372
383.10062 75
384.08426 79
391.23715 65
395.06708 77
397.07416 69
403.06131 750
404.06097 164
405.04861 74
455.09354 117
465.02783 130
469.29944 156
473.15967 64
509.83163 60
509.87027 144
511.86185 61
554.8996 96
563.315 103
624.01459 65
661.98395 65
726.29663 70
