Name: 2-Dimethylaminoethanol
PrecursorMZ: 90.09137
PrecursorType: [M+H]+
IonMode: Positive
Formula: C4H11NO
SMILES: CN(C)CCO
InChI: 
InChIKey: UEEJHVSXFDXPFK-UHFFFAOYSA-N
RetentionTime: 0.53975
CCS: 
CollisionEnergy: 20-40 eV
InstrumentType: UPLC-QTOF-MS
Comment: PI: Cristina Nerin; Data collector: QiZhi Su, GUIA, University of Zaragoza, Spain; Collision energy: 20-40 V; Instrument: Waters HPLC-QTOF-MS (Xevo G2 QTof); Ionization: ESI; Deconvoluted by MS-DIAL; Column: Waters AtlantisTM premier BEH C18 AX column (2.1 × 100mm x 1.7μm); Flow rate: 0.3mL/min; Mobile phase A and B are water and methnaol, respectively, both with 0.1% formic acid; Gradient elution: from A/B (95/5) to A/B (100/0) in 7min, kept for 4 min, then back to A/B (95/5) in 0.1 min, and maintained for additional 1.9 min (13min in total).; Injection volume: 10 μL
Num peaks: 19
50.80124 25
58.06155 27
60.98906 27
61.92969 21
70.05735 53
70.06487 33
71.07165 25
71.07656 36
72.0727 46
72.08083 199
72.08482 110
72.0899 49
73.08832 20
73.15106 539
84.07864 25
88.07584 221
88.08331 112
89.0782 21
90.09489 93
Name: 1-nitrosopyrrolidine
PrecursorMZ: 101.0738
PrecursorType: [M+H]+
IonMode: Positive
Formula: C4H8N2O
SMILES: C1CCN(C1)N=O
InChI: 
InChIKey: WNYADZVDBIBLJJ-UHFFFAOYSA-N
RetentionTime: 2.463767
CCS: 
CollisionEnergy: 20-40 eV
InstrumentType: UPLC-QTOF-MS
Comment: PI: Cristina Nerin; Data collector: QiZhi Su, GUIA, University of Zaragoza, Spain; Collision energy: 20-40 V; Instrument: Waters HPLC-QTOF-MS (Xevo G2 QTof); Ionization: ESI; Deconvoluted by MS-DIAL; Column: Waters AtlantisTM premier BEH C18 AX column (2.1 × 100mm x 1.7μm); Flow rate: 0.3mL/min; Mobile phase A and B are water and methnaol, respectively, both with 0.1% formic acid; Gradient elution: from A/B (95/5) to A/B (100/0) in 7min, kept for 4 min, then back to A/B (95/5) in 0.1 min, and maintained for additional 1.9 min (13min in total).; Injection volume: 10 μL
Num peaks: 27
53.04169 24
55.05393 55
56.05837 96
56.93721 20
63.00295 30
65.03461 26
68.05748 77
70.06262 71
70.06851 177
75.38647 20
79.0463 33
81.95248 21
81.96384 20
82.98632 21
83.08908 22
84.96364 21
91.05866 23
92.01178 26
93.07777 23
94.96857 20
96.09037 24
96.94243 27
97.03579 38
98.96073 34
100.94981 22
101.07137 140
101.07699 249
Name: Bis(2-ethylhexyl) phthalate
PrecursorMZ: 413.2659
PrecursorType: [M+Na]+
IonMode: Positive
Formula: C24H38O4
SMILES: CCCCC(CC)COC(=O)C1=CC=CC=C1C(=O)OCC(CC)CCCC
InChI: 
InChIKey: BJQHLKABXJIVAM-UHFFFAOYSA-N
RetentionTime: 8.579917
CCS: 
CollisionEnergy: 20-40 eV
InstrumentType: UPLC-QTOF-MS
Comment: PI: Cristina Nerin; Data collector: QiZhi Su, GUIA, University of Zaragoza, Spain; Collision energy: 20-40 V; Instrument: Waters HPLC-QTOF-MS (Xevo G2 QTof); Ionization: ESI; Deconvoluted by MS-DIAL; Column: Waters AtlantisTM premier BEH C18 AX column (2.1 × 100mm x 1.7μm); Flow rate: 0.3mL/min; Mobile phase A and B are water and methnaol, respectively, both with 0.1% formic acid; Gradient elution: from A/B (95/5) to A/B (100/0) in 7min, kept for 4 min, then back to A/B (95/5) in 0.1 min, and maintained for additional 1.9 min (13min in total).; Injection volume: 10 μL
Num peaks: 113
57.06914 66
57.076 66
65.03938 449
65.04816 448
71.08642 223
73.03262 654
73.03957 614
73.0483 570
73.06648 521
74.05718 69
74.06355 79
77.03892 70
89.07661 58
93.02998 246
93.03751 238
93.0483 258
101.0531 71
101.06499 75
101.07095 70
109.09563 86
109.10276 92
109.11408 93
114.02377 87
114.03727 110
114.04486 100
114.05342 111
121.0252 251
121.0335 261
121.05001 110
121.09354 67
121.10565 69
129.05092 86
129.06207 88
129.07198 68
147.06454 191
147.07253 183
147.08563 68
147.1154 148
149.02431 2303
150.03021 153
160.99168 147
163.04326 103
163.06094 126
163.07654 108
169.07967 80
169.09007 79
169.10483 97
170.99126 118
171.00359 175
171.01237 171
185.01561 138
189.01906 244
204.95726 76
204.97078 417
204.97958 411
204.98943 406
207.01901 157
207.03212 118
223.07014 91
237.07994 160
237.09914 231
267.01053 200
268.99991 57
273.10101 120
273.11465 133
274.22733 67
274.24234 76
274.7326 65
274.74542 79
281.05307 427
281.18228 73
281.19641 85
282.04425 250
282.05566 236
282.07254 203
297.11508 62
297.14301 155
301.14099 549
301.15723 520
302.13489 64
302.14789 98
317.08228 98
317.10208 591
317.11353 617
318.09818 89
318.10938 99
318.12735 66
319.19806 727
320.18326 65
320.20337 162
320.22852 101
320.24805 112
341.00876 135
341.03094 87
342.02481 66
343.01144 82
343.02713 77
353.03799 60
353.15781 91
353.17377 109
353.22467 58
353.23914 72
355.07358 1154
356.07117 213
357.07324 182
371.13077 59
372.1156 77
385.25223 82
393.27829 217
393.30115 440
394.28412 89
394.30338 133
413.2666 5624
Name: N-(2-Hydroxyethyl)ethylenediamine
PrecursorMZ: 105.1031
PrecursorType: [M+H]+
IonMode: Positive
Formula: C4H12N2O
SMILES: C(CNCCO)N
InChI: 
InChIKey: LHIJANUOQQMGNT-UHFFFAOYSA-N
RetentionTime: 0.5228944
CCS: 
CollisionEnergy: 20-40 eV
InstrumentType: UPLC-QTOF-MS
Comment: PI: Cristina Nerin; Data collector: QiZhi Su, GUIA, University of Zaragoza, Spain; Collision energy: 20-40 V; Instrument: Waters HPLC-QTOF-MS (Xevo G2 QTof); Ionization: ESI; Deconvoluted by MS-DIAL; Column: Waters AtlantisTM premier BEH C18 AX column (2.1 × 100mm x 1.7μm); Flow rate: 0.3mL/min; Mobile phase A and B are water and methnaol, respectively, both with 0.1% formic acid; Gradient elution: from A/B (95/5) to A/B (100/0) in 7min, kept for 4 min, then back to A/B (95/5) in 0.1 min, and maintained for additional 1.9 min (13min in total).; Injection volume: 10 μL
Num peaks: 27
57.02949 20
62.05855 31
69.07375 36
70.05866 25
70.06496 144
70.07215 61
71.0452 22
71.0646 21
74.05585 51
74.0667 21
81.99492 22
82.06591 58
84.96174 59
85.06949 20
85.07496 35
86.05328 20
87.08428 33
88.07444 385
88.08084 275
88.09438 20
92.04096 30
94.03031 26
100.00877 25
100.06751 23
100.07662 171
102.12766 20
103.96504 20
Name: m-Phenylenediamine
PrecursorMZ: 109.0797
PrecursorType: [M+H]+
IonMode: Positive
Formula: C6H8N2
SMILES: C1=CC(=CC(=C1)N)N
InChI: 
InChIKey: WZCQRUWWHSTZEM-UHFFFAOYSA-N
RetentionTime: 0.5625666
CCS: 
CollisionEnergy: 20-40 eV
InstrumentType: UPLC-QTOF-MS
Comment: PI: Cristina Nerin; Data collector: QiZhi Su, GUIA, University of Zaragoza, Spain; Collision energy: 20-40 V; Instrument: Waters HPLC-QTOF-MS (Xevo G2 QTof); Ionization: ESI; Deconvoluted by MS-DIAL; Column: Waters AtlantisTM premier BEH C18 AX column (2.1 × 100mm x 1.7μm); Flow rate: 0.3mL/min; Mobile phase A and B are water and methnaol, respectively, both with 0.1% formic acid; Gradient elution: from A/B (95/5) to A/B (100/0) in 7min, kept for 4 min, then back to A/B (95/5) in 0.1 min, and maintained for additional 1.9 min (13min in total).; Injection volume: 10 μL
Num peaks: 30
56.93787 25
65.02846 22
65.04055 367
65.04716 42
65.91944 20
66.03934 25
66.04588 20
67.04472 36
78.95338 21
79.05129 42
80.05626 31
81.33407 29
81.97049 34
84.09284 22
85.97442 22
92.04309 42
92.05499 601
93.03685 45
93.04584 20
93.05791 64
93.06435 19
96.98741 31
101.98745 31
102.98734 25
104.96239 25
105.10238 38
107.96337 21
108.07436 50
109.0732 52
109.08273 215
Name: Mesitaldehyde
PrecursorMZ: 149.096
PrecursorType: [M+H]+
IonMode: Positive
Formula: C10H12O
SMILES: CC1=CC(=C(C(=C1)C)C=O)C
InChI: 
InChIKey: HIKRJHFHGKZKRI-UHFFFAOYSA-N
RetentionTime: 6.586833
CCS: 
CollisionEnergy: 20-40 eV
InstrumentType: UPLC-QTOF-MS
Comment: PI: Cristina Nerin; Data collector: QiZhi Su, GUIA, University of Zaragoza, Spain; Collision energy: 20-40 V; Instrument: Waters HPLC-QTOF-MS (Xevo G2 QTof); Ionization: ESI; Deconvoluted by MS-DIAL; Column: Waters AtlantisTM premier BEH C18 AX column (2.1 × 100mm x 1.7μm); Flow rate: 0.3mL/min; Mobile phase A and B are water and methnaol, respectively, both with 0.1% formic acid; Gradient elution: from A/B (95/5) to A/B (100/0) in 7min, kept for 4 min, then back to A/B (95/5) in 0.1 min, and maintained for additional 1.9 min (13min in total).; Injection volume: 10 μL
Num peaks: 40
65.04018 142
65.04401 138
77.03886 1767
77.04631 1767
78.04009 106
78.04852 106
79.05417 1466
91.05477 1593
92.04659 111
92.057 128
92.06243 128
93.07083 268
93.08179 270
103.04589 1201
103.05415 1198
103.06158 1178
104.05424 204
104.06152 201
105.05254 6242
105.06952 6206
106.05987 515
106.0721 617
106.07866 619
117.06422 252
117.07171 266
117.07917 257
117.09059 136
118.07015 262
118.07663 263
118.08332 256
119.08607 1345
119.10475 894
120.07286 183
121.10107 787
131.09268 132
133.10094 394
134.10561 72
134.11491 70
147.08057 472
149.10236 126
Name: Irganox 1010
PrecursorMZ: 1194.812
PrecursorType: [M+NH4]+
IonMode: Positive
Formula: C73H108O12
SMILES: CC(C)(C)C1=CC(=CC(=C1O)C(C)(C)C)CCC(=O)OCC(COC(=O)CCC2=CC(=C(C(=C2)C(C)(C)C)O)C(C)(C)C)(COC(=O)CCC3=CC(=C(C(=C3)C(C)(C)C)O)C(C)(C)C)COC(=O)CCC4=CC(=C(C(=C4)C(C)(C)C)O)C(C)(C)C
InChI: 
InChIKey: BGYHLZZASRKEJE-UHFFFAOYSA-N
RetentionTime: 9.3764
CCS: 
CollisionEnergy: 20-40 eV
InstrumentType: UPLC-QTOF-MS
Comment: PI: Cristina Nerin; Data collector: QiZhi Su, GUIA, University of Zaragoza, Spain; Collision energy: 20-40 V; Instrument: Waters HPLC-QTOF-MS (Xevo G2 QTof); Ionization: ESI; Deconvoluted by MS-DIAL; Column: Waters AtlantisTM premier BEH C18 AX column (2.1 × 100mm x 1.7μm); Flow rate: 0.3mL/min; Mobile phase A and B are water and methnaol, respectively, both with 0.1% formic acid; Gradient elution: from A/B (95/5) to A/B (100/0) in 7min, kept for 4 min, then back to A/B (95/5) in 0.1 min, and maintained for additional 1.9 min (13min in total).; Injection volume: 10 μL
Num peaks: 75
60.08068 490
73.04753 173
73.06819 99
83.05013 169
107.0491 473
130.16269 94
149.0471 147
149.05997 182
149.0696 187
163.10498 563
163.11299 570
205.12032 95
219.17599 963
220.1713 146
220.1794 147
220.19197 139
317.14331 558
318.14236 113
318.15332 93
355.06866 410
357.06192 124
357.0831 109
371.10022 116
415.17044 306
415.18723 346
429.08539 294
445.12408 150
503.09515 137
563.22595 9170
564.21234 542
564.23486 1776
565.21234 101
565.23743 274
619.29022 3126
620.28979 839
620.31433 182
621.30652 143
675.34674 2579
676.35822 836
677.36121 126
711.25684 168
711.28998 240
729.26422 104
729.29199 2161
730.28461 593
730.31531 315
731.40942 2700
732.38513 118
732.41687 875
732.44226 128
733.41931 167
785.34985 1789
786.3443 457
786.37317 242
787.49609 119
841.39258 901
841.42493 891
842.39374 164
842.42474 502
843.57318 105
897.46362 704
897.50635 299
898.45825 399
898.50165 121
899.60516 851
899.64276 171
900.60175 460
953.51294 436
953.55756 736
954.52783 403
955.51581 99
955.55499 123
1009.61084 441
1010.60913 104
1194.81738 3925
Name: Irganox 1010
PrecursorMZ: 1199.772
PrecursorType: [M+Na]+
IonMode: Positive
Formula: C73H108O12
SMILES: CC(C)(C)C1=CC(=CC(=C1O)C(C)(C)C)CCC(=O)OCC(COC(=O)CCC2=CC(=C(C(=C2)C(C)(C)C)O)C(C)(C)C)(COC(=O)CCC3=CC(=C(C(=C3)C(C)(C)C)O)C(C)(C)C)COC(=O)CCC4=CC(=C(C(=C4)C(C)(C)C)O)C(C)(C)C
InChI: 
InChIKey: BGYHLZZASRKEJE-UHFFFAOYSA-N
RetentionTime: 9.418283
CCS: 
CollisionEnergy: 20-40 eV
InstrumentType: UPLC-QTOF-MS
Comment: PI: Cristina Nerin; Data collector: QiZhi Su, GUIA, University of Zaragoza, Spain; Collision energy: 20-40 V; Instrument: Waters HPLC-QTOF-MS (Xevo G2 QTof); Ionization: ESI; Deconvoluted by MS-DIAL; Column: Waters AtlantisTM premier BEH C18 AX column (2.1 × 100mm x 1.7μm); Flow rate: 0.3mL/min; Mobile phase A and B are water and methnaol, respectively, both with 0.1% formic acid; Gradient elution: from A/B (95/5) to A/B (100/0) in 7min, kept for 4 min, then back to A/B (95/5) in 0.1 min, and maintained for additional 1.9 min (13min in total).; Injection volume: 10 μL
Num peaks: 395
54.84954 113
59.04849 371
60.08195 342
65.78288 91
67.0545 115
69.06715 114
69.07408 103
71.08723 119
71.15428 154
73.04961 157
79.05051 165
79.21626 87
81.06654 114
81.07466 174
83.04803 169
83.08395 161
84.95834 339
85.10262 91
86.35488 88
89.04967 116
89.06022 177
91.05757 242
95.09325 119
97.0666 189
99.08491 210
106.06297 186
107.05034 314
109.09894 83
109.10509 210
115.07803 220
117.09062 921
120.73763 83
121.0657 108
123.07678 84
130.1562 151
132.04654 107
133.08449 113
137.06354 83
157.12526 120
159.14275 163
160.04756 190
163.11676 238
163.14555 93
175.13177 689
176.02605 130
176.07388 104
176.13275 124
180.09718 85
184.08174 117
184.08932 107
184.09943 143
185.06696 98
190.04929 103
194.12556 82
207.03578 244
218.06886 117
219.17517 1597
221.08589 1016
222.08009 87
222.09178 104
223.08432 89
233.17307 305
237.07951 414
238.07397 137
238.09547 96
244.97867 113
267.00323 97
281.05292 1171
282.05792 266
289.10471 93
295.09125 218
295.10614 312
296.11227 257
297.09692 165
317.1322 648
317.14661 1348
318.14124 158
321.17001 101
327.13177 232
327.14523 111
335.11401 262
341.02063 117
347.17712 99
349.17996 122
349.69681 100
355.06989 2250
356.06989 570
357.06656 155
357.36572 85
359.06149 92
363.3334 92
367.15344 93
369.12097 409
370.13052 111
371.0925 171
371.11264 501
372.10626 299
373.10861 94
378.19858 103
378.21353 342
385.16479 137
388.16138 139
398.24609 93
407.21005 94
414.26358 119
415.18295 107
419.30118 130
429.08853 1840
430.07547 181
430.09207 640
431.0755 172
431.09106 572
431.20734 115
432.08682 120
443.2034 140
443.2276 118
445.09644 91
445.13318 267
451.2067 83
463.25333 302
463.27859 172
493.07135 153
493.17993 84
501.25824 106
503.07187 120
503.09625 234
503.11618 396
504.0936 105
504.1142 213
505.10608 164
507.24466 187
511.20532 94
521.33282 109
523.32306 133
526.24872 89
533.39789 84
543.83075 83
561.37402 82
563.22479 3878
564.20355 185
564.23303 814
565.24353 216
569.32635 83
575.42126 86
599.51111 100
605.80139 89
608.36871 265
608.8703 150
608.92297 90
619.2843 1178
619.31 787
620.26605 146
620.29266 439
625.27997 85
649.45282 88
667.35852 84
675.31317 267
675.34015 917
675.3725 476
676.34003 176
676.3689 112
677.37213 105
693.40533 113
693.48914 95
711.30792 107
729.26727 281
729.28821 860
730.29883 455
731.37848 171
731.41632 1323
732.40607 449
732.44214 129
733.41241 92
751.97668 117
760.06165 90
772.79718 87
784.42529 82
785.31281 280
785.35529 767
786.32922 181
786.37939 210
794.93182 104
814.42981 140
825.62573 98
831.48541 123
838.41016 95
841.3833 331
841.41766 534
842.41321 472
842.46613 88
843.55084 126
843.57904 90
844.58948 82
846.48187 82
849.99207 168
852.05164 96
855.97681 151
857.81012 101
875.94122 110
883.00806 82
883.49237 124
884.97882 117
888.43268 128
888.70752 84
889.12207 87
889.98621 149
890.24548 99
897.47241 429
897.51526 227
898.45801 361
898.51343 157
899.5752 530
899.62109 748
900.52069 117
900.5954 433
900.63684 181
901.61157 335
901.64575 112
902.64996 82
908.5047 91
910.89038 99
914.5401 88
921.4491 89
922.48987 88
923.48529 87
926.48926 92
927.48004 89
927.85913 92
930.11646 90
930.52234 110
935.10413 125
939.82428 87
943.24152 132
944.24615 164
945.20575 98
946.24451 121
946.79187 87
947.3634 95
947.57178 114
948.5542 104
952.54437 94
952.76324 83
953.49011 130
953.53088 349
953.56964 227
954.5296 150
954.57812 136
955.53192 115
955.56372 108
963.862 121
964.17175 92
968.09467 127
973.36798 87
982.02252 97
985.84674 95
987.50812 115
992.02142 94
992.65179 165
997.52924 92
998.56482 117
1006.16547 103
1006.57074 154
1008.0097 100
1009.65033 91
1010.00336 83
1010.57001 100
1014.5921 86
1016.33722 101
1016.56696 164
1017.54572 91
1018.76373 87
1019.12885 86
1019.49908 83
1024.51392 134
1024.54749 83
1024.58545 94
1025.13647 95
1026.89856 83
1028.74866 126
1029.26904 84
1030.11438 86
1035.39453 83
1037.60608 88
1041.72009 91
1044.20605 97
1046.5614 148
1048.81494 89
1050.5448 98
1052.90918 100
1055.66309 99
1056.9353 89
1060.27954 101
1061.09827 120
1061.41711 160
1064.65759 117
1065.79089 87
1068.12988 104
1071.41345 182
1072.25134 85
1073.0564 113
1075.36975 111
1075.61499 105
1078.09583 87
1079.8822 113
1080.60486 88
1081.1405 204
1081.56714 97
1082.10229 251
1085.0332 95
1086.729 94
1087.60522 90
1088.76038 84
1089.96729 88
1091.16589 86
1091.57983 83
1096.58826 115
1098.53064 132
1101.72192 83
1103.21887 89
1105.48047 186
1107.01526 141
1108.61023 89
1109.97241 97
1112.01099 109
1112.63916 83
1114.56421 82
1114.6521 104
1116.30969 115
1122.61243 116
1122.87451 156
1127.59827 84
1129.19031 131
1130.32068 98
1130.98926 85
1131.0769 135
1131.35559 83
1131.63708 86
1131.95728 83
1133.25073 176
1134.23657 95
1134.2832 82
1135.05347 86
1135.30188 109
1135.57886 122
1136.75391 96
1137.33472 99
1137.67566 138
1138.63782 91
1141.22949 83
1141.61353 84
1144.96399 86
1145.57971 96
1145.80969 89
1151.42651 91
1154.81641 109
1155.38293 85
1155.58582 110
1156.07568 88
1157.63452 88
1158.66418 89
1159.1543 111
1160.59021 122
1162.74927 151
1163.66345 86
1173.93237 94
1175.64404 85
1177.13049 92
1179.22449 88
1179.27869 105
1179.63452 93
1180.94324 136
1181.66357 113
1185.79126 126
1191.22351 104
1191.94446 88
1192.1853 84
1192.39587 137
1193.63989 126
1193.67615 89
1193.89661 87
1194.81226 2516
1195.81445 1480
1196.7666 923
1196.81714 944
1197.21667 357
1197.26855 2054
1197.76025 1181
1197.81177 620
1198.23071 225
1198.28027 756
1198.62585 83
1198.69116 118
1198.76758 560
1199.24036 166
1199.76575 8102
Name: "3,3-Dimethylbenzidine"
PrecursorMZ: 213.1396
PrecursorType: [M+H]+
IonMode: Positive
Formula: C14H16N2
SMILES: CC1=C(C=CC(=C1)C2=CC(=C(C=C2)N)C)N
InChI: 
InChIKey: NUIURNJTPRWVAP-UHFFFAOYSA-N
RetentionTime: 0.8594834
CCS: 
CollisionEnergy: 20-40 eV
InstrumentType: UPLC-QTOF-MS
Comment: PI: Cristina Nerin; Data collector: QiZhi Su, GUIA, University of Zaragoza, Spain; Collision energy: 20-40 V; Instrument: Waters HPLC-QTOF-MS (Xevo G2 QTof); Ionization: ESI; Deconvoluted by MS-DIAL; Column: Waters AtlantisTM premier BEH C18 AX column (2.1 × 100mm x 1.7μm); Flow rate: 0.3mL/min; Mobile phase A and B are water and methnaol, respectively, both with 0.1% formic acid; Gradient elution: from A/B (95/5) to A/B (100/0) in 7min, kept for 4 min, then back to A/B (95/5) in 0.1 min, and maintained for additional 1.9 min (13min in total).; Injection volume: 10 μL
Num peaks: 27
77.03979 3981
103.05555 5106
103.07099 5129
106.06609 4760
107.07356 5050
120.08099 338361
121.08398 24274
129.07133 3814
152.06248 5709
153.07022 7628
165.05103 6675
165.07039 7889
178.07809 45610
179.08359 10693
180.08113 150528
181.08844 111604
182.09247 18604
193.10069 12874
194.09737 19563
195.10304 26588
196.11165 81083
197.11136 33748
198.11548 78611
199.11954 8098
211.1234 9267
212.13129 37737
213.13815 40102
Name: "4,4-methylene-bis 2(-methylaniline)"
PrecursorMZ: 227.1556
PrecursorType: [M+H]+
IonMode: Positive
Formula: C15H18N2
SMILES: CC1=C(C=CC(=C1)CC2=CC(=C(C=C2)N)C)N
InChI: 
InChIKey: WECDUOXQLAIPQW-UHFFFAOYSA-N
RetentionTime: 1.686583
CCS: 
CollisionEnergy: 20-40 eV
InstrumentType: UPLC-QTOF-MS
Comment: PI: Cristina Nerin; Data collector: QiZhi Su, GUIA, University of Zaragoza, Spain; Collision energy: 20-40 V; Instrument: Waters HPLC-QTOF-MS (Xevo G2 QTof); Ionization: ESI; Deconvoluted by MS-DIAL; Column: Waters AtlantisTM premier BEH C18 AX column (2.1 × 100mm x 1.7μm); Flow rate: 0.3mL/min; Mobile phase A and B are water and methnaol, respectively, both with 0.1% formic acid; Gradient elution: from A/B (95/5) to A/B (100/0) in 7min, kept for 4 min, then back to A/B (95/5) in 0.1 min, and maintained for additional 1.9 min (13min in total).; Injection volume: 10 μL
Num peaks: 11
103.05454 869
103.06445 870
120.08134 62389
121.08549 3967
178.08003 4865
180.08368 3471
193.08757 2134
193.09619 2242
193.10416 2175
194.1001 1682
227.15579 15776
Name: "3,3-Dimethylbenzidine"
PrecursorMZ: 213.1399
PrecursorType: [M+H]+
IonMode: Positive
Formula: C14H16N2
SMILES: CC1=C(C=CC(=C1)C2=CC(=C(C=C2)N)C)N
InChI: 
InChIKey: NUIURNJTPRWVAP-UHFFFAOYSA-N
RetentionTime: 1.9721
CCS: 
CollisionEnergy: 20-40 eV
InstrumentType: UPLC-QTOF-MS
Comment: PI: Cristina Nerin; Data collector: QiZhi Su, GUIA, University of Zaragoza, Spain; Collision energy: 20-40 V; Instrument: Waters HPLC-QTOF-MS (Xevo G2 QTof); Ionization: ESI; Deconvoluted by MS-DIAL; Column: Waters AtlantisTM premier BEH C18 AX column (2.1 × 100mm x 1.7μm); Flow rate: 0.3mL/min; Mobile phase A and B are water and methnaol, respectively, both with 0.1% formic acid; Gradient elution: from A/B (95/5) to A/B (100/0) in 7min, kept for 4 min, then back to A/B (95/5) in 0.1 min, and maintained for additional 1.9 min (13min in total).; Injection volume: 10 μL
Num peaks: 36
106.06406 976
106.07255 980
107.05624 1111
107.07354 1207
107.08554 1186
152.06287 964
153.05318 1701
153.07132 1550
154.07257 625
154.07938 611
157.08324 449
157.09215 465
165.07152 1629
166.0735 424
166.08185 428
167.08043 420
178.07904 2487
179.08395 1392
179.09187 1408
180.08209 41974
181.08897 38506
182.09271 4885
183.08771 734
183.09502 714
183.10893 612
194.09326 909
194.10085 905
195.09668 1401
196.11256 29009
197.11165 9782
198.1158 29747
199.12067 2839
211.11583 1860
211.1277 1850
212.13199 11110
213.13945 20019
Name: Butyl acrylate
PrecursorMZ: 279.1586
PrecursorType: [2M+Na]+
IonMode: Positive
Formula: C7H12O2
SMILES: CCCCOC(=O)C=C
InChI: 
InChIKey: CQEYYJKEWSMYFG-UHFFFAOYSA-N
RetentionTime: 9.31935
CCS: 
CollisionEnergy: 20-40 eV
InstrumentType: UPLC-QTOF-MS
Comment: PI: Cristina Nerin; Data collector: QiZhi Su, GUIA, University of Zaragoza, Spain; Collision energy: 20-40 V; Instrument: Waters HPLC-QTOF-MS (Xevo G2 QTof); Ionization: ESI; Deconvoluted by MS-DIAL; Column: Waters AtlantisTM premier BEH C18 AX column (2.1 × 100mm x 1.7μm); Flow rate: 0.3mL/min; Mobile phase A and B are water and methnaol, respectively, both with 0.1% formic acid; Gradient elution: from A/B (95/5) to A/B (100/0) in 7min, kept for 4 min, then back to A/B (95/5) in 0.1 min, and maintained for additional 1.9 min (13min in total).; Injection volume: 10 μL
Num peaks: 24
65.03427 156
65.04079 153
71.08569 5665
72.08679 189
72.09196 195
77.0381 627
79.05443 4083
80.05566 138
80.0633 141
105.02944 524
105.03438 500
121.02789 442
121.04117 444
123.04121 193
123.04885 193
149.0069 770
167.00929 88
167.0347 3514
168.02103 144
168.02864 222
168.03787 215
168.04611 205
204.98203 162
279.15903 7370
Name: phenyl pentadecane-1-sulfonate
PrecursorMZ: 391.2264
PrecursorType: [M+Na]+
IonMode: Positive
Formula: C21H36O3S
SMILES: CCCCCCCCCCCCCCCS(=O)(=O)OC1=CC=CC=C1
InChI: 
InChIKey: UDKSLGIUCGAZTK-UHFFFAOYSA-N
RetentionTime: 8.541917
CCS: 
CollisionEnergy: 20-40 eV
InstrumentType: UPLC-QTOF-MS
Comment: PI: Cristina Nerin; Data collector: QiZhi Su, GUIA, University of Zaragoza, Spain; Collision energy: 20-40 V; Instrument: Waters HPLC-QTOF-MS (Xevo G2 QTof); Ionization: ESI; Deconvoluted by MS-DIAL; Column: Waters AtlantisTM premier BEH C18 AX column (2.1 × 100mm x 1.7μm); Flow rate: 0.3mL/min; Mobile phase A and B are water and methnaol, respectively, both with 0.1% formic acid; Gradient elution: from A/B (95/5) to A/B (100/0) in 7min, kept for 4 min, then back to A/B (95/5) in 0.1 min, and maintained for additional 1.9 min (13min in total).; Injection volume: 10 μL
Num peaks: 99
57.06958 458
70.06015 93
70.06786 87
71.08598 1504
72.08338 89
72.08912 95
85.06687 55
85.10126 1490
86.09232 88
86.10206 97
86.10914 98
88.07604 116
89.05783 71
89.06873 86
89.07455 92
95.03906 302
95.04654 299
95.0524 298
95.05852 319
99.10508 117
99.12276 69
117.02622 3136
117.03204 3137
117.05186 222
118.03222 151
118.04315 162
119.06858 129
127.14463 71
127.15824 69
132.97801 2625
132.99655 2328
133.05338 57
133.08527 53
133.10228 55
133.99051 61
134.00255 61
160.04216 64
160.05238 71
177.12363 87
178.98672 70
178.99712 77
180.97638 188
180.98633 340
180.99246 334
181.01825 84
189.04457 106
211.06203 196
221.0432 63
221.05995 94
227.03802 3608
228.03694 232
228.04892 259
233.14751 53
237.05946 268
237.11063 66
243.01152 273
243.02753 235
244.00755 59
244.01839 84
244.0334 74
245.00833 67
245.02173 78
250.95955 52
262.95004 56
281.07352 70
284.27768 56
290.98709 58
291.00635 68
295.19147 76
295.20703 53
305.09314 83
305.11218 77
309.13312 73
320.21414 62
320.22757 90
327.23251 190
327.25018 403
327.26376 355
328.24982 83
328.27875 59
329.24603 61
339.21646 66
339.23349 70
343.23065 5101
344.22424 712
344.23486 779
344.25092 745
345.24841 67
355.04358 209
355.2551 55
356.09531 96
359.20206 295
361.24512 167
361.26651 53
381.23508 115
383.24976 133
383.27301 108
391.22348 1765
391.24014 890
Name: phenyl pentadecane-1-sulfonate
PrecursorMZ: 759.4654
PrecursorType: [2M+Na]+
IonMode: Positive
Formula: C21H36O3S
SMILES: CCCCCCCCCCCCCCCS(=O)(=O)OC1=CC=CC=C1
InChI: 
InChIKey: UDKSLGIUCGAZTK-UHFFFAOYSA-N
RetentionTime: 8.541917
CCS: 
CollisionEnergy: 20-40 eV
InstrumentType: UPLC-QTOF-MS
Comment: PI: Cristina Nerin; Data collector: QiZhi Su, GUIA, University of Zaragoza, Spain; Collision energy: 20-40 V; Instrument: Waters HPLC-QTOF-MS (Xevo G2 QTof); Ionization: ESI; Deconvoluted by MS-DIAL; Column: Waters AtlantisTM premier BEH C18 AX column (2.1 × 100mm x 1.7μm); Flow rate: 0.3mL/min; Mobile phase A and B are water and methnaol, respectively, both with 0.1% formic acid; Gradient elution: from A/B (95/5) to A/B (100/0) in 7min, kept for 4 min, then back to A/B (95/5) in 0.1 min, and maintained for additional 1.9 min (13min in total).; Injection volume: 10 μL
Num peaks: 162
57.06958 776
70.06015 74
71.08598 2698
72.08338 123
72.08912 125
85.10126 2452
86.09232 94
86.10206 98
86.10914 97
88.07604 105
89.06873 78
89.07455 78
91.05502 87
91.06347 96
95.03906 502
95.04654 489
95.0524 478
95.05852 508
95.08664 237
98.96803 61
98.97738 63
99.10508 160
99.12276 82
105.07104 60
105.07937 77
105.10757 94
113.12919 66
113.13708 65
116.01714 59
116.02534 64
117.02622 3884
117.03204 3878
117.05186 888
118.03222 160
118.04315 174
119.06858 96
119.08387 82
123.11019 80
123.11685 78
123.12212 76
127.14463 69
127.15824 66
132.97801 3782
132.99655 3505
133.10228 103
133.99051 135
134.00255 141
137.12909 65
145.01848 69
151.01099 68
160.04216 151
160.05238 154
160.06776 67
168.08214 59
178.98672 106
178.99712 106
180.97638 166
180.98633 369
180.99246 351
181.01825 128
189.04457 166
210.07726 88
210.09004 80
211.06203 268
221.02895 58
221.0432 68
221.05995 142
225.04323 69
225.08951 61
225.11855 69
227.03802 5614
228.03694 423
228.04892 441
231.02135 67
231.03836 67
237.05946 390
237.11063 79
239.05756 81
239.15521 65
243.01152 459
243.02753 398
244.00755 80
244.01839 112
244.0334 103
245.00833 120
245.02173 123
262.95004 59
281.07352 492
282.0321 136
290.98709 127
291.00635 146
295.19147 70
295.20703 57
297.12045 67
305.09314 73
305.11218 63
309.13312 73
309.22488 57
320.21414 200
320.22757 208
320.24582 196
327.23251 190
327.25018 433
327.26376 380
328.24982 100
328.27875 74
329.24603 91
337.18008 57
339.21646 85
343.23065 5689
344.22424 719
344.23486 818
344.25092 748
345.24841 89
347.22729 65
355.04358 209
359.20206 321
360.21622 59
361.24512 183
361.26651 61
369.22058 69
381.23508 154
383.24976 177
383.27301 125
391.22348 2698
391.24014 2531
392.23676 424
393.22 181
393.23029 208
393.25031 92
397.3252 240
398.32248 57
405.25272 91
405.27338 151
405.76321 67
409.25815 59
421.2926 152
421.31723 64
431.11118 60
437.2623 851
437.27603 824
438.26324 262
438.28259 301
441.34717 72
447.3728 61
501.23575 2374
502.23996 441
503.22693 144
547.19531 69
575.46625 57
599.49786 75
599.53229 119
657.55737 134
671.57831 94
705.49298 100
705.51721 196
705.54486 101
711.47327 113
749.53943 398
750.52783 74
750.55695 147
759.59583 57
Name: phenyl pentadecane-1-sulfonate
PrecursorMZ: 407.204
PrecursorType: [M+K]+
IonMode: Positive
Formula: C21H36O3S
SMILES: CCCCCCCCCCCCCCCS(=O)(=O)OC1=CC=CC=C1
InChI: 
InChIKey: UDKSLGIUCGAZTK-UHFFFAOYSA-N
RetentionTime: 8.545716
CCS: 
CollisionEnergy: 20-40 eV
InstrumentType: UPLC-QTOF-MS
Comment: PI: Cristina Nerin; Data collector: QiZhi Su, GUIA, University of Zaragoza, Spain; Collision energy: 20-40 V; Instrument: Waters HPLC-QTOF-MS (Xevo G2 QTof); Ionization: ESI; Deconvoluted by MS-DIAL; Column: Waters AtlantisTM premier BEH C18 AX column (2.1 × 100mm x 1.7μm); Flow rate: 0.3mL/min; Mobile phase A and B are water and methnaol, respectively, both with 0.1% formic acid; Gradient elution: from A/B (95/5) to A/B (100/0) in 7min, kept for 4 min, then back to A/B (95/5) in 0.1 min, and maintained for additional 1.9 min (13min in total).; Injection volume: 10 μL
Num peaks: 117
57.06871 597
57.07685 599
70.06869 87
71.08572 1894
72.08477 115
72.08891 120
81.07053 97
85.10182 1829
86.09676 87
86.10702 92
87.04115 91
88.07327 77
88.07977 76
89.06042 120
89.0676 148
89.07751 192
95.04974 341
95.05753 355
99.11282 73
99.12077 72
105.09869 85
105.10635 72
113.1273 67
113.13245 68
117.03175 3563
118.03484 181
118.04649 194
119.07056 122
123.10334 58
127.1463 70
127.15511 72
132.99663 2816
133.09172 64
133.99591 105
134.00322 104
134.00897 109
145.01901 64
150.99367 73
151.00554 59
151.0145 66
160.03636 91
160.04529 88
160.05244 98
177.11819 86
179.00278 88
180.9882 375
180.99625 364
189.03874 137
189.0498 154
191.10547 58
205.07104 57
211.05293 223
211.06387 216
213.05338 57
221.0598 88
225.03824 64
227.03857 4149
228.0316 302
228.04703 317
233.05132 97
233.14366 69
243.00751 310
243.02634 336
244.0099 66
244.02361 95
244.03252 79
244.99692 72
245.01268 79
281.0838 67
284.29367 65
291.00186 105
291.01715 88
295.17303 64
295.19327 84
295.20905 91
305.09824 77
305.11664 80
309.13141 72
315.17407 62
320.21283 95
320.23016 139
321.23752 58
322.24646 60
327.24603 385
327.26706 304
328.25906 91
329.25458 79
339.23209 93
343.23019 5675
344.23123 851
344.24905 860
345.22192 57
345.23709 82
345.26172 57
359.20258 326
359.22913 85
361.23779 195
361.25272 210
361.74661 66
381.23236 112
383.25394 151
391.22522 2652
392.20459 94
392.22168 356
392.24387 388
393.21121 135
393.2399 134
397.32318 315
397.34741 77
398.32501 63
405.25476 200
405.28293 209
405.76538 89
405.78357 89
407.25781 64
407.27979 86
407.29745 63
Name: 2-ethylanthraquinone
PrecursorMZ: 237.0918
PrecursorType: [M+H]+
IonMode: Positive
Formula: C16H12O2
SMILES: CCC1=CC2=C(C=C1)C(=O)C3=CC=CC=C3C2=O
InChI: 
InChIKey: SJEBAWHUJDUKQK-UHFFFAOYSA-N
RetentionTime: 7.490217
CCS: 
CollisionEnergy: 20-40 eV
InstrumentType: UPLC-QTOF-MS
Comment: PI: Cristina Nerin; Data collector: QiZhi Su, GUIA, University of Zaragoza, Spain; Collision energy: 20-40 V; Instrument: Waters HPLC-QTOF-MS (Xevo G2 QTof); Ionization: ESI; Deconvoluted by MS-DIAL; Column: Waters AtlantisTM premier BEH C18 AX column (2.1 × 100mm x 1.7μm); Flow rate: 0.3mL/min; Mobile phase A and B are water and methnaol, respectively, both with 0.1% formic acid; Gradient elution: from A/B (95/5) to A/B (100/0) in 7min, kept for 4 min, then back to A/B (95/5) in 0.1 min, and maintained for additional 1.9 min (13min in total).; Injection volume: 10 μL
Num peaks: 186
57.06549 48
57.07162 52
57.07634 52
58.95908 40
60.08109 51
70.0629 80
72.0434 31
72.05736 30
77.03184 107
77.03886 118
79.05248 201
79.05959 191
81.03039 34
83.04439 112
83.05335 111
83.05869 138
86.0937 34
93.05142 43
93.06323 35
93.07317 57
94.07107 37
98.96437 39
98.98464 36
105.04387 90
105.05933 253
105.07115 230
106.06567 75
106.07242 66
106.08088 60
109.06384 33
109.07216 33
110.0602 39
110.0675 32
115.07719 41
115.95999 30
117.07088 33
118.06437 111
118.07085 109
119.08373 102
120.07775 51
120.08451 37
120.93689 167
120.94579 167
121.08438 48
124.99524 39
125.10892 47
126.97546 61
127.01227 40
127.07685 30
128.05742 88
128.06793 73
128.08012 85
130.07321 35
130.08463 37
130.51233 71
131.08936 39
133.04663 48
135.08199 37
135.10056 121
136.06288 40
136.08337 42
137.0126 65
137.10378 52
138.02293 1538
138.51857 339
138.52713 339
138.98296 108
138.99109 104
139.51735 62
140.96858 34
141.06581 83
147.02982 123
147.52116 152
147.53278 135
149.02258 86
149.02998 90
149.05917 53
149.13007 76
151.05165 251
151.05888 264
151.07259 202
151.96764 32
152.06343 2735
153.05064 620
153.07178 934
154.07327 133
154.09218 96
155.06374 30
155.07474 57
155.08629 34
156.03423 171
156.53015 51
161.10312 32
165.01666 31
165.03333 84
165.05008 236
165.06956 1190
165.08017 1266
166.07741 378
167.02832 62
167.07361 127
168.98486 43
169.00479 61
169.01712 39
176.02977 105
176.07014 42
177.07942 67
177.114 66
178.07401 122
178.08253 103
179.08044 92
179.09007 100
179.15196 35
181.08086 98
182.05859 32
182.07275 56
182.15585 154
182.16641 125
189.0666 139
189.08249 160
190.0022 30
190.07349 113
190.97922 78
191.08456 56
191.0948 168
193.04808 84
193.06049 186
193.07079 73
193.11647 30
194.099 62
194.10663 41
201.04805 55
201.07365 122
201.08136 139
207.08139 58
207.09885 76
207.12003 44
208.05464 110
208.0833 65
208.99323 89
210.06372 72
210.07909 770
210.0983 53
210.15379 96
210.16812 36
211.06425 102
211.07367 97
212.02614 36
217.04926 42
218.06963 77
219.08473 480
219.11206 38
220.02185 47
220.03969 94
220.04839 96
220.07564 194
220.09285 200
220.98895 221
220.99638 205
221.01917 49
221.05466 518
221.07286 400
221.09991 185
222.04906 46
222.09798 60
223.07024 129
223.08344 68
223.1019 100
224.08713 62
225.01778 38
225.06665 31
227.10843 30
232.08212 31
232.09576 30
233.17021 44
234.06979 53
234.55148 65
234.56451 84
235.03204 32
235.04745 45
235.08272 351
236.07724 161
236.08952 153
237.06676 52
237.0919 2918
237.53899 34
Name: 2-ethylanthraquinone
PrecursorMZ: 259.0742
PrecursorType: [M+Na]+
IonMode: Positive
Formula: C16H12O2
SMILES: CCC1=CC2=C(C=C1)C(=O)C3=CC=CC=C3C2=O
InChI: 
InChIKey: SJEBAWHUJDUKQK-UHFFFAOYSA-N
RetentionTime: 7.490217
CCS: 
CollisionEnergy: 20-40 eV
InstrumentType: UPLC-QTOF-MS
Comment: PI: Cristina Nerin; Data collector: QiZhi Su, GUIA, University of Zaragoza, Spain; Collision energy: 20-40 V; Instrument: Waters HPLC-QTOF-MS (Xevo G2 QTof); Ionization: ESI; Deconvoluted by MS-DIAL; Column: Waters AtlantisTM premier BEH C18 AX column (2.1 × 100mm x 1.7μm); Flow rate: 0.3mL/min; Mobile phase A and B are water and methnaol, respectively, both with 0.1% formic acid; Gradient elution: from A/B (95/5) to A/B (100/0) in 7min, kept for 4 min, then back to A/B (95/5) in 0.1 min, and maintained for additional 1.9 min (13min in total).; Injection volume: 10 μL
Num peaks: 37
105.05933 262
138.02293 2032
138.51857 337
138.52713 337
151.05165 263
151.05888 271
152.06343 2046
153.05064 337
153.07178 837
156.03423 266
165.06956 918
165.08017 948
166.07741 294
181.08086 288
191.0948 259
193.06049 253
210.07909 898
219.08473 477
220.98895 275
220.99638 269
221.05466 492
221.07286 403
235.08272 329
237.0919 2199
238.1124 274
238.99959 377
248.54547 445
248.55679 690
248.57993 508
256.06522 23954
256.5672 7277
257.06961 1040
257.55219 261
257.56815 292
258.04437 254
258.05902 385
258.0759 327
Name: benzylidenemethylamine
PrecursorMZ: 120.0813
PrecursorType: [M+H]+
IonMode: Positive
Formula: C8H9N
SMILES: CN=CC1=CC=CC=C1
InChI: 
InChIKey: HXTGGPKOEKKUQO-UHFFFAOYSA-N
RetentionTime: 4.815166
CCS: 
CollisionEnergy: 20-40 eV
InstrumentType: UPLC-QTOF-MS
Comment: PI: Cristina Nerin; Data collector: QiZhi Su, GUIA, University of Zaragoza, Spain; Collision energy: 20-40 V; Instrument: Waters HPLC-QTOF-MS (Xevo G2 QTof); Ionization: ESI; Deconvoluted by MS-DIAL; Column: Waters AtlantisTM premier BEH C18 AX column (2.1 × 100mm x 1.7μm); Flow rate: 0.3mL/min; Mobile phase A and B are water and methnaol, respectively, both with 0.1% formic acid; Gradient elution: from A/B (95/5) to A/B (100/0) in 7min, kept for 4 min, then back to A/B (95/5) in 0.1 min, and maintained for additional 1.9 min (13min in total).; Injection volume: 10 μL
Num peaks: 2
105.05758 1616
120.08088 89570
Name: 9-Phenylcarbazole
PrecursorMZ: 244.1129
PrecursorType: [M+H]+
IonMode: Positive
Formula: C18H13N
SMILES: C1=CC=C(C=C1)N2C3=CC=CC=C3C4=CC=CC=C42
InChI: 
InChIKey: VIJYEGDOKCKUOL-UHFFFAOYSA-N
RetentionTime: 7.962733
CCS: 
CollisionEnergy: 20-40 eV
InstrumentType: UPLC-QTOF-MS
Comment: PI: Cristina Nerin; Data collector: QiZhi Su, GUIA, University of Zaragoza, Spain; Collision energy: 20-40 V; Instrument: Waters HPLC-QTOF-MS (Xevo G2 QTof); Ionization: ESI; Deconvoluted by MS-DIAL; Column: Waters AtlantisTM premier BEH C18 AX column (2.1 × 100mm x 1.7μm); Flow rate: 0.3mL/min; Mobile phase A and B are water and methnaol, respectively, both with 0.1% formic acid; Gradient elution: from A/B (95/5) to A/B (100/0) in 7min, kept for 4 min, then back to A/B (95/5) in 0.1 min, and maintained for additional 1.9 min (13min in total).; Injection volume: 10 μL
Num peaks: 125
57.06653 188
57.07101 189
67.04086 82
67.0503 95
67.05656 95
71.06989 244
71.08607 289
71.09235 282
77.03249 170
77.03963 169
77.04665 167
81.07001 194
81.07666 198
85.06252 69
85.06873 71
85.07396 65
85.09995 152
85.10634 154
87.01776 64
87.02502 68
87.03083 71
88.06117 111
88.07568 106
88.08031 108
91.05586 70
93.00272 93
97.10162 120
100.03817 45
104.05016 169
104.06215 171
105.09199 69
107.08838 135
109.06687 67
109.09596 50
109.10249 49
115.03964 120
115.06019 143
116.05669 55
123.10924 45
125.08078 51
125.09585 49
128.04909 146
128.0589 146
128.07089 67
129.06618 86
129.07307 77
129.07986 54
132.04436 49
134.05391 46
134.07005 47
135.04079 49
135.05252 55
139.0507 71
139.07243 94
139.11151 47
140.04918 248
140.05661 248
145.08784 49
145.09818 44
149.13441 51
154.06454 80
154.07152 78
154.07979 72
155.10646 65
155.11964 50
157.09378 66
157.11229 96
157.12506 53
161.03018 53
162.98616 44
164.05861 121
164.07698 111
165.05536 46
165.06657 51
166.06511 1329
167.07423 1509
168.0786 173
171.1008 62
176.01089 89
176.02559 86
182.04674 139
182.06226 154
183.05087 64
183.07425 193
184.06427 60
184.0704 70
194.03432 67
194.04608 71
202.08577 47
204.08369 80
209.16232 51
215.07413 78
215.09303 73
216.08559 192
217.09082 1032
218.07303 102
218.09743 347
219.09512 51
219.10518 44
223.12563 80
223.14194 91
225.14444 134
225.15627 141
225.17053 67
228.06848 83
228.08472 84
229.09169 65
230.09863 223
230.11061 224
231.09087 84
231.10918 94
232.08087 89
232.11012 154
232.12173 152
233.11017 79
233.15414 57
236.07269 81
236.08545 74
240.08638 93
241.09065 1841
242.09743 2589
243.10538 4362
244.07515 314
244.10994 2028
244.12415 340
Name: "4,4'-Diphenylmethane diisocyanate"
PrecursorMZ: 251.0834
PrecursorType: [M+H]+
IonMode: Positive
Formula: C15H10N2O2
SMILES: C1=CC(=CC=C1CC2=CC=C(C=C2)N=C=O)N=C=O
InChI: 
InChIKey: UPMLOUAZCHDJJD-UHFFFAOYSA-N
RetentionTime: 5.756433
CCS: 
CollisionEnergy: 20-40 eV
InstrumentType: UPLC-QTOF-MS
Comment: PI: Cristina Nerin; Data collector: QiZhi Su, GUIA, University of Zaragoza, Spain; Collision energy: 20-40 V; Instrument: Waters HPLC-QTOF-MS (Xevo G2 QTof); Ionization: ESI; Deconvoluted by MS-DIAL; Column: Waters AtlantisTM premier BEH C18 AX column (2.1 × 100mm x 1.7μm); Flow rate: 0.3mL/min; Mobile phase A and B are water and methnaol, respectively, both with 0.1% formic acid; Gradient elution: from A/B (95/5) to A/B (100/0) in 7min, kept for 4 min, then back to A/B (95/5) in 0.1 min, and maintained for additional 1.9 min (13min in total).; Injection volume: 10 μL
Num peaks: 21
70.02844 389
70.0351 154
70.06265 246
70.0676 514
70.08288 123
77.0385 384
88.07639 6646
89.08014 166
91.05434 176
104.05225 359
107.05344 173
114.05807 1774
120.08472 258
132.04506 12234
133.05014 591
161.02814 294
164.07109 3663
165.07709 198
204.57469 151
219.12311 183
251.08092 168
Name: Morpholine
PrecursorMZ: 88.07606
PrecursorType: [M+H]+
IonMode: Positive
Formula: C4H9NO
SMILES: C1COCCN1
InChI: 
InChIKey: YNAVUWVOSKDBBP-UHFFFAOYSA-N
RetentionTime: 0.5435167
CCS: 
CollisionEnergy: 20-40 eV
InstrumentType: UPLC-QTOF-MS
Comment: PI: Cristina Nerin; Data collector: QiZhi Su, GUIA, University of Zaragoza, Spain; Collision energy: 20-40 V; Instrument: Waters HPLC-QTOF-MS (Xevo G2 QTof); Ionization: ESI; Deconvoluted by MS-DIAL; Column: Waters AtlantisTM premier BEH C18 AX column (2.1 × 100mm x 1.7μm); Flow rate: 0.3mL/min; Mobile phase A and B are water and methnaol, respectively, both with 0.1% formic acid; Gradient elution: from A/B (95/5) to A/B (100/0) in 7min, kept for 4 min, then back to A/B (95/5) in 0.1 min, and maintained for additional 1.9 min (13min in total).; Injection volume: 10 μL
Num peaks: 19
56.05193 27
66.96841 25
66.97448 21
68.98647 21
70.0628 21
70.06837 24
71.0691 20
79.0573 20
83.9879 24
84.01168 22
84.95293 29
84.9599 20
84.99046 34
86.05616 20
86.06438 45
86.9735 24
86.9949 20
88.07751 195
88.0853 127
Name: Bisphenol F diglycidyl ether
PrecursorMZ: 313.1455
PrecursorType: [M+H]+
IonMode: Positive
Formula: C19H20O4
SMILES: C1C(O1)COC2=CC=C(C=C2)CC3=CC=C(C=C3)OCC4CO4
InChI: 
InChIKey: XUCHXOAWJMEFLF-UHFFFAOYSA-N
RetentionTime: 7.036583
CCS: 
CollisionEnergy: 20-40 eV
InstrumentType: UPLC-QTOF-MS
Comment: PI: Cristina Nerin; Data collector: QiZhi Su, GUIA, University of Zaragoza, Spain; Collision energy: 20-40 V; Instrument: Waters HPLC-QTOF-MS (Xevo G2 QTof); Ionization: ESI; Deconvoluted by MS-DIAL; Column: Waters AtlantisTM premier BEH C18 AX column (2.1 × 100mm x 1.7μm); Flow rate: 0.3mL/min; Mobile phase A and B are water and methnaol, respectively, both with 0.1% formic acid; Gradient elution: from A/B (95/5) to A/B (100/0) in 7min, kept for 4 min, then back to A/B (95/5) in 0.1 min, and maintained for additional 1.9 min (13min in total).; Injection volume: 10 μL
Num peaks: 147
60.07941 203
60.08412 203
65.03806 156
71.04295 136
71.05044 143
71.061 145
77.03912 883
77.04929 872
78.04067 277
78.04819 285
79.05476 912
89.05493 159
91.0551 2273
91.0707 2266
92.04752 181
92.06155 171
95.03039 133
95.04728 117
95.06097 122
102.06341 106
103.05592 410
103.07486 291
103.08479 135
104.05907 113
104.07106 150
105.07118 1740
106.07485 248
106.08608 273
107.05006 10005
108.05397 770
108.06448 797
108.07345 863
115.03641 1891
115.05579 2016
115.0729 2116
116.05607 357
116.06329 375
116.06917 397
117.07103 893
119.02541 103
119.04872 1683
119.05727 1663
119.07924 408
119.08627 362
120.04977 181
120.05511 201
127.05563 298
128.06322 933
129.08499 118
130.08688 265
131.08293 546
131.09143 577
132.99156 215
132.99661 204
133.00226 209
133.06538 2559
134.06963 141
134.09538 125
135.0824 178
141.06369 184
141.07275 142
143.08739 327
143.0997 271
144.05823 1076
145.03317 101
145.06651 5670
146.06996 300
146.08414 351
147.05414 106
147.0817 342
147.10548 337
148.07132 155
153.05807 141
153.07347 101
155.0705 107
155.08574 107
157.0489 218
160.10455 153
161.04092 159
161.06039 195
163.05753 2405
163.07617 2480
164.06175 176
164.07848 191
164.09258 198
165.05357 1114
165.08696 115
166.06903 437
166.08012 417
169.06435 148
171.08208 611
172.0887 358
173.09714 360
173.11116 400
173.1162 269
181.0706 503
181.08746 262
182.06937 124
182.0889 166
183.08134 152
183.09021 227
193.04753 142
193.08621 433
195.10963 139
201.09337 202
201.10587 272
204.1125 186
205.07156 108
209.11891 373
210.12489 125
210.13399 110
211.07321 290
211.08772 338
213.0851 280
213.09953 276
213.11328 132
220.10899 150
233.08952 151
233.1087 136
234.06877 368
235.09811 494
239.01897 157
239.03635 128
239.1058 639
239.11699 685
240.10718 191
240.11653 181
248.08171 655
248.0921 665
250.09322 354
250.10416 353
251.10416 435
251.11681 530
253.10959 120
253.12463 142
259.11496 188
265.11679 132
265.12778 109
269.11035 142
277.12253 210
278.09375 304
279.08441 110
279.09332 124
291.12256 157
295.13452 134
313.1311 189
313.14322 271
Name: Bisphenol F diglycidyl ether
PrecursorMZ: 330.1719
PrecursorType: [M+NH4]+
IonMode: Positive
Formula: C19H20O4
SMILES: C1C(O1)COC2=CC=C(C=C2)CC3=CC=C(C=C3)OCC4CO4
InChI: 
InChIKey: XUCHXOAWJMEFLF-UHFFFAOYSA-N
RetentionTime: 7.036583
CCS: 
CollisionEnergy: 20-40 eV
InstrumentType: UPLC-QTOF-MS
Comment: PI: Cristina Nerin; Data collector: QiZhi Su, GUIA, University of Zaragoza, Spain; Collision energy: 20-40 V; Instrument: Waters HPLC-QTOF-MS (Xevo G2 QTof); Ionization: ESI; Deconvoluted by MS-DIAL; Column: Waters AtlantisTM premier BEH C18 AX column (2.1 × 100mm x 1.7μm); Flow rate: 0.3mL/min; Mobile phase A and B are water and methnaol, respectively, both with 0.1% formic acid; Gradient elution: from A/B (95/5) to A/B (100/0) in 7min, kept for 4 min, then back to A/B (95/5) in 0.1 min, and maintained for additional 1.9 min (13min in total).; Injection volume: 10 μL
Num peaks: 150
60.07941 203
60.08412 203
65.03806 156
71.04295 136
71.05044 143
71.061 145
77.03912 883
77.04929 872
78.04067 277
78.04819 285
79.05476 912
89.05493 159
91.0551 2273
91.0707 2266
92.04752 181
92.06155 171
95.03039 133
95.04728 117
95.06097 122
102.06341 106
103.05592 410
103.07486 291
103.08479 135
104.05907 113
104.07106 150
105.07118 1740
106.07485 248
106.08608 273
107.05006 10005
108.05397 770
108.06448 797
108.07345 863
115.03641 1891
115.05579 2016
115.0729 2116
116.05607 357
116.06329 375
116.06917 397
117.07103 893
119.02541 103
119.04872 1683
119.05727 1663
119.07924 408
119.08627 362
120.04977 181
120.05511 201
127.05563 298
128.06322 933
129.08499 118
130.08688 265
131.08293 546
131.09143 577
132.99156 215
132.99661 204
133.00226 209
133.06538 2559
134.06963 141
134.09538 125
135.0824 178
141.06369 184
141.07275 142
143.08739 327
143.0997 271
144.05823 1076
145.03317 101
145.06651 5670
146.06996 300
146.08414 351
147.05414 106
147.0817 342
147.10548 337
148.07132 155
153.05807 141
153.07347 101
155.0705 107
155.08574 107
157.0489 218
160.10455 153
161.04092 159
161.06039 195
163.05753 2405
163.07617 2480
164.06175 176
164.07848 191
164.09258 198
165.05357 1114
165.08696 115
166.06903 437
166.08012 417
169.06435 148
171.08208 611
172.0887 358
173.09714 360
173.11116 400
173.1162 269
181.0706 503
181.08746 262
182.06937 124
182.0889 166
183.08134 152
183.09021 227
193.04753 142
193.08621 433
195.10963 139
201.09337 202
201.10587 272
204.1125 186
205.07156 108
209.11891 373
210.12489 125
210.13399 110
211.07321 290
211.08772 338
213.0851 280
213.09953 276
213.11328 132
220.10899 150
233.08952 151
233.1087 136
234.06877 368
235.09811 494
239.01897 157
239.03635 128
239.1058 639
239.11699 685
240.10718 191
240.11653 181
248.08171 655
248.0921 665
250.09322 354
250.10416 353
251.10416 435
251.11681 530
253.10959 120
253.12463 142
259.11496 188
265.11679 132
265.12778 109
269.11035 142
277.12253 210
278.09375 304
279.08441 110
279.09332 124
291.12256 157
295.13452 134
313.1311 151
313.14322 256
325.12695 266
325.14545 426
325.15845 450
Name: Bisphenol F diglycidyl ether
PrecursorMZ: 335.1269
PrecursorType: [M+Na]+
IonMode: Positive
Formula: C19H20O4
SMILES: C1C(O1)COC2=CC=C(C=C2)CC3=CC=C(C=C3)OCC4CO4
InChI: 
InChIKey: XUCHXOAWJMEFLF-UHFFFAOYSA-N
RetentionTime: 7.036583
CCS: 
CollisionEnergy: 20-40 eV
InstrumentType: UPLC-QTOF-MS
Comment: PI: Cristina Nerin; Data collector: QiZhi Su, GUIA, University of Zaragoza, Spain; Collision energy: 20-40 V; Instrument: Waters HPLC-QTOF-MS (Xevo G2 QTof); Ionization: ESI; Deconvoluted by MS-DIAL; Column: Waters AtlantisTM premier BEH C18 AX column (2.1 × 100mm x 1.7μm); Flow rate: 0.3mL/min; Mobile phase A and B are water and methnaol, respectively, both with 0.1% formic acid; Gradient elution: from A/B (95/5) to A/B (100/0) in 7min, kept for 4 min, then back to A/B (95/5) in 0.1 min, and maintained for additional 1.9 min (13min in total).; Injection volume: 10 μL
Num peaks: 152
60.07941 203
60.08412 203
65.03806 156
71.04295 136
71.05044 143
71.061 145
77.03912 883
77.04929 872
78.04067 277
78.04819 285
79.05476 912
89.05493 159
91.0551 2273
91.0707 2266
92.04752 181
92.06155 171
95.03039 133
95.04728 117
95.06097 122
102.06341 106
103.05592 410
103.07486 291
103.08479 135
104.05907 113
104.07106 150
105.07118 1740
106.07485 248
106.08608 273
107.05006 10005
108.05397 770
108.06448 797
108.07345 863
115.03641 1891
115.05579 2016
115.0729 2116
116.05607 357
116.06329 375
116.06917 397
117.07103 893
119.02541 103
119.04872 1683
119.05727 1663
119.07924 408
119.08627 362
120.04977 181
120.05511 201
127.05563 298
128.06322 933
129.08499 118
130.08688 265
131.08293 546
131.09143 577
132.99156 215
132.99661 204
133.00226 209
133.06538 2559
134.06963 141
134.09538 125
135.0824 178
141.06369 184
141.07275 142
143.08739 327
143.0997 271
144.05823 1076
145.03317 101
145.06651 5670
146.06996 300
146.08414 351
147.05414 106
147.0817 342
147.10548 337
148.07132 155
153.05807 141
153.07347 101
155.0705 107
155.08574 107
157.0489 218
160.10455 153
161.04092 159
161.06039 195
163.05753 2405
163.07617 2480
164.06175 176
164.07848 191
164.09258 198
165.05357 1114
165.08696 115
166.06903 437
166.08012 417
169.06435 148
171.08208 611
172.0887 358
173.09714 360
173.11116 400
173.1162 269
181.0706 503
181.08746 262
182.06937 124
182.0889 166
183.08134 152
183.09021 227
193.04753 142
193.08621 433
195.10963 139
201.09337 202
201.10587 272
204.1125 186
205.07156 108
209.11891 373
210.12489 125
210.13399 110
211.07321 290
211.08772 338
213.0851 280
213.09953 276
213.11328 132
220.10899 150
233.08952 151
233.1087 136
234.06877 368
235.09811 494
239.01897 157
239.03635 128
239.1058 639
239.11699 685
240.10718 191
240.11653 181
248.08171 655
248.0921 665
250.09322 354
250.10416 353
251.10416 435
251.11681 530
253.10959 120
253.12463 142
259.11496 188
265.11679 132
265.12778 109
269.11035 142
277.12253 210
278.09375 304
279.08441 110
279.09332 124
291.12256 157
295.13452 134
313.1311 151
313.14322 256
325.12695 266
325.14545 426
325.15845 450
333.17062 103
335.12738 3436
Name: Bisphenol F diglycidyl ether
PrecursorMZ: 625.2812
PrecursorType: [2M+H]+
IonMode: Positive
Formula: C19H20O4
SMILES: C1C(O1)COC2=CC=C(C=C2)CC3=CC=C(C=C3)OCC4CO4
InChI: 
InChIKey: XUCHXOAWJMEFLF-UHFFFAOYSA-N
RetentionTime: 7.036583
CCS: 
CollisionEnergy: 20-40 eV
InstrumentType: UPLC-QTOF-MS
Comment: PI: Cristina Nerin; Data collector: QiZhi Su, GUIA, University of Zaragoza, Spain; Collision energy: 20-40 V; Instrument: Waters HPLC-QTOF-MS (Xevo G2 QTof); Ionization: ESI; Deconvoluted by MS-DIAL; Column: Waters AtlantisTM premier BEH C18 AX column (2.1 × 100mm x 1.7μm); Flow rate: 0.3mL/min; Mobile phase A and B are water and methnaol, respectively, both with 0.1% formic acid; Gradient elution: from A/B (95/5) to A/B (100/0) in 7min, kept for 4 min, then back to A/B (95/5) in 0.1 min, and maintained for additional 1.9 min (13min in total).; Injection volume: 10 μL
Num peaks: 222
60.07941 267
60.08412 267
65.03806 243
71.04295 134
71.05044 146
71.061 146
74.09723 119
74.10535 119
77.03912 1629
77.04929 1615
78.04067 315
78.04819 319
79.05476 1626
89.03765 174
89.05493 163
91.0551 3243
91.0707 3232
92.04752 281
92.06155 255
93.08054 111
95.03039 183
95.04728 167
95.06097 169
102.04724 120
102.0556 140
102.06341 137
103.05592 610
103.08479 146
104.05907 215
104.07106 286
104.08073 148
105.07118 2724
106.07485 453
106.08608 484
107.05006 9510
108.05397 845
108.06448 863
108.07345 929
115.03641 3400
115.05579 3497
115.0729 3619
116.05607 767
116.06329 802
116.06917 845
117.07103 1402
117.09144 147
119.02541 176
119.04872 2586
119.05727 2573
119.07924 464
119.08627 367
120.04977 319
120.05511 325
121.02524 119
121.03082 152
127.05563 539
128.06322 1639
129.07079 273
129.08499 369
131.04962 4706
131.08293 883
131.09143 913
132.0921 111
132.99156 373
132.99661 356
133.00226 361
133.06538 4391
134.06963 251
141.06369 313
141.07275 237
143.08739 521
143.0997 480
145.06651 10055
146.06996 623
146.08414 727
147.05414 214
147.0817 872
147.10548 254
148.07132 351
148.08345 236
148.09245 201
149.06247 113
149.07295 148
152.06903 106
152.08 117
153.05807 292
153.06448 203
153.07347 210
153.08607 121
154.0864 111
155.0705 159
155.08574 116
157.0489 385
157.06293 130
157.07246 134
160.10455 182
161.04092 292
161.06039 318
163.05753 4182
163.07617 3322
164.06175 302
164.07848 163
164.09258 178
165.05357 198
165.07045 333
165.08696 412
169.05061 154
169.06435 290
170.07144 135
170.08044 131
171.08208 1255
172.0887 421
173.09714 455
173.11116 485
173.1162 445
175.07932 129
179.07143 251
179.10982 119
181.0706 1047
181.08746 577
182.06937 232
182.0889 263
182.10091 163
183.08134 408
183.09021 493
185.10304 135
193.04753 186
195.09686 292
195.10963 147
196.07127 159
201.0784 240
201.09337 470
201.10587 517
205.05841 101
205.07156 202
207.10535 448
209.10835 552
209.11891 657
210.0527 132
210.06285 920
210.07532 912
210.12489 124
211.07321 391
211.08772 454
213.0851 444
213.09953 467
213.11328 246
219.089 410
220.08186 128
220.09517 188
220.10899 298
220.11993 130
221.06476 117
222.06802 162
233.07602 171
233.08952 301
233.09895 167
233.1087 300
235.09811 703
238.10349 300
239.01897 271
239.03635 219
239.1058 1523
239.11699 1600
240.10718 319
240.11653 330
247.07434 111
247.12555 108
248.08171 738
248.0921 733
249.08247 237
249.09351 303
250.08459 187
250.09322 432
251.10416 885
251.11681 1034
253.10959 182
253.12463 226
261.10968 193
265.11679 321
265.12778 283
269.11035 273
269.12799 234
275.10324 238
275.12222 144
277.12253 1101
278.09375 394
279.08441 145
279.09332 152
281.12198 119
281.13403 125
293.12204 136
295.13452 732
307.13095 228
307.14044 200
313.1311 271
313.14322 298
325.12695 490
325.14545 658
325.15845 622
333.15192 128
333.17062 292
334.15106 108
335.12738 2035
336.12964 499
337.14996 149
351.14633 238
351.15942 373
351.17734 129
368.42636 632
369.4231 134
384.17218 114
397.108 129
397.13651 104
419.1958 139
421.17401 103
439.17972 115
439.19843 188
457.2027 258
531.22803 136
607.29669 129
625.28589 145
Name: 4-Isopropoxyaniline
PrecursorMZ: 152.1078
PrecursorType: [M+H]+
IonMode: Positive
Formula: C9H13NO
SMILES: CC(C)OC1=CC=C(C=C1)N
InChI: 
InChIKey: MLNFMFAMNBGAQT-UHFFFAOYSA-N
RetentionTime: 1.7133
CCS: 
CollisionEnergy: 20-40 eV
InstrumentType: UPLC-QTOF-MS
Comment: PI: Cristina Nerin; Data collector: QiZhi Su, GUIA, University of Zaragoza, Spain; Collision energy: 20-40 V; Instrument: Waters HPLC-QTOF-MS (Xevo G2 QTof); Ionization: ESI; Deconvoluted by MS-DIAL; Column: Waters AtlantisTM premier BEH C18 AX column (2.1 × 100mm x 1.7μm); Flow rate: 0.3mL/min; Mobile phase A and B are water and methnaol, respectively, both with 0.1% formic acid; Gradient elution: from A/B (95/5) to A/B (100/0) in 7min, kept for 4 min, then back to A/B (95/5) in 0.1 min, and maintained for additional 1.9 min (13min in total).; Injection volume: 10 μL
Num peaks: 28
57.07487 59
65.03912 868
67.03799 79
67.05646 59
80.0496 113
80.05492 112
81.04658 142
81.06191 90
82.06538 548
82.07212 565
84.0667 112
84.07403 114
84.08047 118
92.05047 2581
92.06085 2572
93.03428 547
94.05767 346
95.06101 45
106.06911 45
109.04351 808
109.05233 858
110.061 4203
111.06463 836
111.07784 558
112.06854 88
151.09898 111
152.09995 384
152.10999 922
Name: Diethylene glycol monovinyl ether
PrecursorMZ: 155.0686
PrecursorType: [M+Na]+
IonMode: Positive
Formula: C6H12O3
SMILES: C=COCCOCCO
InChI: 
InChIKey: WULAHPYSGCVQHM-UHFFFAOYSA-N
RetentionTime: 3.085283
CCS: 
CollisionEnergy: 20-40 eV
InstrumentType: UPLC-QTOF-MS
Comment: PI: Cristina Nerin; Data collector: QiZhi Su, GUIA, University of Zaragoza, Spain; Collision energy: 20-40 V; Instrument: Waters HPLC-QTOF-MS (Xevo G2 QTof); Ionization: ESI; Deconvoluted by MS-DIAL; Column: Waters AtlantisTM premier BEH C18 AX column (2.1 × 100mm x 1.7μm); Flow rate: 0.3mL/min; Mobile phase A and B are water and methnaol, respectively, both with 0.1% formic acid; Gradient elution: from A/B (95/5) to A/B (100/0) in 7min, kept for 4 min, then back to A/B (95/5) in 0.1 min, and maintained for additional 1.9 min (13min in total).; Injection volume: 10 μL
Num peaks: 130
52.75319 46
53.93948 30
54.34301 21
55.94135 72
56.96579 166
57.93459 36
68.98635 35
69.02656 40
69.07035 21
69.97983 21
70.97855 20
71.04452 20
71.04923 66
72.93914 27
73.94341 45
74.95921 34
77.03973 24
81.06657 73
82.98041 533
83.05822 55
83.06371 73
84.05286 117
84.06646 43
84.08089 51
84.96182 33
84.97579 25
85.01168 42
85.01809 69
86.03924 28
86.08925 27
86.97583 55
87.04331 80
87.04784 29
88.09859 31
88.95558 51
89.05902 67
89.06971 85
89.94334 54
90.89492 22
91.04949 65
93.03493 52
93.04035 23
95.96133 25
96.03793 21
98.97808 33
99.95398 50
99.96764 23
100.29604 28
100.95881 32
100.96728 364
100.98866 66
100.99461 165
101.93964 28
101.96378 84
102.94682 41
103.95576 24
104.03304 24
105.07171 96
107.04713 70
107.07522 37
108.94674 21
110.06027 63
110.97123 38
111.03204 27
111.04002 36
112.95201 28
113.0134 26
113.01972 63
113.02435 23
113.05672 30
114.0254 38
114.08727 24
114.94405 92
114.95043 114
114.96227 95
114.99784 33
115.03525 22
115.94603 28
115.95882 36
115.96548 23
116.57821 61
116.96411 120
118.08696 25
118.09336 53
118.92948 40
118.94048 24
119.04854 33
121.99539 22
123.00401 95
123.06665 77
124.04726 20
125.09665 29
125.96205 20
126.97948 28
127.00297 56
127.03675 21
128.95728 39
129.00533 32
129.01483 23
130.95815 24
131.03099 28
131.03827 52
131.95374 31
132.95633 27
133.08096 62
133.08925 71
133.96832 40
134.09171 22
134.21054 23
135.08893 25
137.02687 39
139.40689 22
141.95444 42
141.96722 50
141.97614 20
142.89203 22
142.97758 117
142.99557 21
143.01135 126
143.94978 81
143.98143 57
145.01691 675
145.02464 279
147.09441 24
148.05121 51
148.96613 28
148.99948 27
149.04649 33
151.03752 47
152.05528 30
Name: 4-Isopropoxyaniline
PrecursorMZ: 152.1072
PrecursorType: [M+H]+
IonMode: Positive
Formula: C9H13NO
SMILES: CC(C)OC1=CC=C(C=C1)N
InChI: 
InChIKey: MLNFMFAMNBGAQT-UHFFFAOYSA-N
RetentionTime: 0.8671167
CCS: 
CollisionEnergy: 20-40 eV
InstrumentType: UPLC-QTOF-MS
Comment: PI: Cristina Nerin; Data collector: QiZhi Su, GUIA, University of Zaragoza, Spain; Collision energy: 20-40 V; Instrument: Waters HPLC-QTOF-MS (Xevo G2 QTof); Ionization: ESI; Deconvoluted by MS-DIAL; Column: Waters AtlantisTM premier BEH C18 AX column (2.1 × 100mm x 1.7μm); Flow rate: 0.3mL/min; Mobile phase A and B are water and methnaol, respectively, both with 0.1% formic acid; Gradient elution: from A/B (95/5) to A/B (100/0) in 7min, kept for 4 min, then back to A/B (95/5) in 0.1 min, and maintained for additional 1.9 min (13min in total).; Injection volume: 10 μL
Num peaks: 27
65.03905 4712
66.04155 355
66.05376 356
67.04291 247
67.05322 237
80.04151 290
80.05115 288
80.05657 288
81.04491 218
81.06037 263
82.05178 1394
82.06306 1472
82.06857 1455
83.06062 213
92.0343 3706
92.04926 3650
93.03419 8531
93.05485 751
93.06007 810
94.03806 636
94.05242 570
109.05412 889
110.06004 21168
111.03801 477
111.06372 1519
111.08311 951
152.10776 1177
Name: Maleic anhydride
PrecursorMZ: 99.00863
PrecursorType: [M+H]+
IonMode: Positive
Formula: C4H2O3
SMILES: C1=CC(=O)OC1=O
InChI: 
InChIKey: FPYJFEHAWHCUMM-UHFFFAOYSA-N
RetentionTime: 4.986516
CCS: 
CollisionEnergy: 20-40 eV
InstrumentType: UPLC-QTOF-MS
Comment: PI: Cristina Nerin; Data collector: QiZhi Su, GUIA, University of Zaragoza, Spain; Collision energy: 20-40 V; Instrument: Waters HPLC-QTOF-MS (Xevo G2 QTof); Ionization: ESI; Deconvoluted by MS-DIAL; Column: Waters AtlantisTM premier BEH C18 AX column (2.1 × 100mm x 1.7μm); Flow rate: 0.3mL/min; Mobile phase A and B are water and methnaol, respectively, both with 0.1% formic acid; Gradient elution: from A/B (95/5) to A/B (100/0) in 7min, kept for 4 min, then back to A/B (95/5) in 0.1 min, and maintained for additional 1.9 min (13min in total).; Injection volume: 10 μL
Num peaks: 26
56.96641 378
69.03029 153
69.03542 329
69.07091 124
70.98188 791
71.01461 163
73.02628 298
73.03159 258
73.06413 190
81.00626 119
81.06749 148
83.04905 274
83.05968 175
84.9572 153
85.02805 1166
87.04542 2065
89.05949 8268
90.06104 235
90.07053 390
92.05019 117
95.99706 157
96.99384 87
98.99287 100
99.00333 158
99.00961 464
99.04437 749
Name: Diethyl Terephthalate
PrecursorMZ: 223.0959
PrecursorType: [M+H]+
IonMode: Positive
Formula: C12H14O4
SMILES: CCOC(=O)C1=CC=C(C=C1)C(=O)OCC
InChI: 
InChIKey: ONIHPYYWNBVMID-UHFFFAOYSA-N
RetentionTime: 7.155233
CCS: 
CollisionEnergy: 20-40 eV
InstrumentType: UPLC-QTOF-MS
Comment: PI: Cristina Nerin; Data collector: QiZhi Su, GUIA, University of Zaragoza, Spain; Collision energy: 20-40 V; Instrument: Waters HPLC-QTOF-MS (Xevo G2 QTof); Ionization: ESI; Deconvoluted by MS-DIAL; Column: Waters AtlantisTM premier BEH C18 AX column (2.1 × 100mm x 1.7μm); Flow rate: 0.3mL/min; Mobile phase A and B are water and methnaol, respectively, both with 0.1% formic acid; Gradient elution: from A/B (95/5) to A/B (100/0) in 7min, kept for 4 min, then back to A/B (95/5) in 0.1 min, and maintained for additional 1.9 min (13min in total).; Injection volume: 10 μL
Num peaks: 289
55.01822 36
57.07085 84
60.08237 1244
61.07626 31
61.07983 31
61.08683 31
67.04779 199
67.05499 190
69.06911 71
71.08457 40
74.09534 196
74.10114 198
75.00708 34
75.01594 33
81.05981 443
81.06907 405
81.08015 470
83.04861 319
83.08305 35
84.0509 39
85.06628 95
86.09728 36
92.99812 31
93.06154 181
93.06865 185
93.07454 184
95.07018 397
95.08695 451
96.93476 30
97.06476 2897
97.1002 87
97.11077 106
98.06311 243
98.07059 242
98.97939 90
98.98602 108
99.04604 74
99.07508 90
99.08131 89
101.05821 51
101.06476 52
102.09834 36
103.02125 30
105.03317 384
105.03889 318
105.07208 113
106.04581 451
107.09112 316
109.0644 2912
109.07728 2942
109.09702 78
109.10417 103
110.0689 124
110.11221 61
111.04273 72
111.05196 77
111.05966 129
111.06743 288
111.08063 247
113.95841 46
113.965 39
115.94096 35
115.95621 150
115.96449 153
115.97631 130
116.04494 60
116.0561 69
116.99957 32
117.00642 33
119.07087 229
119.0848 493
119.08925 484
121.09992 429
122.05814 136
122.11094 45
123.04344 290
123.06546 576
123.08157 326
123.09517 312
123.11137 105
123.11932 117
124.11938 48
124.12505 44
125.06124 62
125.08939 117
125.09831 123
125.10701 118
127.03795 93
127.05035 116
127.08025 67
129.04733 73
129.06039 108
129.07726 60
130.15318 48
130.16464 44
131.08311 242
131.09236 322
131.10788 70
133.10175 434
133.11304 290
134.10355 37
135.0791 256
135.09102 403
135.11459 321
135.12529 317
136.07016 60
136.08632 78
136.12616 35
137.05103 42
137.06602 53
137.09509 120
137.10168 112
137.13101 30
138.07515 35
139.11768 31
141.06142 68
142.06223 46
142.07027 48
142.07768 48
142.08508 69
143.06726 177
143.08821 337
143.10144 314
145.08374 600
145.09877 732
145.10884 716
146.10155 79
146.10689 87
147.0645 79
147.07932 51
147.10463 437
147.12054 514
148.09691 1001
148.11638 63
148.12721 63
149.02094 536
149.03044 531
149.10677 248
149.12009 127
149.13048 118
149.14127 106
150.02751 35
151.05217 43
151.11436 30
151.12817 30
152.15631 36
152.99756 111
153.00304 105
153.07295 45
155.06915 76
155.08328 93
156.08334 40
156.0921 56
156.9951 72
157.01085 59
157.10226 290
159.00945 54
159.01741 53
159.07785 70
159.08344 64
159.09998 404
159.11076 560
159.11804 550
160.12065 93
160.98596 67
160.99434 66
161.00758 30
161.08307 89
161.09308 112
161.10158 132
161.11639 394
161.1226 380
161.13426 351
163.05582 59
163.10493 228
163.11546 352
163.1418 127
163.15387 108
164.12314 53
167.02863 249
167.03731 241
169.08653 193
169.10231 274
170.11317 75
170.12398 66
171.08794 42
171.11723 728
171.13228 738
171.13889 493
172.12135 124
173.08607 58
173.10275 99
173.12184 475
173.13115 468
173.14 468
175.14505 779
175.1537 775
176.11644 42
176.13989 96
176.16158 123
176.99007 53
177.05537 334
177.08028 62
177.11308 53
177.12477 133
177.13747 269
177.15993 96
177.17337 81
178.04842 35
178.05988 32
178.13495 37
181.10287 59
183.1049 136
183.13348 67
184.11215 145
184.12814 92
185.09612 69
185.10974 40
185.12314 319
185.13785 385
187.10347 119
187.11365 100
187.14925 379
189.02052 184
189.1026 31
189.11838 160
189.13271 167
189.14638 238
189.1606 91
189.17532 88
190.02382 32
190.11713 55
191.11726 33
191.12851 45
191.1494 33
192.92241 70
194.04256 35
195.05678 438
195.07077 117
195.12276 122
197.12477 177
197.13622 381
198.1217 67
198.1412 63
198.15291 66
199.04633 32
199.13751 38
199.14671 261
201.11461 115
201.12961 106
201.14722 75
201.16019 63
201.17627 79
203.1463 96
203.15367 96
204.97626 285
204.9912 282
205.0334 97
205.11395 51
205.12607 46
205.15991 335
205.17311 311
206.94972 32
207.11357 60
207.13445 83
209.14345 135
209.16154 49
211.13809 311
211.14828 372
211.15996 266
213.10274 48
213.12946 121
213.16534 425
214.15422 79
215.13405 98
215.1492 94
215.16695 58
217.15097 82
217.16832 84
220.13284 38
220.15692 79
220.16687 74
221.12833 58
221.14771 34
223.09404 80
223.10692 238
223.12762 85
223.14996 269
223.5067 30
Name: Medroxyprogesterone 17-acetate
PrecursorMZ: 409.2337
PrecursorType: [M+Na]+
IonMode: Positive
Formula: C24H34O4
SMILES: CC1CC2C(CCC3(C2CCC3(C(=O)C)OC(=O)C)C)C4(C1=CC(=O)CC4)C
InChI: 
InChIKey: PSGAAPLEWMOORI-PEINSRQWSA-N
RetentionTime: 7.311316
CCS: 
CollisionEnergy: 20-40 eV
InstrumentType: UPLC-QTOF-MS
Comment: PI: Cristina Nerin; Data collector: QiZhi Su, GUIA, University of Zaragoza, Spain; Collision energy: 20-40 V; Instrument: Waters HPLC-QTOF-MS (Xevo G2 QTof); Ionization: ESI; Deconvoluted by MS-DIAL; Column: Waters AtlantisTM premier BEH C18 AX column (2.1 × 100mm x 1.7μm); Flow rate: 0.3mL/min; Mobile phase A and B are water and methnaol, respectively, both with 0.1% formic acid; Gradient elution: from A/B (95/5) to A/B (100/0) in 7min, kept for 4 min, then back to A/B (95/5) in 0.1 min, and maintained for additional 1.9 min (13min in total).; Injection volume: 10 μL
Num peaks: 166
69.06952 249
69.07433 248
81.06578 795
81.07045 801
83.04939 812
83.08609 236
83.09863 197
95.08617 1142
97.06511 6288
98.06931 479
99.08186 288
105.07076 420
109.10185 726
111.08121 577
117.07711 212
117.08836 223
119.08649 839
121.1017 932
123.08073 16375
123.11702 189
124.0843 1632
124.1048 1724
125.08714 286
125.09864 261
131.08661 642
131.10199 773
133.1012 1585
135.11702 831
135.12407 821
137.09673 2595
138.10083 198
143.08655 898
143.10182 853
145.1011 1274
146.09833 415
146.1055 425
146.1124 436
147.1179 1691
148.1221 182
149.1331 273
152.10864 169
152.11855 168
155.07358 284
155.0863 301
156.09373 201
157.10258 760
159.11035 1310
159.11725 1315
160.10593 196
160.12106 230
161.09584 164
161.13315 1202
163.11665 558
163.14738 426
163.15588 436
169.10173 677
171.11732 1287
172.1212 272
172.13893 320
173.13266 2280
174.13971 243
175.1105 179
175.14807 2688
176.15343 485
177.1109 859
177.12851 851
181.12048 219
185.13286 867
187.11337 502
187.1488 1121
189.12714 496
189.15614 261
189.16476 279
189.17313 288
191.14397 427
192.13852 166
195.11824 396
196.12953 198
197.13351 908
197.161 320
199.14914 998
200.14673 353
200.15996 340
201.16389 476
203.14487 500
205.15965 876
206.15169 320
206.16171 336
206.16988 325
209.13313 644
211.14787 1087
212.15477 346
213.12839 264
213.16377 427
214.13626 3726
215.14285 1722
216.14363 268
216.15503 264
217.15939 215
221.11273 308
221.13234 321
221.14282 271
223.14749 456
223.17256 271
224.15633 612
225.16428 1028
226.16785 170
227.18018 763
228.18544 209
229.15265 203
229.16615 175
231.16382 191
231.17471 181
237.1584 320
237.16782 297
238.17247 209
238.18747 220
239.14116 288
239.17879 264
241.19456 248
245.19058 177
249.16267 279
249.17545 195
251.18069 690
257.15329 1530
257.18619 167
258.15771 187
265.19604 446
266.2019 685
267.17209 495
267.21051 2751
268.21432 588
269.1907 570
270.19394 188
270.20422 182
282.18942 451
282.20441 499
282.22244 297
283.20612 1097
284.21161 789
285.22144 5292
286.22461 1259
287.22949 217
287.25037 333
291.21146 576
303.2236 351
303.23538 351
309.22162 1434
310.2243 414
311.2392 164
325.19858 356
325.21753 442
327.23178 5687
328.23514 1041
345.22952 230
345.24457 249
346.20337 173
346.21814 175
349.19452 767
349.21246 700
350.21042 250
350.22238 235
385.2446 989
386.22849 213
388.25519 183
409.23532 7419
Name: Medroxyprogesterone 17-acetate
PrecursorMZ: 387.2534
PrecursorType: [M+H]+
IonMode: Positive
Formula: C24H34O4
SMILES: CC1CC2C(CCC3(C2CCC3(C(=O)C)OC(=O)C)C)C4(C1=CC(=O)CC4)C
InChI: 
InChIKey: PSGAAPLEWMOORI-PEINSRQWSA-N
RetentionTime: 7.33035
CCS: 
CollisionEnergy: 20-40 eV
InstrumentType: UPLC-QTOF-MS
Comment: PI: Cristina Nerin; Data collector: QiZhi Su, GUIA, University of Zaragoza, Spain; Collision energy: 20-40 V; Instrument: Waters HPLC-QTOF-MS (Xevo G2 QTof); Ionization: ESI; Deconvoluted by MS-DIAL; Column: Waters AtlantisTM premier BEH C18 AX column (2.1 × 100mm x 1.7μm); Flow rate: 0.3mL/min; Mobile phase A and B are water and methnaol, respectively, both with 0.1% formic acid; Gradient elution: from A/B (95/5) to A/B (100/0) in 7min, kept for 4 min, then back to A/B (95/5) in 0.1 min, and maintained for additional 1.9 min (13min in total).; Injection volume: 10 μL
Num peaks: 16
123.08054 19847
133.10106 9386
137.09605 6045
173.13278 6062
205.15846 8521
257.15417 5695
267.21014 16091
283.20493 7498
284.21191 5903
285.22113 50756
286.22418 13254
309.22119 22308
327.2309 215322
328.23453 53636
329.23792 5835
387.25143 553202
Name: Medroxyprogesterone 17-acetate
PrecursorMZ: 773.4981
PrecursorType: [M+H]+
IonMode: Positive
Formula: C24H34O4
SMILES: CC1CC2C(CCC3(C2CCC3(C(=O)C)OC(=O)C)C)C4(C1=CC(=O)CC4)C
InChI: 
InChIKey: PSGAAPLEWMOORI-PEINSRQWSA-N
RetentionTime: 7.33035
CCS: 
CollisionEnergy: 20-40 eV
InstrumentType: UPLC-QTOF-MS
Comment: PI: Cristina Nerin; Data collector: QiZhi Su, GUIA, University of Zaragoza, Spain; Collision energy: 20-40 V; Instrument: Waters HPLC-QTOF-MS (Xevo G2 QTof); Ionization: ESI; Deconvoluted by MS-DIAL; Column: Waters AtlantisTM premier BEH C18 AX column (2.1 × 100mm x 1.7μm); Flow rate: 0.3mL/min; Mobile phase A and B are water and methnaol, respectively, both with 0.1% formic acid; Gradient elution: from A/B (95/5) to A/B (100/0) in 7min, kept for 4 min, then back to A/B (95/5) in 0.1 min, and maintained for additional 1.9 min (13min in total).; Injection volume: 10 μL
Num peaks: 51
83.04941 6164
95.08619 6404
97.06503 65808
111.08073 7839
119.08592 8432
123.08054 172771
124.08401 13871
133.10106 8851
137.09605 22148
145.10132 16620
147.11691 13909
157.10129 6553
159.11678 10532
161.13243 9091
171.11641 15852
173.13278 23781
175.14795 29343
177.12804 5854
185.13263 7375
187.14816 10718
189.12744 5519
197.13327 8478
199.14818 10085
205.15846 16607
211.1479 6287
214.13545 21221
215.14172 11972
217.15863 5659
225.16382 8938
227.17952 9233
251.17996 6644
257.15417 13147
266.20328 9069
266.22119 9210
267.21014 39403
268.21393 8120
268.22797 7642
269.19006 7004
283.20493 13434
284.21191 12288
285.22113 98816
286.22418 20419
309.22119 33991
310.22379 7653
327.2309 257124
328.23453 59609
329.23792 6692
387.25143 540898
388.2543 128948
389.25818 17103
773.49799 10730
Name: Medroxyprogesterone 17-acetate
PrecursorMZ: 409.2326
PrecursorType: [M+Na]+
IonMode: Positive
Formula: C24H34O4
SMILES: CC1CC2C(CCC3(C2CCC3(C(=O)C)OC(=O)C)C)C4(C1=CC(=O)CC4)C
InChI: 
InChIKey: PSGAAPLEWMOORI-PEINSRQWSA-N
RetentionTime: 7.360816
CCS: 
CollisionEnergy: 20-40 eV
InstrumentType: UPLC-QTOF-MS
Comment: PI: Cristina Nerin; Data collector: QiZhi Su, GUIA, University of Zaragoza, Spain; Collision energy: 20-40 V; Instrument: Waters HPLC-QTOF-MS (Xevo G2 QTof); Ionization: ESI; Deconvoluted by MS-DIAL; Column: Waters AtlantisTM premier BEH C18 AX column (2.1 × 100mm x 1.7μm); Flow rate: 0.3mL/min; Mobile phase A and B are water and methnaol, respectively, both with 0.1% formic acid; Gradient elution: from A/B (95/5) to A/B (100/0) in 7min, kept for 4 min, then back to A/B (95/5) in 0.1 min, and maintained for additional 1.9 min (13min in total).; Injection volume: 10 μL
Num peaks: 103
65.03708 469
65.04263 472
65.0589 378
67.05376 263
67.05978 263
69.03342 110
69.03918 102
71.01239 185
87.05797 109
89.05874 372
89.06512 364
90.06394 91
90.07059 100
93.03479 3666
93.07095 359
94.0351 218
94.04433 199
109.0218 151
109.02972 137
109.06599 138
109.07726 147
109.1012 136
109.1181 132
111.03465 699
111.04296 689
111.04829 685
121.02416 671
121.03841 737
121.0482 362
129.05437 96
129.07059 241
133.06837 346
133.10081 176
135.08038 355
137.13 98
144.0802 92
144.09196 129
144.09988 118
148.11977 123
148.12915 114
149.09554 1428
149.10274 1483
150.09511 114
150.1012 147
151.11855 106
153.11917 102
155.06775 111
163.13873 117
167.10757 106
169.08089 411
173.09738 106
178.10814 144
178.1234 169
178.13693 178
181.09373 140
181.10428 167
181.12363 146
188.15347 92
189.16425 92
195.11595 129
199.12756 2332
201.127 171
202.16747 136
203.11569 206
213.11171 109
214.1665 95
214.34189 231
215.08324 3401
216.08118 524
216.08928 521
216.10358 297
219.15384 101
219.17474 115
221.15584 222
235.12286 111
239.17032 371
239.17863 169
240.19772 134
244.17651 186
258.13495 498
275.15012 148
275.16953 156
281.21674 132
283.26025 120
283.27438 152
299.16727 148
299.18295 176
303.2056 135
323.25253 119
323.26498 123
346.19348 150
346.20956 186
346.70233 115
346.72134 100
349.21167 1481
349.22296 1477
350.21454 442
351.21564 102
387.32059 100
388.89423 118
399.24945 223
399.26398 207
409.23404 8872
Name: Pellidol
PrecursorMZ: 310.1558
PrecursorType: [M+H]+
IonMode: Positive
Formula: C18H19N3O2
SMILES: CC1=CC=CC=C1N=NC2=CC(=C(C=C2)N(C(=O)C)C(=O)C)C
InChI: 
InChIKey: YIEDSISPYKQADU-UHFFFAOYSA-N
RetentionTime: 7.406533
CCS: 
CollisionEnergy: 20-40 eV
InstrumentType: UPLC-QTOF-MS
Comment: PI: Cristina Nerin; Data collector: QiZhi Su, GUIA, University of Zaragoza, Spain; Collision energy: 20-40 V; Instrument: Waters HPLC-QTOF-MS (Xevo G2 QTof); Ionization: ESI; Deconvoluted by MS-DIAL; Column: Waters AtlantisTM premier BEH C18 AX column (2.1 × 100mm x 1.7μm); Flow rate: 0.3mL/min; Mobile phase A and B are water and methnaol, respectively, both with 0.1% formic acid; Gradient elution: from A/B (95/5) to A/B (100/0) in 7min, kept for 4 min, then back to A/B (95/5) in 0.1 min, and maintained for additional 1.9 min (13min in total).; Injection volume: 10 μL
Num peaks: 73
77.03835 13005
77.05667 13059
79.0348 42654
79.05424 49373
80.03897 3263
80.05694 3291
80.06864 3161
91.05442 105112
91.07333 105466
92.05773 8044
92.06936 7808
94.06538 22041
106.06498 51949
107.04997 46760
107.0708 2124
108.05418 2544
119.06032 3223
120.06189 27341
120.08103 26600
121.07599 101094
122.07967 10266
132.0641 1934
132.08084 1674
133.05772 20103
133.07588 19020
134.0602 6773
134.08038 5275
148.07559 93111
148.09221 93247
149.07954 8038
162.07443 7800
162.0912 7902
163.08749 7581
164.0937 3893
175.08636 34688
176.06953 2806
176.08324 3740
176.0918 3514
182.09648 2579
192.08099 1875
194.08517 6537
195.09132 3460
197.10109 1884
197.11168 1977
199.12053 2065
208.0997 3438
209.10699 51733
210.0925 12663
210.11002 18812
211.08908 1746
211.11011 2918
212.09569 1931
224.11421 1724
224.12383 1668
225.11432 1704
225.12582 1869
226.13362 16929
227.11998 10508
228.12079 1693
238.09053 3488
238.10066 3481
250.13307 23416
251.11794 10195
251.13235 11107
252.10625 3462
252.11957 3567
253.12181 8036
268.14395 159796
269.14737 28510
269.22202 3489
270.14828 2617
272.11578 4595
310.15475 22967
Name: Pellidol
PrecursorMZ: 641.2836
PrecursorType: [2M+Na]+
IonMode: Positive
Formula: C18H19N3O2
SMILES: CC1=CC=CC=C1N=NC2=CC(=C(C=C2)N(C(=O)C)C(=O)C)C
InChI: 
InChIKey: YIEDSISPYKQADU-UHFFFAOYSA-N
RetentionTime: 7.406533
CCS: 
CollisionEnergy: 20-40 eV
InstrumentType: UPLC-QTOF-MS
Comment: PI: Cristina Nerin; Data collector: QiZhi Su, GUIA, University of Zaragoza, Spain; Collision energy: 20-40 V; Instrument: Waters HPLC-QTOF-MS (Xevo G2 QTof); Ionization: ESI; Deconvoluted by MS-DIAL; Column: Waters AtlantisTM premier BEH C18 AX column (2.1 × 100mm x 1.7μm); Flow rate: 0.3mL/min; Mobile phase A and B are water and methnaol, respectively, both with 0.1% formic acid; Gradient elution: from A/B (95/5) to A/B (100/0) in 7min, kept for 4 min, then back to A/B (95/5) in 0.1 min, and maintained for additional 1.9 min (13min in total).; Injection volume: 10 μL
Num peaks: 77
77.03835 12963
77.05667 13012
79.0348 42633
79.05424 49367
80.03897 3267
80.05694 3286
80.06864 3153
91.05442 104898
91.07333 105246
92.05773 8026
92.06936 7791
94.06538 22002
106.06498 51830
107.04997 46695
107.0708 2072
108.05418 2539
119.06032 3217
120.06189 27330
120.08103 26594
121.07599 100919
122.07967 10250
132.0641 1933
132.08084 1692
133.05772 20112
133.07588 19020
134.0602 6755
134.08038 5260
148.07559 92958
148.09221 93090
149.07954 8149
162.07443 7787
162.0912 7887
163.08749 7581
164.0937 3893
175.08636 34589
176.06953 2806
176.08324 3727
176.0918 3497
182.09648 2585
192.08099 1871
194.08517 6524
195.09132 3457
197.10109 1884
197.11168 1977
199.12053 2065
208.0997 3419
209.10699 51623
210.0925 12650
210.11002 18785
211.08908 1734
211.11011 2906
212.09569 1932
224.11421 1723
224.12383 1664
225.11432 1697
225.12582 1861
226.13362 16897
227.11998 10488
228.12079 1687
238.09053 3463
238.10066 3458
250.13307 23322
251.11794 10172
251.13235 11080
252.10625 3441
252.11957 3551
253.12181 8010
268.14395 159508
269.14737 28480
269.22202 3426
270.14828 2610
272.11578 4577
310.15475 17301
311.15778 3105
332.13589 43136
333.14014 8893
563.41583 2137
Name: Pellidol
PrecursorMZ: 332.1378
PrecursorType: [M+Na]+
IonMode: Positive
Formula: C18H19N3O2
SMILES: CC1=CC=CC=C1N=NC2=CC(=C(C=C2)N(C(=O)C)C(=O)C)C
InChI: 
InChIKey: YIEDSISPYKQADU-UHFFFAOYSA-N
RetentionTime: 7.410333
CCS: 
CollisionEnergy: 20-40 eV
InstrumentType: UPLC-QTOF-MS
Comment: PI: Cristina Nerin; Data collector: QiZhi Su, GUIA, University of Zaragoza, Spain; Collision energy: 20-40 V; Instrument: Waters HPLC-QTOF-MS (Xevo G2 QTof); Ionization: ESI; Deconvoluted by MS-DIAL; Column: Waters AtlantisTM premier BEH C18 AX column (2.1 × 100mm x 1.7μm); Flow rate: 0.3mL/min; Mobile phase A and B are water and methnaol, respectively, both with 0.1% formic acid; Gradient elution: from A/B (95/5) to A/B (100/0) in 7min, kept for 4 min, then back to A/B (95/5) in 0.1 min, and maintained for additional 1.9 min (13min in total).; Injection volume: 10 μL
Num peaks: 76
77.03912 10437
79.05434 43885
80.0508 2811
80.05866 2824
91.0546 96076
91.07097 96146
92.05778 7230
94.04807 18934
94.06557 18887
106.06541 45687
107.05009 42837
107.07162 3055
107.07845 3202
107.08833 3127
108.05346 3260
108.08112 2080
119.06117 3678
119.07248 3087
120.08101 23305
121.07616 87597
122.06657 9768
122.07999 8984
132.08134 1828
133.07645 14424
134.06018 6457
134.0791 7100
148.076 87107
149.07948 8759
149.09715 8772
162.09171 7559
163.08807 7367
164.09435 3835
164.11285 3609
175.08649 31194
176.08865 3760
182.07884 3271
182.09781 3053
183.10181 1630
183.11246 1598
192.08138 1673
194.08406 5909
195.09177 2752
197.10188 1798
197.11185 1721
199.12512 2027
208.0981 3084
209.10747 46932
210.0925 14785
210.10899 16711
211.09595 4008
211.11346 3473
212.09718 1905
212.10699 1926
224.11519 1601
224.12444 1569
225.11555 1857
225.12584 1819
226.13368 16728
227.11951 14041
228.11983 2195
228.13443 1858
238.10085 3024
250.13449 31025
251.12173 10580
251.13501 11550
252.11971 3264
252.1971 2385
253.12061 7562
268.14462 153145
269.14752 27501
269.22296 7232
270.15277 2507
272.11688 5176
310.15512 20265
311.15778 3653
332.13641 55000
Name: Pellidol
PrecursorMZ: 619.3029
PrecursorType: [2M+H]+
IonMode: Positive
Formula: C18H19N3O2
SMILES: CC1=CC=CC=C1N=NC2=CC(=C(C=C2)N(C(=O)C)C(=O)C)C
InChI: 
InChIKey: YIEDSISPYKQADU-UHFFFAOYSA-N
RetentionTime: 7.410333
CCS: 
CollisionEnergy: 20-40 eV
InstrumentType: UPLC-QTOF-MS
Comment: PI: Cristina Nerin; Data collector: QiZhi Su, GUIA, University of Zaragoza, Spain; Collision energy: 20-40 V; Instrument: Waters HPLC-QTOF-MS (Xevo G2 QTof); Ionization: ESI; Deconvoluted by MS-DIAL; Column: Waters AtlantisTM premier BEH C18 AX column (2.1 × 100mm x 1.7μm); Flow rate: 0.3mL/min; Mobile phase A and B are water and methnaol, respectively, both with 0.1% formic acid; Gradient elution: from A/B (95/5) to A/B (100/0) in 7min, kept for 4 min, then back to A/B (95/5) in 0.1 min, and maintained for additional 1.9 min (13min in total).; Injection volume: 10 μL
Num peaks: 79
77.03912 10879
79.05434 45156
80.0508 2917
80.05866 2932
91.0546 100121
91.07097 100259
92.05778 7533
94.04807 19646
94.06557 19532
106.06541 46910
107.05009 43450
107.07162 3473
107.07845 3604
107.08833 3493
108.05346 3317
108.08112 2192
119.06117 3767
119.07248 3289
120.08101 24077
121.07616 90286
122.06657 10059
122.07999 9241
132.08134 1887
133.07645 15792
134.06018 6667
134.0791 7441
148.076 88102
149.07948 8948
149.09715 9068
162.09171 7629
163.08807 7399
164.09435 3838
164.11285 3651
175.08649 31903
176.08865 3832
182.07884 3357
182.09781 3152
183.10181 1753
183.11246 1734
192.08138 1716
194.08406 6155
195.09177 2883
197.10188 1831
197.11185 1794
199.12512 2089
208.0981 3150
209.10747 47842
210.0925 15232
210.10899 17177
211.09595 4129
211.11346 3562
212.09718 1935
212.10699 1950
224.11519 1646
224.12444 1612
225.11555 1899
225.12584 1865
226.13368 17134
227.11951 14174
228.11983 2221
228.13443 2163
238.10085 3088
250.13449 30798
251.12173 10523
251.13501 11483
252.11971 3315
252.1971 2413
253.12061 7636
268.14462 154069
269.14752 27691
269.22296 7351
270.15277 2542
272.11688 5157
310.15512 20183
311.15778 3617
332.13641 53867
333.14038 10384
563.41425 6317
564.41772 2076
Name: Ochratoxin C
PrecursorMZ: 454.102
PrecursorType: [M+Na]+
IonMode: Positive
Formula: C22H22ClNO6
SMILES: CCOC(=O)C(CC1=CC=CC=C1)NC(=O)C2=CC(=C3CC(OC(=O)C3=C2O)C)Cl
InChI: 
InChIKey: BPZZWRPHVVDAPT-PXAZEXFGSA-N
RetentionTime: 7.178083
CCS: 
CollisionEnergy: 20-40 eV
InstrumentType: UPLC-QTOF-MS
Comment: PI: Cristina Nerin; Data collector: QiZhi Su, GUIA, University of Zaragoza, Spain; Collision energy: 20-40 V; Instrument: Waters HPLC-QTOF-MS (Xevo G2 QTof); Ionization: ESI; Deconvoluted by MS-DIAL; Column: Waters AtlantisTM premier BEH C18 AX column (2.1 × 100mm x 1.7μm); Flow rate: 0.3mL/min; Mobile phase A and B are water and methnaol, respectively, both with 0.1% formic acid; Gradient elution: from A/B (95/5) to A/B (100/0) in 7min, kept for 4 min, then back to A/B (95/5) in 0.1 min, and maintained for additional 1.9 min (13min in total).; Injection volume: 10 μL
Num peaks: 9
194.14384 470
221.00032 729
257.98318 1120
257.9968 1180
258.98444 683
260.99283 9666
261.9975 726
262.9902 2155
454.10281 44408
Name: Ochratoxin C
PrecursorMZ: 885.2145
PrecursorType: [2M+Na]+
IonMode: Positive
Formula: C22H22ClNO6
SMILES: CCOC(=O)C(CC1=CC=CC=C1)NC(=O)C2=CC(=C3CC(OC(=O)C3=C2O)C)Cl
InChI: 
InChIKey: BPZZWRPHVVDAPT-PXAZEXFGSA-N
RetentionTime: 7.1819
CCS: 
CollisionEnergy: 20-40 eV
InstrumentType: UPLC-QTOF-MS
Comment: PI: Cristina Nerin; Data collector: QiZhi Su, GUIA, University of Zaragoza, Spain; Collision energy: 20-40 V; Instrument: Waters HPLC-QTOF-MS (Xevo G2 QTof); Ionization: ESI; Deconvoluted by MS-DIAL; Column: Waters AtlantisTM premier BEH C18 AX column (2.1 × 100mm x 1.7μm); Flow rate: 0.3mL/min; Mobile phase A and B are water and methnaol, respectively, both with 0.1% formic acid; Gradient elution: from A/B (95/5) to A/B (100/0) in 7min, kept for 4 min, then back to A/B (95/5) in 0.1 min, and maintained for additional 1.9 min (13min in total).; Injection volume: 10 μL
Num peaks: 24
193.00551 841
195.00246 440
221.00063 1217
222.99768 1047
240.01433 1961
241.00821 1417
257.9837 4440
257.99545 4461
258.47479 850
258.49054 852
258.98193 2833
259.47427 624
259.98315 591
260.99246 29197
261.995 1937
262.00525 1979
262.99088 6725
263.99243 497
454.10181 38174
455.10645 5907
456.10059 10237
457.10715 1680
472.0574 799
885.22333 804
Name: N-(Hexadecanoyl)-sphinganine
PrecursorMZ: 562.5166
PrecursorType: [M+Na]+
IonMode: Positive
Formula: C34H69NO3
SMILES: CCCCCCCCCCCCCCCC(C(CO)NC(=O)CCCCCCCCCCCCCCC)O
InChI: 
InChIKey: GCGTXOVNNFGTPQ-JHOUSYSJSA-N
RetentionTime: 10.13475
CCS: 
CollisionEnergy: 20-40 eV
InstrumentType: UPLC-QTOF-MS
Comment: PI: Cristina Nerin; Data collector: QiZhi Su, GUIA, University of Zaragoza, Spain; Collision energy: 20-40 V; Instrument: Waters HPLC-QTOF-MS (Xevo G2 QTof); Ionization: ESI; Deconvoluted by MS-DIAL; Column: Waters AtlantisTM premier BEH C18 AX column (2.1 × 100mm x 1.7μm); Flow rate: 0.3mL/min; Mobile phase A and B are water and methnaol, respectively, both with 0.1% formic acid; Gradient elution: from A/B (95/5) to A/B (100/0) in 7min, kept for 4 min, then back to A/B (95/5) in 0.1 min, and maintained for additional 1.9 min (13min in total).; Injection volume: 10 μL
Num peaks: 4
541.5415 499
560.00836 290
560.53668 506
562.51642 28310
Name: Ochratoxin C
PrecursorMZ: 432.1209
PrecursorType: [M+H]+
IonMode: Positive
Formula: C22H22ClNO6
SMILES: CCOC(=O)C(CC1=CC=CC=C1)NC(=O)C2=CC(=C3CC(OC(=O)C3=C2O)C)Cl
InChI: 
InChIKey: BPZZWRPHVVDAPT-PXAZEXFGSA-N
RetentionTime: 7.197117
CCS: 
CollisionEnergy: 20-40 eV
InstrumentType: UPLC-QTOF-MS
Comment: PI: Cristina Nerin; Data collector: QiZhi Su, GUIA, University of Zaragoza, Spain; Collision energy: 20-40 V; Instrument: Waters HPLC-QTOF-MS (Xevo G2 QTof); Ionization: ESI; Deconvoluted by MS-DIAL; Column: Waters AtlantisTM premier BEH C18 AX column (2.1 × 100mm x 1.7μm); Flow rate: 0.3mL/min; Mobile phase A and B are water and methnaol, respectively, both with 0.1% formic acid; Gradient elution: from A/B (95/5) to A/B (100/0) in 7min, kept for 4 min, then back to A/B (95/5) in 0.1 min, and maintained for additional 1.9 min (13min in total).; Injection volume: 10 μL
Num peaks: 19
120.08142 4933
165.01158 4479
193.00504 34100
195.00203 8886
221.00034 113777
222.00461 10690
222.99785 34337
239.01112 437398
240.01462 48120
241.00829 137593
242.01253 12829
260.99335 18882
341.05731 54168
342.06122 8390
343.05591 14472
358.0834 49087
359.08713 7504
360.08167 13535
432.12134 8307
Name: N-(Hexadecanoyl)-sphinganine
PrecursorMZ: 1102.042
PrecursorType: [2M+Na]+
IonMode: Positive
Formula: C34H69NO3
SMILES: CCCCCCCCCCCCCCCC(C(CO)NC(=O)CCCCCCCCCCCCCCC)O
InChI: 
InChIKey: GCGTXOVNNFGTPQ-JHOUSYSJSA-N
RetentionTime: 10.1619
CCS: 
CollisionEnergy: 20-40 eV
InstrumentType: UPLC-QTOF-MS
Comment: PI: Cristina Nerin; Data collector: QiZhi Su, GUIA, University of Zaragoza, Spain; Collision energy: 20-40 V; Instrument: Waters HPLC-QTOF-MS (Xevo G2 QTof); Ionization: ESI; Deconvoluted by MS-DIAL; Column: Waters AtlantisTM premier BEH C18 AX column (2.1 × 100mm x 1.7μm); Flow rate: 0.3mL/min; Mobile phase A and B are water and methnaol, respectively, both with 0.1% formic acid; Gradient elution: from A/B (95/5) to A/B (100/0) in 7min, kept for 4 min, then back to A/B (95/5) in 0.1 min, and maintained for additional 1.9 min (13min in total).; Injection volume: 10 μL
Num peaks: 40
60.04395 1458
60.04926 1458
81.06983 1447
95.08582 2361
109.10201 1272
254.28432 1319
256.26318 22952
257.2663 2581
257.27884 2601
266.28455 17837
267.28729 2127
267.30069 1931
284.2948 30853
285.29761 4046
302.30643 3302
320.22034 1113
320.23233 1109
504.51422 3045
522.52209 95019
523.52545 30465
524.52246 3199
524.5426 3737
540.53326 49326
541.53583 13746
542.54706 1401
559.50635 7745
560.00659 5276
560.5177 1365
562.51501 24120
563.51874 6737
829.26721 9818
829.77124 12459
830.27277 6484
830.7691 1819
1080.08142 1846
1081.05786 1459
1099.02612 1366
1099.54065 2766
1100.02771 2078
1102.0481 1868
Name: N-(Hexadecanoyl)-sphinganine
PrecursorMZ: 540.5336
PrecursorType: [M+H]+
IonMode: Positive
Formula: C34H69NO3
SMILES: CCCCCCCCCCCCCCCC(C(CO)NC(=O)CCCCCCCCCCCCCCC)O
InChI: 
InChIKey: GCGTXOVNNFGTPQ-JHOUSYSJSA-N
RetentionTime: 10.1657
CCS: 
CollisionEnergy: 20-40 eV
InstrumentType: UPLC-QTOF-MS
Comment: PI: Cristina Nerin; Data collector: QiZhi Su, GUIA, University of Zaragoza, Spain; Collision energy: 20-40 V; Instrument: Waters HPLC-QTOF-MS (Xevo G2 QTof); Ionization: ESI; Deconvoluted by MS-DIAL; Column: Waters AtlantisTM premier BEH C18 AX column (2.1 × 100mm x 1.7μm); Flow rate: 0.3mL/min; Mobile phase A and B are water and methnaol, respectively, both with 0.1% formic acid; Gradient elution: from A/B (95/5) to A/B (100/0) in 7min, kept for 4 min, then back to A/B (95/5) in 0.1 min, and maintained for additional 1.9 min (13min in total).; Injection volume: 10 μL
Num peaks: 20
60.04555 1525
81.07011 1685
83.08529 997
95.0857 2611
109.10143 1432
254.28349 1360
256.26358 23482
257.26694 2748
266.2847 18531
267.2894 2283
284.29501 31744
285.29883 4228
302.30692 3359
320.22803 1842
504.51447 3098
504.53369 2583
522.52356 97878
523.52631 30913
524.52979 3768
540.53326 53101
Name: N-(Hexadecanoyl)-sphinganine
PrecursorMZ: 1080.061
PrecursorType: [2M+H]+
IonMode: Positive
Formula: C34H69NO3
SMILES: CCCCCCCCCCCCCCCC(C(CO)NC(=O)CCCCCCCCCCCCCCC)O
InChI: 
InChIKey: GCGTXOVNNFGTPQ-JHOUSYSJSA-N
RetentionTime: 10.1657
CCS: 
CollisionEnergy: 20-40 eV
InstrumentType: UPLC-QTOF-MS
Comment: PI: Cristina Nerin; Data collector: QiZhi Su, GUIA, University of Zaragoza, Spain; Collision energy: 20-40 V; Instrument: Waters HPLC-QTOF-MS (Xevo G2 QTof); Ionization: ESI; Deconvoluted by MS-DIAL; Column: Waters AtlantisTM premier BEH C18 AX column (2.1 × 100mm x 1.7μm); Flow rate: 0.3mL/min; Mobile phase A and B are water and methnaol, respectively, both with 0.1% formic acid; Gradient elution: from A/B (95/5) to A/B (100/0) in 7min, kept for 4 min, then back to A/B (95/5) in 0.1 min, and maintained for additional 1.9 min (13min in total).; Injection volume: 10 μL
Num peaks: 32
60.04555 1497
81.07011 1465
95.0857 2382
109.10143 1312
254.28349 1326
256.26358 22976
257.26694 2620
266.2847 17950
267.2894 2147
284.29501 31037
285.29883 4053
302.30692 3329
320.22803 1249
504.51447 3066
504.53369 2846
522.52356 96030
523.52631 30646
524.52979 3679
540.53326 49445
541.53748 13769
542.54785 1403
559.50671 7804
560.00909 5369
560.50677 1868
560.52588 1620
562.51575 23855
563.52069 6655
829.27216 9755
829.77228 12003
830.27472 6318
830.78357 1404
1080.06995 3004
Name: N-(Hexadecanoyl)-sphinganine
PrecursorMZ: 562.5168
PrecursorType: [M+Na]+
IonMode: Positive
Formula: C34H69NO3
SMILES: CCCCCCCCCCCCCCCC(C(CO)NC(=O)CCCCCCCCCCCCCCC)O
InChI: 
InChIKey: GCGTXOVNNFGTPQ-JHOUSYSJSA-N
RetentionTime: 10.20377
CCS: 
CollisionEnergy: 20-40 eV
InstrumentType: UPLC-QTOF-MS
Comment: PI: Cristina Nerin; Data collector: QiZhi Su, GUIA, University of Zaragoza, Spain; Collision energy: 20-40 V; Instrument: Waters HPLC-QTOF-MS (Xevo G2 QTof); Ionization: ESI; Deconvoluted by MS-DIAL; Column: Waters AtlantisTM premier BEH C18 AX column (2.1 × 100mm x 1.7μm); Flow rate: 0.3mL/min; Mobile phase A and B are water and methnaol, respectively, both with 0.1% formic acid; Gradient elution: from A/B (95/5) to A/B (100/0) in 7min, kept for 4 min, then back to A/B (95/5) in 0.1 min, and maintained for additional 1.9 min (13min in total).; Injection volume: 10 μL
Num peaks: 8
256.26413 1098
266.28546 386
284.29599 599
522.52307 1452
559.50574 2716
560.00848 1558
560.51166 457
562.51599 27953
Name: Ochratoxin C
PrecursorMZ: 885.2153
PrecursorType: [2M+Na]+
IonMode: Positive
Formula: C22H22ClNO6
SMILES: CCOC(=O)C(CC1=CC=CC=C1)NC(=O)C2=CC(=C3CC(OC(=O)C3=C2O)C)Cl
InChI: 
InChIKey: BPZZWRPHVVDAPT-PXAZEXFGSA-N
RetentionTime: 7.216166
CCS: 
CollisionEnergy: 20-40 eV
InstrumentType: UPLC-QTOF-MS
Comment: PI: Cristina Nerin; Data collector: QiZhi Su, GUIA, University of Zaragoza, Spain; Collision energy: 20-40 V; Instrument: Waters HPLC-QTOF-MS (Xevo G2 QTof); Ionization: ESI; Deconvoluted by MS-DIAL; Column: Waters AtlantisTM premier BEH C18 AX column (2.1 × 100mm x 1.7μm); Flow rate: 0.3mL/min; Mobile phase A and B are water and methnaol, respectively, both with 0.1% formic acid; Gradient elution: from A/B (95/5) to A/B (100/0) in 7min, kept for 4 min, then back to A/B (95/5) in 0.1 min, and maintained for additional 1.9 min (13min in total).; Injection volume: 10 μL
Num peaks: 51
120.07755 199
120.08358 203
137.01456 194
137.02081 195
166.98979 273
167.00446 145
193.00548 623
194.12022 421
221.00056 592
221.97913 170
241.00871 1365
257.97174 621
257.98489 894
258.47095 422
258.48572 324
258.49811 272
258.98389 484
259.97629 170
259.98471 209
260.00296 286
260.99313 8618
261.98822 462
262.00162 456
262.99121 2022
269.02948 196
269.04361 210
341.05762 1046
344.06061 155
354.53906 358
355.05899 245
355.54077 614
355.55969 478
358.08328 2157
359.08737 363
360.082 734
386.0806 147
451.10001 164
452.06439 194
454.10291 12550
455.10675 2064
456.10107 3113
457.10339 664
457.1221 887
470.07034 216
471.05203 297
471.07938 188
472.07025 224
473.04398 154
708.07068 193
885.19714 198
885.23138 157
Name: Ochratoxin C
PrecursorMZ: 454.103
PrecursorType: [M+Na]+
IonMode: Positive
Formula: C22H22ClNO6
SMILES: CCOC(=O)C(CC1=CC=CC=C1)NC(=O)C2=CC(=C3CC(OC(=O)C3=C2O)C)Cl
InChI: 
InChIKey: BPZZWRPHVVDAPT-PXAZEXFGSA-N
RetentionTime: 7.223767
CCS: 
CollisionEnergy: 20-40 eV
InstrumentType: UPLC-QTOF-MS
Comment: PI: Cristina Nerin; Data collector: QiZhi Su, GUIA, University of Zaragoza, Spain; Collision energy: 20-40 V; Instrument: Waters HPLC-QTOF-MS (Xevo G2 QTof); Ionization: ESI; Deconvoluted by MS-DIAL; Column: Waters AtlantisTM premier BEH C18 AX column (2.1 × 100mm x 1.7μm); Flow rate: 0.3mL/min; Mobile phase A and B are water and methnaol, respectively, both with 0.1% formic acid; Gradient elution: from A/B (95/5) to A/B (100/0) in 7min, kept for 4 min, then back to A/B (95/5) in 0.1 min, and maintained for additional 1.9 min (13min in total).; Injection volume: 10 μL
Num peaks: 17
194.11751 548
194.12772 547
241.00879 408
257.98264 737
258.98587 623
260.99353 10135
261.99466 517
262.00537 554
262.99188 2298
341.05798 823
354.53732 409
354.55301 581
355.53824 616
358.08377 2377
360.08188 674
433.1022 398
454.10248 37940
Name: Irgafos 38
PrecursorMZ: 515.3657
PrecursorType: [M+H]+
IonMode: Positive
Formula: C32H51O3P
SMILES: CCOP(OC1=C(C=C(C=C1C)C(C)(C)C)C(C)(C)C)OC2=C(C=C(C=C2C)C(C)(C)C)C(C)(C)C
InChI: 
InChIKey: ZEFSGHVBJCEKAZ-UHFFFAOYSA-N
RetentionTime: 10.60152
CCS: 
CollisionEnergy: 20-40 eV
InstrumentType: UPLC-QTOF-MS
Comment: PI: Cristina Nerin; Data collector: QiZhi Su, GUIA, University of Zaragoza, Spain; Collision energy: 20-40 V; Instrument: Waters HPLC-QTOF-MS (Xevo G2 QTof); Ionization: ESI; Deconvoluted by MS-DIAL; Column: Waters AtlantisTM premier BEH C18 AX column (2.1 × 100mm x 1.7μm); Flow rate: 0.3mL/min; Mobile phase A and B are water and methnaol, respectively, both with 0.1% formic acid; Gradient elution: from A/B (95/5) to A/B (100/0) in 7min, kept for 4 min, then back to A/B (95/5) in 0.1 min, and maintained for additional 1.9 min (13min in total).; Injection volume: 10 μL
Num peaks: 21
57.07029 1283
105.07175 1305
109.06725 953
161.13391 4698
173.03703 13518
201.06847 9175
229.1006 1001
229.11087 958
257.13101 13895
258.13177 952
258.14343 944
263.08435 47992
264.08801 4440
291.11649 2450
319.14645 48272
320.14987 5951
347.17975 1975
375.20871 63968
376.21213 11312
377.20789 718
515.36505 55786
Name: Irgafos 38
PrecursorMZ: 537.3492
PrecursorType: [M+Na]+
IonMode: Positive
Formula: C32H51O3P
SMILES: CCOP(OC1=C(C=C(C=C1C)C(C)(C)C)C(C)(C)C)OC2=C(C=C(C=C2C)C(C)(C)C)C(C)(C)C
InChI: 
InChIKey: ZEFSGHVBJCEKAZ-UHFFFAOYSA-N
RetentionTime: 10.59588
CCS: 
CollisionEnergy: 20-40 eV
InstrumentType: UPLC-QTOF-MS
Comment: PI: Cristina Nerin; Data collector: QiZhi Su, GUIA, University of Zaragoza, Spain; Collision energy: 20-40 V; Instrument: Waters HPLC-QTOF-MS (Xevo G2 QTof); Ionization: ESI; Deconvoluted by MS-DIAL; Column: Waters AtlantisTM premier BEH C18 AX column (2.1 × 100mm x 1.7μm); Flow rate: 0.3mL/min; Mobile phase A and B are water and methnaol, respectively, both with 0.1% formic acid; Gradient elution: from A/B (95/5) to A/B (100/0) in 7min, kept for 4 min, then back to A/B (95/5) in 0.1 min, and maintained for additional 1.9 min (13min in total).; Injection volume: 10 μL
Num peaks: 23
57.07088 1284
105.07094 1331
109.06625 978
161.13347 4691
173.03722 13601
201.06885 9161
229.10274 1026
257.1312 13866
258.13699 949
263.08392 48106
264.08755 4435
291.11801 2450
319.14688 48344
320.1514 5949
347.17798 1974
375.20889 64010
376.21341 11308
377.21411 777
377.23355 650
515.3656 56178
516.36932 16879
517.37268 1874
537.35205 948
Name: dithizone
PrecursorMZ: 257.0859
PrecursorType: [M+H]+
IonMode: Positive
Formula: C13H12N4S
SMILES: C1=CC=C(C=C1)NNC(=S)N=NC2=CC=CC=C2
InChI: 
InChIKey: UOFGSWVZMUXXIY-UHFFFAOYSA-N
RetentionTime: 8.099867
CCS: 
CollisionEnergy: 20-40 eV
InstrumentType: UPLC-QTOF-MS
Comment: PI: Cristina Nerin; Data collector: QiZhi Su, GUIA, University of Zaragoza, Spain; Collision energy: 20-40 V; Instrument: Waters HPLC-QTOF-MS (Xevo G2 QTof); Ionization: ESI; Deconvoluted by MS-DIAL; Column: Waters AtlantisTM premier BEH C18 AX column (2.1 × 100mm x 1.7μm); Flow rate: 0.3mL/min; Mobile phase A and B are water and methnaol, respectively, both with 0.1% formic acid; Gradient elution: from A/B (95/5) to A/B (100/0) in 7min, kept for 4 min, then back to A/B (95/5) in 0.1 min, and maintained for additional 1.9 min (13min in total).; Injection volume: 10 μL
Num peaks: 24
65.03862 217
77.03851 20022
78.04301 756
79.04259 353
79.05249 355
79.05753 355
92.05062 2738
93.05793 5666
93.07407 5693
94.06106 251
94.07191 211
105.04398 2094
105.04904 2058
105.06494 1628
107.0613 3773
108.06349 248
108.06907 241
150.02562 282
151.02145 589
151.03398 629
151.05235 563
255.07181 871
255.0822 876
257.08658 1078
Name: "5,6-dimethylheptane-1,6-diamine"
PrecursorMZ: 159.1862
PrecursorType: [M+H]+
IonMode: Positive
Formula: C9H22N2
SMILES: CC(CCCCN)C(C)(C)N
InChI: 
InChIKey: HUXPKQXHDPXCMM-UHFFFAOYSA-N
RetentionTime: 0.5125667
CCS: 
CollisionEnergy: 20-40 eV
InstrumentType: UPLC-QTOF-MS
Comment: PI: Cristina Nerin; Data collector: QiZhi Su, GUIA, University of Zaragoza, Spain; Collision energy: 20-40 V; Instrument: Waters HPLC-QTOF-MS (Xevo G2 QTof); Ionization: ESI; Deconvoluted by MS-DIAL; Column: Waters AtlantisTM premier BEH C18 AX column (2.1 × 100mm x 1.7μm); Flow rate: 0.3mL/min; Mobile phase A and B are water and methnaol, respectively, both with 0.1% formic acid; Gradient elution: from A/B (95/5) to A/B (100/0) in 7min, kept for 4 min, then back to A/B (95/5) in 0.1 min, and maintained for additional 1.9 min (13min in total).; Injection volume: 10 μL
Num peaks: 28
55.05651 48
55.73484 40
56.05067 38
56.94037 25
58.0632 21
65.03459 24
68.52534 26
69.07104 491
71.08246 23
72.07972 49
72.08887 25
73.047 45
83.02129 61
83.08693 161
91.04868 27
92.05164 26
111.99601 31
118.08093 20
120.96029 21
121.10374 24
123.98222 47
127.00315 21
136.75813 81
140.1461 53
142.15958 293
142.16747 141
156.93858 25
159.1904 69
Name: dithizone
PrecursorMZ: 279.0695
PrecursorType: [M+Na]+
IonMode: Positive
Formula: C13H12N4S
SMILES: C1=CC=C(C=C1)NNC(=S)N=NC2=CC=CC=C2
InChI: 
InChIKey: UOFGSWVZMUXXIY-UHFFFAOYSA-N
RetentionTime: 7.33795
CCS: 
CollisionEnergy: 20-40 eV
InstrumentType: UPLC-QTOF-MS
Comment: PI: Cristina Nerin; Data collector: QiZhi Su, GUIA, University of Zaragoza, Spain; Collision energy: 20-40 V; Instrument: Waters HPLC-QTOF-MS (Xevo G2 QTof); Ionization: ESI; Deconvoluted by MS-DIAL; Column: Waters AtlantisTM premier BEH C18 AX column (2.1 × 100mm x 1.7μm); Flow rate: 0.3mL/min; Mobile phase A and B are water and methnaol, respectively, both with 0.1% formic acid; Gradient elution: from A/B (95/5) to A/B (100/0) in 7min, kept for 4 min, then back to A/B (95/5) in 0.1 min, and maintained for additional 1.9 min (13min in total).; Injection volume: 10 μL
Num peaks: 26
65.04176 166
77.03923 14833
78.04272 463
78.04803 219
79.0541 284
92.04983 2026
93.05859 4233
94.05994 227
95.08713 169
105.04699 911
107.05746 798
107.06265 2270
108.06337 271
119.06475 150
147.12309 220
150.03171 293
151.0313 610
151.03796 279
190.99792 154
207.03246 309
255.07535 944
257.07089 249
257.09024 1012
265.01947 152
277.05493 311
279.07516 284
Name: dithizone
PrecursorMZ: 257.0858
PrecursorType: [M+H]+
IonMode: Positive
Formula: C13H12N4S
SMILES: C1=CC=C(C=C1)NNC(=S)N=NC2=CC=CC=C2
InChI: 
InChIKey: UOFGSWVZMUXXIY-UHFFFAOYSA-N
RetentionTime: 7.357
CCS: 
CollisionEnergy: 20-40 eV
InstrumentType: UPLC-QTOF-MS
Comment: PI: Cristina Nerin; Data collector: QiZhi Su, GUIA, University of Zaragoza, Spain; Collision energy: 20-40 V; Instrument: Waters HPLC-QTOF-MS (Xevo G2 QTof); Ionization: ESI; Deconvoluted by MS-DIAL; Column: Waters AtlantisTM premier BEH C18 AX column (2.1 × 100mm x 1.7μm); Flow rate: 0.3mL/min; Mobile phase A and B are water and methnaol, respectively, both with 0.1% formic acid; Gradient elution: from A/B (95/5) to A/B (100/0) in 7min, kept for 4 min, then back to A/B (95/5) in 0.1 min, and maintained for additional 1.9 min (13min in total).; Injection volume: 10 μL
Num peaks: 25
77.03867 17138
78.04245 699
79.03706 176
79.05428 220
79.06068 215
92.05069 2090
92.05621 2087
93.05856 3894
93.07719 3914
94.04293 226
94.05822 233
94.06405 203
94.07231 190
105.04601 605
107.06152 2722
118.05109 180
119.04779 224
119.05463 238
150.02261 236
150.03314 226
151.01953 603
151.03426 579
255.07617 888
257.06622 172
257.08926 1197
Name: "4,4-Diaminodiphenylether"
PrecursorMZ: 201.1037
PrecursorType: [M+H]+
IonMode: Positive
Formula: C12H12N2O
SMILES: C1=CC(=CC=C1N)OC2=CC=C(C=C2)N
InChI: 
InChIKey: HLBLWEWZXPIGSM-UHFFFAOYSA-N
RetentionTime: 0.6348833
CCS: 
CollisionEnergy: 20-40 eV
InstrumentType: UPLC-QTOF-MS
Comment: PI: Cristina Nerin; Data collector: QiZhi Su, GUIA, University of Zaragoza, Spain; Collision energy: 20-40 V; Instrument: Waters HPLC-QTOF-MS (Xevo G2 QTof); Ionization: ESI; Deconvoluted by MS-DIAL; Column: Waters AtlantisTM premier BEH C18 AX column (2.1 × 100mm x 1.7μm); Flow rate: 0.3mL/min; Mobile phase A and B are water and methnaol, respectively, both with 0.1% formic acid; Gradient elution: from A/B (95/5) to A/B (100/0) in 7min, kept for 4 min, then back to A/B (95/5) in 0.1 min, and maintained for additional 1.9 min (13min in total).; Injection volume: 10 μL
Num peaks: 16
80.04991 64863
93.05794 17143
108.02633 229849
108.04504 229370
109.02998 8693
109.04878 13113
109.0684 13441
128.06244 7006
129.05487 5733
129.07043 5710
130.06758 4363
154.06516 2382
156.08174 18421
184.07651 7182
200.09473 4304
201.10306 34831
Name: o-Toluidine
PrecursorMZ: 108.0816
PrecursorType: [M+H]+
IonMode: Positive
Formula: C7H9N
SMILES: CC1=CC=CC=C1N
InChI: 
InChIKey: RNVCVTLRINQCPJ-UHFFFAOYSA-N
RetentionTime: 1.370183
CCS: 
CollisionEnergy: 20-40 eV
InstrumentType: UPLC-QTOF-MS
Comment: PI: Cristina Nerin; Data collector: QiZhi Su, GUIA, University of Zaragoza, Spain; Collision energy: 20-40 V; Instrument: Waters HPLC-QTOF-MS (Xevo G2 QTof); Ionization: ESI; Deconvoluted by MS-DIAL; Column: Waters AtlantisTM premier BEH C18 AX column (2.1 × 100mm x 1.7μm); Flow rate: 0.3mL/min; Mobile phase A and B are water and methnaol, respectively, both with 0.1% formic acid; Gradient elution: from A/B (95/5) to A/B (100/0) in 7min, kept for 4 min, then back to A/B (95/5) in 0.1 min, and maintained for additional 1.9 min (13min in total).; Injection volume: 10 μL
Num peaks: 8
65.03947 240
65.04747 240
66.04798 41
91.05458 1286
92.05611 92
93.04885 329
93.05799 317
108.08427 667
Name: "1,5-Diaminonaphtalene"
PrecursorMZ: 159.0924
PrecursorType: [M+H]+
IonMode: Positive
Formula: C10H10N2
SMILES: C1=CC2=C(C=CC=C2N)C(=C1)N
InChI: 
InChIKey: KQSABULTKYLFEV-UHFFFAOYSA-N
RetentionTime: 1.286417
CCS: 
CollisionEnergy: 20-40 eV
InstrumentType: UPLC-QTOF-MS
Comment: PI: Cristina Nerin; Data collector: QiZhi Su, GUIA, University of Zaragoza, Spain; Collision energy: 20-40 V; Instrument: Waters HPLC-QTOF-MS (Xevo G2 QTof); Ionization: ESI; Deconvoluted by MS-DIAL; Column: Waters AtlantisTM premier BEH C18 AX column (2.1 × 100mm x 1.7μm); Flow rate: 0.3mL/min; Mobile phase A and B are water and methnaol, respectively, both with 0.1% formic acid; Gradient elution: from A/B (95/5) to A/B (100/0) in 7min, kept for 4 min, then back to A/B (95/5) in 0.1 min, and maintained for additional 1.9 min (13min in total).; Injection volume: 10 μL
Num peaks: 28
93.05807 38
115.05444 1506
116.05545 274
116.06066 274
116.06709 273
117.0601 164
118.07035 89
119.06759 23
128.04735 52
128.05434 52
130.06998 288
131.06148 77
131.07597 76
132.08296 251
140.05646 22
141.05569 135
141.06758 135
142.06624 1061
142.07343 1055
143.04904 74
143.06833 1917
143.07498 1918
144.07729 153
144.08498 148
157.07352 151
158.07346 1556
158.08685 1601
159.09239 1619
Name: o-Toluidine
PrecursorMZ: 108.0815
PrecursorType: [M+H]+
IonMode: Positive
Formula: C7H9N
SMILES: CC1=CC=CC=C1N
InChI: 
InChIKey: RNVCVTLRINQCPJ-UHFFFAOYSA-N
RetentionTime: 0.8671666
CCS: 
CollisionEnergy: 20-40 eV
InstrumentType: UPLC-QTOF-MS
Comment: PI: Cristina Nerin; Data collector: QiZhi Su, GUIA, University of Zaragoza, Spain; Collision energy: 20-40 V; Instrument: Waters HPLC-QTOF-MS (Xevo G2 QTof); Ionization: ESI; Deconvoluted by MS-DIAL; Column: Waters AtlantisTM premier BEH C18 AX column (2.1 × 100mm x 1.7μm); Flow rate: 0.3mL/min; Mobile phase A and B are water and methnaol, respectively, both with 0.1% formic acid; Gradient elution: from A/B (95/5) to A/B (100/0) in 7min, kept for 4 min, then back to A/B (95/5) in 0.1 min, and maintained for additional 1.9 min (13min in total).; Injection volume: 10 μL
Num peaks: 11
65.04019 730
66.03938 50
66.04389 50
91.05535 4956
92.05447 326
92.05898 322
92.06806 315
93.05194 1697
93.05832 1691
106.06927 53
108.08266 1991
Name: "1,4-Cyclohexanedicarboxylic acid"
PrecursorMZ: 195.0638
PrecursorType: [M+Na]+
IonMode: Positive
Formula: C8H12O4
SMILES: C1CC(CCC1C(=O)O)C(=O)O
InChI: 
InChIKey: PXGZQGDTEZPERC-UHFFFAOYSA-N
RetentionTime: 4.20175
CCS: 
CollisionEnergy: 20-40 eV
InstrumentType: UPLC-QTOF-MS
Comment: PI: Cristina Nerin; Data collector: QiZhi Su, GUIA, University of Zaragoza, Spain; Collision energy: 20-40 V; Instrument: Waters HPLC-QTOF-MS (Xevo G2 QTof); Ionization: ESI; Deconvoluted by MS-DIAL; Column: Waters AtlantisTM premier BEH C18 AX column (2.1 × 100mm x 1.7μm); Flow rate: 0.3mL/min; Mobile phase A and B are water and methnaol, respectively, both with 0.1% formic acid; Gradient elution: from A/B (95/5) to A/B (100/0) in 7min, kept for 4 min, then back to A/B (95/5) in 0.1 min, and maintained for additional 1.9 min (13min in total).; Injection volume: 10 μL
Num peaks: 169
58.48977 23
59.0715 52
66.98565 33
67.05287 20
72.45335 20
72.94139 21
77.03526 20
78.04495 25
78.98243 33
78.98903 59
79.05077 34
79.05515 36
79.06035 48
80.05332 29
81.03372 21
81.05047 40
81.06003 20
81.07086 1012
81.07928 62
82.07302 56
82.07783 49
83.05011 20
83.52166 36
84.04247 35
84.07556 25
85.02515 22
85.10574 47
85.94243 20
86.0898 32
87.04022 22
91.06358 47
93.00959 20
93.06892 35
95.08907 86
96.96195 29
97.06367 24
99.35136 20
101.02718 67
101.03316 37
102.08686 52
104.91106 29
105.03941 21
107.05603 20
107.08867 27
108.01331 20
109.00699 30
109.05937 60
109.06728 118
109.07335 48
109.097 33
110.52332 24
110.97754 87
112.96861 27
112.99003 33
113.99515 22
114.03874 27
114.10166 21
115.02329 50
115.04002 30
115.09451 44
117.01945 20
117.96242 23
119.01482 29
119.02258 24
119.02964 24
122.07272 22
123.04916 22
124.98022 32
125.02271 27
127.07438 20
127.9593 24
128.08249 27
129.98848 20
131.99373 86
132.00787 22
132.9698 30
133.09607 24
133.97018 22
133.98116 418
134.06367 20
134.97714 20
134.99139 40
135.08272 29
135.98169 30
135.99721 21
136.00816 28
136.08038 33
136.98518 29
136.99573 21
137.0056 20
137.97722 23
138.99872 22
139.00989 79
140.14839 26
141.01239 31
144.07983 42
144.99635 21
145.05017 23
145.49016 27
145.89366 21
148.07625 20
148.15092 39
148.29256 21
149.07275 32
149.99481 22
151.98909 70
152.02026 68
152.04079 22
152.98204 21
153.99995 21
154.01534 157
155.0726 22
156.38638 22
157.11298 20
157.99358 25
158.96924 20
158.99268 23
159.07967 20
162.0769 21
163.06531 59
163.88177 25
164.96918 25
165.02675 711
165.52 21
166.01648 19
166.02344 34
166.03716 20
166.09227 20
168.06839 67
170.98529 39
173.01259 47
173.05331 25
174.40205 26
174.99069 20
175.99879 26
176.01802 32
176.02533 22
176.12117 24
178.00453 29
178.56129 27
179.99017 42
180.01205 57
180.06276 25
180.94919 26
180.96159 22
180.9852 34
182.00362 282
182.99484 256
183.00436 122
183.03531 25
184.01181 43
184.1122 44
184.97697 50
184.99362 41
185.01833 36
185.99612 30
186.02068 39
186.21474 23
186.98463 20
187.04939 23
190.1133 79
191.49823 32
192.15047 20
193.01225 57
193.02142 22
193.03999 49
194.0085 20
195.04823 60
195.06894 226
Name: "2,4-Toluenediamine"
PrecursorMZ: 123.0924
PrecursorType: [M+H]+
IonMode: Positive
Formula: C7H10N2
SMILES: CC1=C(C=C(C=C1)N)N
InChI: 
InChIKey: VOZKAJLKRJDJLL-UHFFFAOYSA-N
RetentionTime: 0.61585
CCS: 
CollisionEnergy: 20-40 eV
InstrumentType: UPLC-QTOF-MS
Comment: PI: Cristina Nerin; Data collector: QiZhi Su, GUIA, University of Zaragoza, Spain; Collision energy: 20-40 V; Instrument: Waters HPLC-QTOF-MS (Xevo G2 QTof); Ionization: ESI; Deconvoluted by MS-DIAL; Column: Waters AtlantisTM premier BEH C18 AX column (2.1 × 100mm x 1.7μm); Flow rate: 0.3mL/min; Mobile phase A and B are water and methnaol, respectively, both with 0.1% formic acid; Gradient elution: from A/B (95/5) to A/B (100/0) in 7min, kept for 4 min, then back to A/B (95/5) in 0.1 min, and maintained for additional 1.9 min (13min in total).; Injection volume: 10 μL
Num peaks: 28
65.02423 75
65.03307 77
65.03999 77
67.04884 46
77.03927 656
79.04118 171
79.05473 170
80.05159 181
80.06227 176
81.05988 712
91.04579 116
92.04978 35
94.04321 44
94.05719 217
94.06433 221
94.06915 226
106.06632 1097
107.05981 477
107.06682 542
109.04905 148
109.06622 440
109.07484 362
121.07388 825
121.08202 825
122.0825 1642
122.09044 1631
123.07923 61
123.09245 3194
Name: "1,5-Diaminonaphtalene"
PrecursorMZ: 159.0929
PrecursorType: [M+H]+
IonMode: Positive
Formula: C10H10N2
SMILES: C1=CC2=C(C=CC=C2N)C(=C1)N
InChI: 
InChIKey: KQSABULTKYLFEV-UHFFFAOYSA-N
RetentionTime: 0.8633333
CCS: 
CollisionEnergy: 20-40 eV
InstrumentType: UPLC-QTOF-MS
Comment: PI: Cristina Nerin; Data collector: QiZhi Su, GUIA, University of Zaragoza, Spain; Collision energy: 20-40 V; Instrument: Waters HPLC-QTOF-MS (Xevo G2 QTof); Ionization: ESI; Deconvoluted by MS-DIAL; Column: Waters AtlantisTM premier BEH C18 AX column (2.1 × 100mm x 1.7μm); Flow rate: 0.3mL/min; Mobile phase A and B are water and methnaol, respectively, both with 0.1% formic acid; Gradient elution: from A/B (95/5) to A/B (100/0) in 7min, kept for 4 min, then back to A/B (95/5) in 0.1 min, and maintained for additional 1.9 min (13min in total).; Injection volume: 10 μL
Num peaks: 23
89.02968 1288
89.03968 1286
89.04468 1281
93.05377 1548
93.05943 1555
115.05464 73542
116.05983 11293
117.05595 4169
117.06226 4167
130.06613 8042
131.05228 1012
131.07224 2915
132.06209 8671
132.08151 8595
140.04933 943
140.05652 942
141.05949 3273
142.06551 50675
143.0732 78756
144.07703 6009
157.07773 2918
158.08438 59377
159.09167 50035
Name: "1,4-Cyclohexanedicarboxylic acid"
PrecursorMZ: 383.1039
PrecursorType: [2M+K]+
IonMode: Positive
Formula: C8H12O4
SMILES: C1CC(CCC1C(=O)O)C(=O)O
InChI: 
InChIKey: PXGZQGDTEZPERC-UHFFFAOYSA-N
RetentionTime: 4.209367
CCS: 
CollisionEnergy: 20-40 eV
InstrumentType: UPLC-QTOF-MS
Comment: PI: Cristina Nerin; Data collector: QiZhi Su, GUIA, University of Zaragoza, Spain; Collision energy: 20-40 V; Instrument: Waters HPLC-QTOF-MS (Xevo G2 QTof); Ionization: ESI; Deconvoluted by MS-DIAL; Column: Waters AtlantisTM premier BEH C18 AX column (2.1 × 100mm x 1.7μm); Flow rate: 0.3mL/min; Mobile phase A and B are water and methnaol, respectively, both with 0.1% formic acid; Gradient elution: from A/B (95/5) to A/B (100/0) in 7min, kept for 4 min, then back to A/B (95/5) in 0.1 min, and maintained for additional 1.9 min (13min in total).; Injection volume: 10 μL
Num peaks: 80
67.52061 82
73.0518 90
79.05968 128
81.0705 1228
82.07917 94
92.02212 70
101.02757 90
105.04017 60
105.06939 67
109.06224 78
119.01473 174
119.02744 84
125.03197 79
127.07301 61
133.97186 120
133.98515 164
134.98625 81
136.98888 70
150.05122 92
151.9977 102
154.00914 84
154.01515 62
155.08002 88
156.99757 64
164.96857 71
165.0229 734
165.03088 206
168.06526 71
173.51567 128
174.99474 81
179.99736 106
182.00412 76
182.99199 104
183.00311 150
184.00853 106
184.98024 62
184.99744 175
195.03867 85
195.06107 144
197.99722 83
199.00604 133
201.00981 81
211.03044 5640
212.02974 355
213.0311 78
215.03276 149
216.01498 62
218.07253 64
231.12141 95
236.07364 69
241.14211 61
244.00224 143
244.015 152
244.42505 68
259.98526 92
260.07574 63
264.93765 61
275.0369 110
277.1058 123
280.07678 253
306.06982 68
307.06027 84
307.07468 73
308.06122 114
308.07428 136
321.11292 80
323.11371 89
328.10782 57
336.08023 57
337.03308 92
337.05191 131
337.06607 70
354.08487 68
360.94019 64
362.23853 64
365.08215 257
365.10388 89
367.14948 102
369.12299 137
383.10321 1481
Name: 5-Methylfurfural
PrecursorMZ: 111.0445
PrecursorType: [M+H]+
IonMode: Positive
Formula: C6H6O2
SMILES: CC1=CC=C(O1)C=O
InChI: 
InChIKey: OUDFNZMQXZILJD-UHFFFAOYSA-N
RetentionTime: 3.607333
CCS: 
CollisionEnergy: 20-40 eV
InstrumentType: UPLC-QTOF-MS
Comment: PI: Cristina Nerin; Data collector: QiZhi Su, GUIA, University of Zaragoza, Spain; Collision energy: 20-40 V; Instrument: Waters HPLC-QTOF-MS (Xevo G2 QTof); Ionization: ESI; Deconvoluted by MS-DIAL; Column: Waters AtlantisTM premier BEH C18 AX column (2.1 × 100mm x 1.7μm); Flow rate: 0.3mL/min; Mobile phase A and B are water and methnaol, respectively, both with 0.1% formic acid; Gradient elution: from A/B (95/5) to A/B (100/0) in 7min, kept for 4 min, then back to A/B (95/5) in 0.1 min, and maintained for additional 1.9 min (13min in total).; Injection volume: 10 μL
Num peaks: 44
55.05421 21
55.67958 25
56.96043 22
60.66715 43
63.00107 21
68.21082 20
68.96731 31
70.97753 28
71.05151 24
72.03734 23
73.05337 83
74.93137 27
77.03336 41
79.05592 98
79.98378 20
81.02519 24
82.98882 40
83.04882 20
84.95727 22
88.9663 22
88.98016 25
90.90714 26
93.05656 26
95.05676 116
95.08652 73
97.00043 31
97.94415 34
98.99878 20
99.0292 21
101.06911 21
102.00855 21
104.98402 25
106.97168 24
107.02763 27
107.0462 20
107.05156 26
108.0219 21
108.95625 20
109.02895 37
109.06448 20
109.57226 29
110.97621 22
110.99091 28
111.04778 59
Name: "9,10-Dimethylanthracene"
PrecursorMZ: 207.1139
PrecursorType: [M+H]+
IonMode: Positive
Formula: C16H14
SMILES: CC1=C2C=CC=CC2=C(C3=CC=CC=C13)C
InChI: 
InChIKey: JTGMTYWYUZDRBK-UHFFFAOYSA-N
RetentionTime: 6.293667
CCS: 
CollisionEnergy: 20-40 eV
InstrumentType: UPLC-QTOF-MS
Comment: PI: Cristina Nerin; Data collector: QiZhi Su, GUIA, University of Zaragoza, Spain; Collision energy: 20-40 V; Instrument: Waters HPLC-QTOF-MS (Xevo G2 QTof); Ionization: ESI; Deconvoluted by MS-DIAL; Column: Waters AtlantisTM premier BEH C18 AX column (2.1 × 100mm x 1.7μm); Flow rate: 0.3mL/min; Mobile phase A and B are water and methnaol, respectively, both with 0.1% formic acid; Gradient elution: from A/B (95/5) to A/B (100/0) in 7min, kept for 4 min, then back to A/B (95/5) in 0.1 min, and maintained for additional 1.9 min (13min in total).; Injection volume: 10 μL
Num peaks: 16
127.05464 784
165.0717 1912
165.08963 1632
178.07828 709
178.09142 702
189.07043 6105
190.07835 7239
191.08607 58654
192.0912 6637
202.08041 664
203.08925 1712
204.09381 1803
204.11142 1817
205.10231 13483
206.10983 19130
207.11313 1962
Name: 9-phenanthrol
PrecursorMZ: 195.081
PrecursorType: [M+H]+
IonMode: Positive
Formula: C14H10O
SMILES: C1=CC=C2C(=C1)C=C(C3=CC=CC=C23)O
InChI: 
InChIKey: DZKIUEHLEXLYKM-UHFFFAOYSA-N
RetentionTime: 6.7131
CCS: 
CollisionEnergy: 20-40 eV
InstrumentType: UPLC-QTOF-MS
Comment: PI: Cristina Nerin; Data collector: QiZhi Su, GUIA, University of Zaragoza, Spain; Collision energy: 20-40 V; Instrument: Waters HPLC-QTOF-MS (Xevo G2 QTof); Ionization: ESI; Deconvoluted by MS-DIAL; Column: Waters AtlantisTM premier BEH C18 AX column (2.1 × 100mm x 1.7μm); Flow rate: 0.3mL/min; Mobile phase A and B are water and methnaol, respectively, both with 0.1% formic acid; Gradient elution: from A/B (95/5) to A/B (100/0) in 7min, kept for 4 min, then back to A/B (95/5) in 0.1 min, and maintained for additional 1.9 min (13min in total).; Injection volume: 10 μL
Num peaks: 35
93.07523 334
100.03839 60
100.04652 60
115.05728 65
117.01526 68
117.02776 64
124.00528 85
124.02052 74
133.01167 70
133.02682 75
150.04619 59
151.05499 321
151.06497 575
151.08095 76
153.04906 172
153.07071 170
153.08411 188
165.07101 5640
166.07635 861
167.0865 2465
168.07338 159
168.10139 99
176.03107 60
176.06329 829
177.069 556
177.08841 736
178.05701 142
193.05969 182
193.06868 193
193.07735 185
194.06332 710
194.07243 726
194.0945 403
195.07683 281
195.09123 149
Name: Vitamine E (alpha tocapherol)
PrecursorMZ: 453.37
PrecursorType: [M+Na]+
IonMode: Positive
Formula: C29H50O2
SMILES: CC1=C(C2=C(CCC(O2)(C)CCCC(C)CCCC(C)CCCC(C)C)C(=C1O)C)C
InChI: 
InChIKey: GVJHHUAWPYXKBD-UHFFFAOYSA-N
RetentionTime: 10.11178
CCS: 
CollisionEnergy: 20-40 eV
InstrumentType: UPLC-QTOF-MS
Comment: PI: Cristina Nerin; Data collector: QiZhi Su, GUIA, University of Zaragoza, Spain; Collision energy: 20-40 V; Instrument: Waters HPLC-QTOF-MS (Xevo G2 QTof); Ionization: ESI; Deconvoluted by MS-DIAL; Column: Waters AtlantisTM premier BEH C18 AX column (2.1 × 100mm x 1.7μm); Flow rate: 0.3mL/min; Mobile phase A and B are water and methnaol, respectively, both with 0.1% formic acid; Gradient elution: from A/B (95/5) to A/B (100/0) in 7min, kept for 4 min, then back to A/B (95/5) in 0.1 min, and maintained for additional 1.9 min (13min in total).; Injection volume: 10 μL
Num peaks: 129
50.62656 23
55.05264 73
55.05688 73
70.98308 21
78.02783 20
83.08721 359
86.10092 32
86.10567 30
93.06864 117
93.07569 120
95.04697 49
95.05112 34
97.08891 174
97.09392 162
97.10282 162
107.04675 96
111.11414 328
111.12297 311
115.05831 19
117.07388 22
119.07804 129
119.08794 106
122.10036 22
122.11387 22
123.08165 137
123.09029 138
125.13872 110
130.07312 40
130.0787 31
133.08009 48
138.08641 165
138.10208 222
138.11215 225
139.11514 33
143.08669 21
145.10336 127
147.04433 115
149.06599 32
153.08644 48
153.0975 46
153.5388 28
160.06354 19
162.08243 21
163.13504 550
164.0479 19
164.08371 752
167.09465 166
167.10544 176
168.10284 33
174.15115 24
175.05347 38
176.0891 64
177.06725 111
179.07642 31
179.09476 343
179.10522 312
179.11343 305
179.17566 42
179.18915 36
184.06512 1858
184.56685 435
185.05151 77
185.06659 124
185.08261 64
186.05315 61
192.1059 166
193.06259 159
193.07605 152
193.57365 26
203.04811 24
205.05072 50
205.20491 32
216.09914 20
220.04843 30
222.08113 123
230.15561 24
234.16965 296
234.65956 45
235.17262 33
237.05779 62
241.07526 20
242.65625 23
250.18108 23
258.61636 20
261.08694 23
267.03348 21
268.99969 200
289.23987 41
289.25867 23
299.13342 21
316.19556 33
316.22513 26
317.21393 1088
317.23935 189
317.70541 314
317.72253 329
318.21194 108
318.22839 106
342.0386 51
347.29874 22
349.23193 29
371.12927 38
371.23889 26
385.24625 88
385.25906 92
387.33682 158
387.35382 39
414.27841 29
415.3526 41
429.27051 24
430.09274 36
431.07291 172
432.37299 523
432.38773 319
433.10397 48
433.38693 35
433.40811 90
435.28436 27
449.34604 83
449.36069 56
449.85114 47
449.86786 27
449.88135 27
450.34793 118
450.37665 63
450.85931 118
450.87253 87
453.36221 378
453.37985 356
Name: Vitamine E (alpha tocapherol)
PrecursorMZ: 431.3848
PrecursorType: [M+H]+
IonMode: Positive
Formula: C29H50O2
SMILES: CC1=C(C2=C(CCC(O2)(C)CCCC(C)CCCC(C)CCCC(C)C)C(=C1O)C)C
InChI: 
InChIKey: GVJHHUAWPYXKBD-UHFFFAOYSA-N
RetentionTime: 10.11558
CCS: 
CollisionEnergy: 20-40 eV
InstrumentType: UPLC-QTOF-MS
Comment: PI: Cristina Nerin; Data collector: QiZhi Su, GUIA, University of Zaragoza, Spain; Collision energy: 20-40 V; Instrument: Waters HPLC-QTOF-MS (Xevo G2 QTof); Ionization: ESI; Deconvoluted by MS-DIAL; Column: Waters AtlantisTM premier BEH C18 AX column (2.1 × 100mm x 1.7μm); Flow rate: 0.3mL/min; Mobile phase A and B are water and methnaol, respectively, both with 0.1% formic acid; Gradient elution: from A/B (95/5) to A/B (100/0) in 7min, kept for 4 min, then back to A/B (95/5) in 0.1 min, and maintained for additional 1.9 min (13min in total).; Injection volume: 10 μL
Num peaks: 43
83.08748 351
83.09174 351
93.06182 117
93.07134 117
97.09856 183
97.10455 181
107.03786 121
107.05305 126
109.0837 328
111.11005 316
111.11858 314
119.08012 122
119.08907 121
123.07675 134
123.08339 137
125.12279 117
138.09225 234
138.10542 223
145.09438 127
145.10767 128
164.08359 577
167.09258 233
167.10342 199
167.12018 163
175.13785 135
179.11035 307
184.06416 1892
184.08003 1800
184.56723 435
185.06754 124
193.064 161
193.07831 144
234.16043 298
234.16829 295
234.17989 262
317.2005 981
317.21359 1088
317.23282 404
317.71619 350
317.73602 242
387.34991 165
429.39999 174
431.3837 11363
Name: "9,10-Dimethylanthracene"
PrecursorMZ: 207.1172
PrecursorType: [M+H]+
IonMode: Positive
Formula: C16H14
SMILES: CC1=C2C=CC=CC2=C(C3=CC=CC=C13)C
InChI: 
InChIKey: JTGMTYWYUZDRBK-UHFFFAOYSA-N
RetentionTime: 8.080633
CCS: 
CollisionEnergy: 20-40 eV
InstrumentType: UPLC-QTOF-MS
Comment: PI: Cristina Nerin; Data collector: QiZhi Su, GUIA, University of Zaragoza, Spain; Collision energy: 20-40 V; Instrument: Waters HPLC-QTOF-MS (Xevo G2 QTof); Ionization: ESI; Deconvoluted by MS-DIAL; Column: Waters AtlantisTM premier BEH C18 AX column (2.1 × 100mm x 1.7μm); Flow rate: 0.3mL/min; Mobile phase A and B are water and methnaol, respectively, both with 0.1% formic acid; Gradient elution: from A/B (95/5) to A/B (100/0) in 7min, kept for 4 min, then back to A/B (95/5) in 0.1 min, and maintained for additional 1.9 min (13min in total).; Injection volume: 10 μL
Num peaks: 17
127.05472 1194
165.05098 686
165.07077 2086
178.06517 1282
178.08015 1339
178.08984 1326
189.07072 5938
190.07878 7081
191.08667 58075
192.09348 44554
193.09827 4259
202.08118 1070
203.08708 2032
204.09453 2234
205.10204 10900
206.10966 10440
207.11494 1783
Name: Tinuvin 327
PrecursorMZ: 358.169
PrecursorType: [M+H]+
IonMode: Positive
Formula: C20H24ClN3O
SMILES: CC(C)(C)C1=CC(=C(C(=C1)N2N=C3C=CC(=CC3=N2)Cl)O)C(C)(C)C
InChI: 
InChIKey: UWSMKYBKUPAEJQ-UHFFFAOYSA-N
RetentionTime: 9.517475
CCS: 
CollisionEnergy: 20-40 eV
InstrumentType: UPLC-QTOF-MS
Comment: PI: Cristina Nerin; Data collector: QiZhi Su, GUIA, University of Zaragoza, Spain; Collision energy: 20-40 V; Instrument: Waters HPLC-QTOF-MS (Xevo G2 QTof); Ionization: ESI; Deconvoluted by MS-DIAL; Column: Waters AtlantisTM premier BEH C18 AX column (2.1 × 100mm x 1.7μm); Flow rate: 0.3mL/min; Mobile phase A and B are water and methnaol, respectively, both with 0.1% formic acid; Gradient elution: from A/B (95/5) to A/B (100/0) in 7min, kept for 4 min, then back to A/B (95/5) in 0.1 min, and maintained for additional 1.9 min (13min in total).; Injection volume: 10 μL
Num peaks: 55
57.07208 102
57.07818 102
59.05164 38
61.48668 39
61.77065 50
61.77737 47
61.78375 54
61.78814 63
61.79631 81
61.80016 70
61.94301 51
61.9899 43
61.99463 62
62.00097 47
62.01723 36
62.0421 39
62.10902 50
62.11915 56
62.13087 52
62.14432 39
62.15612 39
62.16269 66
62.17083 61
62.82771 42
63.0626 34
63.07821 32
75.42417 34
79.05152 47
79.05875 47
79.0648 47
95.0769 34
95.08823 35
111.11847 40
149.13536 36
149.15309 36
203.18204 34
203.19762 32
225.0385 37
240.13589 32
240.1501 33
246.04761 103
251.17346 35
251.18776 38
282.05191 87
282.06946 106
283.04034 31
283.05838 46
302.10922 2263
303.09219 260
303.11523 238
304.1091 480
348.17981 50
348.19257 47
348.20615 49
358.17136 3056
Name: Lauric acid
PrecursorMZ: 439.3104
PrecursorType: [2M+K]+
IonMode: Positive
Formula: C12H24O2
SMILES: CCCCCCCCCCCC(=O)O
InChI: 
InChIKey: POULHZVOKOAJMA-UHFFFAOYSA-N
RetentionTime: 8.0732
CCS: 
CollisionEnergy: 20-40 eV
InstrumentType: UPLC-QTOF-MS
Comment: PI: Cristina Nerin; Data collector: QiZhi Su, GUIA, University of Zaragoza, Spain; Collision energy: 20-40 V; Instrument: Waters HPLC-QTOF-MS (Xevo G2 QTof); Ionization: ESI; Deconvoluted by MS-DIAL; Column: Waters AtlantisTM premier BEH C18 AX column (2.1 × 100mm x 1.7μm); Flow rate: 0.3mL/min; Mobile phase A and B are water and methnaol, respectively, both with 0.1% formic acid; Gradient elution: from A/B (95/5) to A/B (100/0) in 7min, kept for 4 min, then back to A/B (95/5) in 0.1 min, and maintained for additional 1.9 min (13min in total).; Injection volume: 10 μL
Num peaks: 167
55.05223 130
55.05913 131
57.06419 112
57.07188 114
67.05434 772
67.06201 771
69.02879 197
69.03654 196
69.06666 702
69.07028 702
69.07585 702
71.08543 200
71.09127 198
77.03199 179
77.0392 176
77.04345 176
79.05393 768
81.07118 1469
82.07478 124
83.04758 220
83.05447 229
83.08687 568
83.09729 568
85.06207 142
85.06838 143
85.10353 155
89.0517 565
89.06145 569
89.07868 597
91.05634 743
93.05802 1153
93.07229 1124
95.04475 160
95.05003 162
95.05531 168
95.08567 1670
96.08486 135
96.09106 140
97.05234 411
97.06747 412
97.0979 442
97.1047 435
97.1223 295
105.06792 564
105.07475 564
107.04263 130
107.0477 128
107.05371 125
107.0759 931
107.08728 937
109.02772 201
109.03446 196
109.06583 190
109.09724 887
109.10438 888
111.04085 258
111.049 258
111.07883 445
111.08817 441
111.11485 120
111.12581 117
115.06106 127
117.0682 156
117.07569 164
119.07383 456
119.08826 442
121.04682 125
121.09622 740
121.10361 750
123.04453 115
123.05816 194
123.06171 255
123.0779 223
123.08739 280
123.09924 397
123.11436 346
123.12152 336
125.05591 130
125.06425 135
125.09365 119
125.10027 126
128.05217 193
128.05992 193
129.06989 147
129.07922 138
129.08917 114
131.0696 243
131.07968 304
131.08971 304
133.06732 242
133.07802 330
133.09081 579
133.10808 443
135.04132 201
135.0499 195
135.06468 252
135.07397 152
135.08574 162
135.11099 459
135.11917 450
136.90884 176
136.92192 239
136.931 238
137.05261 244
137.05923 259
137.0692 262
137.0777 266
137.09425 158
137.10411 146
137.13437 154
137.14404 144
139.06975 163
139.08127 180
139.09053 192
145.10388 238
147.12096 248
149.09494 120
149.10481 133
149.12958 229
149.13808 228
151.11038 136
151.12041 148
151.13492 140
151.14969 137
157.0984 150
157.10638 145
161.10016 214
161.12141 200
161.13597 128
161.14612 126
163.14731 157
163.15753 153
165.08167 203
165.09615 199
171.09631 112
171.11447 114
175.13383 167
177.10918 163
177.12248 156
187.13795 114
223.14546 347
223.16156 341
237.21785 133
237.23335 119
239.13206 11104
240.12341 900
240.13936 922
241.12567 122
241.14328 129
243.11819 140
243.12846 143
243.14043 143
275.03217 130
275.04199 134
324.32117 478
324.33817 474
337.11874 301
337.13867 138
351.13254 449
355.07321 123
365.14627 494
366.14999 112
369.09338 116
379.14563 445
379.16266 553
379.18478 246
399.31027 129
Name: Irgafos 168
PrecursorMZ: 647.4595
PrecursorType: [M+H]+
IonMode: Positive
Formula: C42H63O3P
SMILES: CC(C)(C)C1=CC(=C(C=C1)OP(OC2=C(C=C(C=C2)C(C)(C)C)C(C)(C)C)OC3=C(C=C(C=C3)C(C)(C)C)C(C)(C)C)C(C)(C)C
InChI: 
InChIKey: JKIJEFPNVSHHEI-UHFFFAOYSA-N
RetentionTime: 9.067766
CCS: 
CollisionEnergy: 20-40 eV
InstrumentType: UPLC-QTOF-MS
Comment: PI: Cristina Nerin; Data collector: QiZhi Su, GUIA, University of Zaragoza, Spain; Collision energy: 20-40 V; Instrument: Waters HPLC-QTOF-MS (Xevo G2 QTof); Ionization: ESI; Deconvoluted by MS-DIAL; Column: Waters AtlantisTM premier BEH C18 AX column (2.1 × 100mm x 1.7μm); Flow rate: 0.3mL/min; Mobile phase A and B are water and methnaol, respectively, both with 0.1% formic acid; Gradient elution: from A/B (95/5) to A/B (100/0) in 7min, kept for 4 min, then back to A/B (95/5) in 0.1 min, and maintained for additional 1.9 min (13min in total).; Injection volume: 10 μL
Num peaks: 16
95.08611 331
95.09421 339
147.10744 212
147.11516 233
147.12332 233
291.1214 382
295.09186 405
347.17764 844
356.06378 359
385.22672 285
385.24515 242
441.2912 2004
442.2771 296
442.29523 424
591.3927 276
647.45844 20924
Name: Lauric acid
PrecursorMZ: 239.1346
PrecursorType: [M+K]+
IonMode: Positive
Formula: C12H24O2
SMILES: CCCCCCCCCCCC(=O)O
InChI: 
InChIKey: POULHZVOKOAJMA-UHFFFAOYSA-N
RetentionTime: 8.077017
CCS: 
CollisionEnergy: 20-40 eV
InstrumentType: UPLC-QTOF-MS
Comment: PI: Cristina Nerin; Data collector: QiZhi Su, GUIA, University of Zaragoza, Spain; Collision energy: 20-40 V; Instrument: Waters HPLC-QTOF-MS (Xevo G2 QTof); Ionization: ESI; Deconvoluted by MS-DIAL; Column: Waters AtlantisTM premier BEH C18 AX column (2.1 × 100mm x 1.7μm); Flow rate: 0.3mL/min; Mobile phase A and B are water and methnaol, respectively, both with 0.1% formic acid; Gradient elution: from A/B (95/5) to A/B (100/0) in 7min, kept for 4 min, then back to A/B (95/5) in 0.1 min, and maintained for additional 1.9 min (13min in total).; Injection volume: 10 μL
Num peaks: 156
55.0568 144
57.0664 117
57.07211 121
67.0351 493
67.05364 736
67.06259 732
69.02941 211
69.0344 209
69.06437 760
69.07025 761
71.0862 224
73.06745 124
77.03673 178
77.0443 179
79.0541 868
79.05971 858
81.06971 1603
82.07169 140
82.0775 140
83.03836 187
83.04967 190
83.05657 200
83.08711 648
85.05522 150
85.06283 146
85.06835 147
85.09314 182
85.09809 172
85.10586 173
85.1124 173
89.04501 324
89.06078 332
89.07642 368
91.04099 844
91.05463 843
91.06003 847
93.05981 1257
93.07146 1230
94.06252 125
94.07615 114
95.04731 131
95.05483 138
95.08688 1852
96.08319 158
96.08835 155
97.05474 455
97.06497 450
97.07265 442
97.07824 458
97.09791 452
97.10447 442
98.97176 117
98.9873 119
105.06966 592
105.0765 594
107.04929 141
107.08772 1051
109.02551 194
109.03193 195
109.03794 195
109.06631 203
109.07704 182
109.10322 1031
111.02872 207
111.04079 311
111.04784 312
111.05763 296
111.08433 446
111.1099 129
111.12032 127
115.04028 122
115.06261 152
117.07027 169
117.0883 141
119.08781 448
119.09245 442
121.06382 114
121.07104 113
121.0872 888
121.0983 823
121.10452 826
121.11169 829
123.03587 111
123.04889 118
123.05889 196
123.07027 269
123.08157 248
123.09075 294
123.10431 488
123.11993 353
125.05682 115
125.06609 123
125.07454 149
125.09666 113
128.0526 202
128.06174 207
131.08626 293
133.06776 155
133.08646 261
133.10542 259
135.03084 162
135.03993 192
135.04874 191
135.07646 134
135.08757 159
135.09796 379
135.10986 486
135.11827 474
136.92522 244
136.93654 242
137.06558 265
137.09776 148
137.12926 171
137.13646 165
139.07562 166
143.08485 126
143.09132 118
145.09221 254
145.10178 248
145.10902 250
147.10913 270
147.11908 265
149.09399 134
149.1066 153
149.12488 273
149.13467 266
151.11174 151
151.12859 190
151.14041 154
151.1555 137
157.09154 154
157.10457 139
159.09592 144
159.11375 142
159.12099 110
161.09337 186
161.10356 207
161.13522 128
163.09857 154
163.1467 169
163.15546 165
165.09755 187
171.10216 137
171.11043 140
171.12427 114
177.09039 137
187.14201 131
187.15724 124
222.97545 109
222.98703 109
223.14917 323
223.16072 312
224.14719 111
224.16048 128
237.22604 145
239.13274 10885
Name: "9,10 anthraquinone"
PrecursorMZ: 209.0614
PrecursorType: [M+H]+
IonMode: Positive
Formula: C14H8O2
SMILES: C1=CC=C2C(=C1)C(=O)C3=CC=CC=C3C2=O
InChI: 
InChIKey: RZVHIXYEVGDQDX-UHFFFAOYSA-N
RetentionTime: 6.7854
CCS: 
CollisionEnergy: 20-40 eV
InstrumentType: UPLC-QTOF-MS
Comment: PI: Cristina Nerin; Data collector: QiZhi Su, GUIA, University of Zaragoza, Spain; Collision energy: 20-40 V; Instrument: Waters HPLC-QTOF-MS (Xevo G2 QTof); Ionization: ESI; Deconvoluted by MS-DIAL; Column: Waters AtlantisTM premier BEH C18 AX column (2.1 × 100mm x 1.7μm); Flow rate: 0.3mL/min; Mobile phase A and B are water and methnaol, respectively, both with 0.1% formic acid; Gradient elution: from A/B (95/5) to A/B (100/0) in 7min, kept for 4 min, then back to A/B (95/5) in 0.1 min, and maintained for additional 1.9 min (13min in total).; Injection volume: 10 μL
Num peaks: 570
52.13934 22
52.1688 20
52.37506 28
52.38552 25
53.24116 20
53.56421 22
53.70922 20
54.19855 23
54.21231 32
54.33256 47
54.81669 27
54.98186 27
55.05455 50
55.20021 22
55.26244 23
56.1616 27
56.18435 34
56.72371 21
56.83994 23
56.86503 25
56.96939 23
57.07172 25
57.07876 24
57.12608 22
57.34209 30
57.3848 21
57.66688 25
58.54721 20
58.95737 67
59.05622 109
59.36941 23
59.48008 34
59.79468 39
60.07878 33
61.00861 31
61.11767 23
61.69476 63
61.71116 25
62.98369 22
63.96788 82
63.98046 20
64.06101 20
65.03864 47
65.97781 20
67.04842 20
67.05433 165
67.10912 25
68.03173 33
68.27313 30
68.63424 29
68.99064 22
69.00079 63
69.03183 44
69.3147 22
70.06835 66
70.50851 22
70.68087 20
70.87392 20
70.98344 44
71.04716 59
71.08482 43
71.83567 34
72.0161 77
73.04898 45
73.06341 29
73.84889 28
74.88566 24
74.93005 20
75.32452 20
76.1778 28
76.86443 28
76.92705 42
76.9805 24
77.00566 24
77.02848 117
77.04045 88
77.04491 90
77.57995 30
78.02766 25
78.04501 24
78.98915 24
79.05085 202
79.05647 130
79.08804 23
80.21684 44
80.70851 104
80.97245 104
81.0321 43
81.04601 21
81.06859 251
81.07518 61
81.80122 23
82.05686 20
82.10251 34
82.21212 26
82.98731 24
83.04342 42
83.04822 36
83.08693 79
83.99242 24
83.99944 31
84.35902 26
84.96029 51
84.96533 43
85.02081 25
85.02927 20
85.03654 34
85.06063 21
85.06892 52
85.09711 32
86.07261 24
86.35458 22
86.50354 29
86.6062 26
86.67064 27
87.17337 29
87.80299 21
88.07482 20
88.51472 21
89.03649 27
89.06113 28
89.55558 25
91.01971 27
91.05019 57
91.05706 215
91.06338 89
91.84332 39
92.0574 22
92.06495 50
92.17747 23
92.31753 20
92.77673 23
92.99058 22
93.00258 20
93.03024 20
93.03482 47
93.07254 166
95.04559 48
95.05627 26
95.08832 221
95.24724 26
96.66737 27
96.94248 22
97.06419 67
97.07174 22
97.07869 28
97.16212 23
97.4116 24
97.51676 71
98.06293 24
98.06796 48
98.3248 35
98.42426 25
98.49866 24
98.95988 21
98.98421 371
98.99717 69
99.32789 24
100.03262 22
100.08127 27
101.2315 20
101.71974 27
101.97859 22
102.00954 72
102.05856 37
102.33675 46
103.92683 24
104.07133 23
104.11093 24
104.69549 24
105.03577 20
105.06487 135
105.07249 196
106.06638 36
107.05151 119
107.07938 54
107.08669 53
107.09329 77
107.16567 23
107.97397 33
108.04826 26
108.09734 23
108.13608 41
108.38532 24
108.76244 31
108.95261 24
109.02919 23
109.06066 46
109.07439 20
109.10815 107
109.91266 32
110.01566 48
110.02797 20
110.09097 38
110.16772 24
111.0025 33
111.02618 25
111.04409 42
111.04835 103
111.07891 53
112.00758 77
112.03588 22
112.0836 50
112.14363 34
112.99985 23
113.03475 20
114.0313 44
114.04376 73
115.05096 38
115.05649 35
115.09943 24
116.06425 21
116.97412 25
117.07228 118
117.09398 23
118.09081 25
118.91774 120
118.93227 20
119.00381 47
119.05548 28
119.08733 97
119.24374 28
120.08728 46
120.09413 24
120.29428 30
120.95312 28
120.99932 20
121.02185 47
121.05599 20
121.06625 119
121.10022 152
121.21751 39
122.30028 20
122.96077 27
122.98061 41
122.99109 24
123.02061 21
123.03116 20
123.04597 43
123.07124 34
123.08177 93
123.10531 38
123.11761 67
123.38733 24
124.00848 1064
124.02782 68
124.06034 22
124.50055 24
124.50854 84
124.97594 63
125.0155 91
125.05739 58
126.00072 37
126.0535 39
126.94629 20
127.05636 104
127.88764 30
128.02107 21
128.04103 25
128.05566 140
128.99292 22
129.06113 42
129.06773 60
129.07806 48
130.08253 39
130.31442 21
130.96339 24
130.97646 20
131.0508 21
131.09207 69
132.03015 23
132.08864 41
132.9744 30
133.01463 590
133.05624 62
133.0858 20
133.10281 124
133.4716 20
133.48521 25
133.50719 21
133.51663 50
134.06471 20
134.99654 29
135.0127 25
135.04411 22
135.04999 21
135.05949 22
135.07382 40
135.08411 25
135.09106 29
135.11673 22
135.26215 34
135.89975 20
136.02318 38
136.51761 24
136.92726 222
136.93823 141
137.01071 60
137.05699 107
137.06458 146
137.09518 47
137.17972 20
138.00256 20
138.97072 28
138.983 20
138.99901 50
139.00879 21
139.03224 26
139.04523 26
139.05365 38
140.06824 21
140.08003 23
140.1084 24
140.12189 20
140.14429 43
140.15565 77
141.02446 22
141.07281 27
141.09053 24
142.01761 351
142.05385 20
142.51633 60
142.52509 25
143.02466 37
143.04596 20
143.08022 20
143.08795 22
143.31276 35
143.51828 33
144.00902 21
144.02884 21
144.07712 25
144.58559 23
144.98294 24
145.01201 33
145.03238 20
145.06606 41
145.09714 28
146.04944 22
146.97987 27
147.00069 20
147.06265 38
147.07999 75
147.09883 28
147.1212 32
147.20935 29
147.33403 30
148.1142 20
148.1263 23
148.30733 21
149.02077 36
149.02927 20
149.03856 54
149.06253 22
149.09769 119
149.12103 44
149.13058 25
149.40431 25
150.10286 20
151.01944 84
151.02673 104
151.03386 110
151.05656 78
151.07443 28
151.11267 72
151.14542 21
151.52686 22
151.97688 21
152.02052 24
152.04742 142
152.06294 553
153.0197 69
153.05817 84
153.07385 410
153.08565 53
153.129 53
153.94345 26
154.00322 20
154.06448 22
154.07149 27
154.90341 20
155.00974 77
155.03114 20
155.08046 32
155.11528 32
156.04083 21
156.09013 20
157.00125 24
157.0089 20
157.08612 28
157.09869 20
157.10611 23
158.97667 23
159.04349 22
159.07307 28
159.08571 47
159.11987 24
160.02872 21
160.04065 25
160.0486 20
160.99284 21
161.01376 21
161.02588 22
161.04428 31
161.09447 52
162.00084 23
162.12898 31
162.52382 22
162.98665 20
163.02927 28
163.04016 52
163.05421 72
164.03583 29
164.05829 50
164.07297 51
165.00238 21
165.07439 75
165.08376 36
165.1274 24
165.90388 21
166.06532 22
166.08368 22
166.09428 23
167.01297 23
167.06281 23
167.0865 23
168.05078 24
168.06088 21
168.91826 21
169.06047 27
169.53252 20
171.00169 23
171.02895 21
171.09253 43
171.7487 29
172.03941 40
173.04562 28
173.05952 49
173.0708 28
173.0899 38
173.12849 33
174.01698 23
174.0688 39
174.09666 24
175.04744 43
175.07648 20
175.10359 25
175.11333 24
175.14729 25
175.1582 25
175.60422 27
176.0793 22
177.09918 46
177.12244 44
177.13689 20
177.55228 30
178.05992 30
178.97632 20
179.04666 53
179.59331 28
180.04518 39
180.06018 132
180.07881 33
180.97818 59
181.0188 20
181.05385 93
181.06335 136
181.09294 31
181.10693 21
181.55348 31
182.06847 46
182.90865 27
183.08057 20
183.0887 41
183.12523 54
183.46855 21
184.05083 23
184.07442 52
184.09218 20
184.27325 30
185.07521 21
185.10634 27
185.11491 20
185.12608 23
186.00755 25
186.14343 21
186.30286 34
187.06815 27
187.09363 22
187.5089 28
187.85497 31
188.04794 36
188.96907 26
189.05074 62
189.05901 23
189.1071 23
189.1357 48
189.4991 31
190.07089 27
190.9968 66
191.02934 24
191.05661 20
191.08159 20
191.11375 68
191.13135 30
191.14886 20
191.17819 20
192.99257 34
192.99878 64
193.01144 91
193.04497 22
193.09387 21
193.50813 21
194.00476 30
194.02213 22
194.03363 107
194.088 24
194.13652 20
195.00188 24
195.01295 31
195.03766 36
195.08092 78
195.09497 29
195.98349 21
196.06169 26
197.1123 21
197.1409 81
197.99092 21
198.10553 27
198.98485 27
199.01399 23
199.03439 47
199.08218 26
199.11537 20
200.03755 21
200.1385 21
200.99202 20
201.1226 23
202.85948 24
202.86844 25
203.04073 29
203.13251 23
203.14409 20
204.04916 22
204.1068 31
204.1485 24
204.36191 26
204.86195 27
204.89072 22
205.04906 22
205.09657 23
205.12627 59
205.44334 26
205.51932 22
205.93709 22
206.07042 27
206.9657 31
206.99753 41
207.00415 130
207.06314 21
207.11034 21
207.14066 50
207.97112 21
208.11514 22
208.94185 22
209.04454 66
209.06261 653
209.08972 32
209.11598 33
209.15576 29
Name: cypermethrin
PrecursorMZ: 433.1077
PrecursorType: [M+NH4]+
IonMode: Positive
Formula: C22H19Cl2NO3
SMILES: CC1(C(C1C(=O)OC(C#N)C2=CC(=CC=C2)OC3=CC=CC=C3)C=C(Cl)Cl)C
InChI: 
InChIKey: KAATUXNTWXVJKI-UHFFFAOYSA-N
RetentionTime: 7.879
CCS: 
CollisionEnergy: 20-40 eV
InstrumentType: UPLC-QTOF-MS
Comment: PI: Cristina Nerin; Data collector: QiZhi Su, GUIA, University of Zaragoza, Spain; Collision energy: 20-40 V; Instrument: Waters HPLC-QTOF-MS (Xevo G2 QTof); Ionization: ESI; Deconvoluted by MS-DIAL; Column: Waters AtlantisTM premier BEH C18 AX column (2.1 × 100mm x 1.7μm); Flow rate: 0.3mL/min; Mobile phase A and B are water and methnaol, respectively, both with 0.1% formic acid; Gradient elution: from A/B (95/5) to A/B (100/0) in 7min, kept for 4 min, then back to A/B (95/5) in 0.1 min, and maintained for additional 1.9 min (13min in total).; Injection volume: 10 μL
Num peaks: 735
52.52369 56
54.11234 63
55.01838 65
55.05375 123
56.57715 58
56.8004 85
57.03893 76
57.07005 452
57.07562 345
58.07824 103
59.0504 58
60.07867 459
60.08337 632
62.40794 64
63.00604 43
65.03921 73
66.01891 65
67.05247 285
67.05882 230
67.674 43
68.98906 44
69.03246 155
69.03835 77
69.06066 85
69.06802 836
69.07188 692
69.07946 56
69.91089 78
71.04642 66
71.05173 86
71.08061 139
71.08766 257
71.46119 50
73.02723 96
73.03471 136
73.05046 152
73.06258 104
74.09077 47
74.1004 69
77.03693 54
77.04353 50
79.05534 474
79.23267 56
80.05183 50
81.03208 98
81.06141 69
81.07043 1308
82.07034 69
82.07631 101
83.04497 113
83.05006 439
83.05936 98
83.08562 1009
83.58156 59
84.01867 68
84.05405 44
84.95872 80
85.02773 189
85.06072 196
85.06698 81
85.09944 333
86.10416 73
87.04116 122
87.0485 86
89.0246 99
89.04744 90
89.05592 385
89.06107 504
91.05331 766
92.02336 48
92.99627 46
93.02891 126
93.06833 482
93.07392 799
94.15629 103
94.53274 68
95.04799 168
95.08615 1806
96.89957 53
97.06367 249
97.10143 452
97.10635 141
97.76887 62
98.05205 49
98.98806 67
99.04588 90
99.06063 53
99.07252 52
99.08022 79
99.08556 47
100.95375 46
101.05631 48
102.09513 140
102.13411 57
102.18166 64
103.0504 54
103.07402 53
103.79147 50
105.06119 96
105.06866 416
105.07696 57
106.0439 98
106.09039 51
107.00925 44
107.04964 106
107.0884 905
107.30875 72
107.73705 84
108.05387 89
108.06085 47
108.09494 85
109.02476 288
109.02945 371
109.03679 198
109.06258 353
109.07753 96
109.10231 945
109.11183 90
110.03561 78
110.11284 63
111.00669 84
111.03981 59
111.04378 134
111.05186 50
111.08221 377
111.11511 151
112.04347 65
112.08059 56
112.09848 72
113.06197 151
113.09639 83
113.2625 55
113.73098 85
114.95383 58
115.06929 44
115.09135 64
116.05302 47
116.1032 71
117.06779 104
117.07847 75
117.09437 108
119.08317 376
120.09534 168
121.03086 81
121.05824 81
121.06285 105
121.06964 113
121.10146 631
122.10501 104
123.06387 61
123.07822 223
123.11629 172
123.44003 50
125.09592 286
125.12687 72
126.0238 539
126.10275 54
126.95139 54
127.02507 62
127.03181 301
127.05815 47
127.07095 66
127.07909 154
127.11518 111
127.57316 49
128.05695 52
128.11258 71
129.03024 131
129.05887 232
129.06943 115
130.04895 54
130.06895 68
130.07544 51
131.06696 72
131.08391 174
131.09105 231
133.08327 487
133.09203 688
133.10184 311
134.05113 87
134.0712 63
134.09212 51
135.06706 101
135.07634 49
135.08334 146
135.11685 578
136.06195 43
136.12285 106
137.02194 99
137.05156 57
137.09464 70
137.12857 126
138.09088 56
138.10197 69
139.06625 149
139.07674 75
139.10994 113
140.0858 52
141.02013 107
141.0694 74
141.08943 273
142.07632 56
145.04889 47
145.06409 87
145.08197 53
145.09846 143
145.10867 74
145.69363 67
146.06856 53
146.09799 44
147.07816 177
147.10915 73
147.1236 212
147.99521 154
148.00998 205
148.08345 83
149.02003 168
149.03751 54
149.05333 78
149.09392 220
149.10312 69
149.13264 240
149.6442 49
150.91388 43
151.11185 59
151.45667 62
151.9552 45
152.06375 208
153.00171 731
153.05972 64
153.12038 186
153.12967 44
154.08807 49
155.08524 45
155.18492 85
156.99164 298
156.99887 592
157.09631 123
157.12387 56
157.9942 72
158.00354 57
158.345 72
159.03619 68
159.07654 51
159.10667 46
159.11899 388
161.05537 58
161.09052 97
161.10089 94
161.12881 89
161.13657 74
163.00424 102
163.0154 89
163.05899 52
163.0807 220
163.11153 210
163.1398 270
163.15544 55
163.82858 43
164.07982 242
165.08337 201
165.10019 119
165.12294 108
165.13007 71
165.16301 50
166.10028 96
166.15828 53
167.02074 66
167.03465 43
167.08853 142
167.10144 55
167.11095 142
167.14491 68
168.07626 223
168.08414 209
169.04321 69
169.05998 54
169.07619 97
169.08911 1177
169.10434 230
170.09636 175
171.10458 99
173.13129 150
174.10222 46
175.0054 91
175.01787 62
175.07227 51
175.10086 240
175.14569 252
175.15637 195
176.00996 44
176.02557 43
176.11224 61
176.14323 108
177.02728 94
177.08885 68
177.1109 217
177.16029 242
178.02631 46
178.116 45
179.06494 55
181.05356 236
181.06964 1647
181.09282 72
181.12804 56
181.14851 50
182.06642 133
182.08366 70
183.06065 52
183.07072 100
183.08652 181
183.10037 55
183.11604 43
185.00591 50
185.06195 82
185.08331 119
185.12953 47
186.14313 71
187.02959 58
187.14055 94
187.14828 94
189.11925 45
189.16591 89
190.03517 46
190.04347 77
190.08188 58
190.9931 145
191.00298 558
191.13956 79
191.36836 51
193.00093 580
193.01413 91
194.009 43
194.07425 75
194.11993 45
194.99506 64
195.02885 57
195.04428 44
195.11385 98
195.16948 52
195.45161 52
196.08563 50
197.05402 58
197.08432 105
197.15332 64
198.08852 88
198.10118 65
199.08185 82
199.09656 66
199.10997 64
199.12981 95
199.19502 76
201.03659 47
201.04803 48
201.12671 131
201.16638 266
202.1145 75
205.16255 64
207.02229 66
207.03859 125
207.10846 78
207.13425 62
207.16864 84
207.17896 99
207.21239 86
207.7514 46
208.0327 55
208.0647 240
208.07967 718
209.06111 61
209.07463 143
209.08791 192
209.18936 75
209.20619 52
210.14665 43
210.92273 54
211.08224 86
211.14151 52
212.10068 43
213.09221 178
213.15305 72
213.19156 45
214.09377 102
215.17879 173
219.11038 56
219.17683 61
219.20786 57
221.08273 56
221.11906 104
221.20471 53
222.08989 56
223.07063 272
223.09889 43
223.12599 70
223.14267 144
223.2032 425
224.12364 120
224.2135 47
224.9702 43
225.06329 44
225.11902 60
226.21068 60
227.1369 46
227.18866 90
228.0623 62
228.12732 56
228.23386 61
229.11162 53
229.14888 71
229.19762 55
232.16039 84
234.08528 45
234.14578 47
235.14491 69
235.17842 53
236.17299 166
237.06677 93
237.08887 81
237.10051 70
237.16068 53
239.15056 70
239.19107 65
240.13945 76
241.08548 115
241.16716 44
242.99173 254
243.00351 339
243.01199 112
243.15588 53
243.18195 59
244.00516 54
244.99281 161
245.0063 300
246.00455 49
247.20485 105
247.22861 50
248.09526 64
248.97224 125
249.06891 58
249.21507 44
250.14371 49
250.49443 59
251.04955 60
251.10928 55
251.12283 68
251.16573 106
253.12553 71
253.18689 46
254.12556 52
254.14096 44
254.99857 80
255.05916 46
255.16469 55
255.17599 49
255.22054 73
255.23582 214
257.18005 49
258.09964 51
259.12439 72
259.21445 45
261.15567 91
261.16824 60
261.21866 67
263.23123 76
263.24869 89
264.12079 55
265.14893 78
265.19742 52
267.11789 50
267.52075 125
268.27197 84
269.14902 86
269.18988 61
269.22583 59
270.07901 51
273.04422 67
273.20901 58
275.04343 64
275.15854 67
275.2424 43
277.2077 63
279.10226 105
279.1861 54
281.05524 95
281.14771 51
281.16873 48
281.25266 50
282.11673 76
283.05847 46
283.17548 64
283.22226 62
283.28699 43
284.03568 47
284.32532 46
287.11066 67
288.979 60
289.07043 139
289.98126 43
290.06125 59
290.98492 48
291.0025 67
291.22281 282
291.23679 164
292.09384 53
293.12781 46
293.16879 66
293.21564 202
293.24307 88
296.22787 90
296.29349 120
296.30441 64
297.06757 83
297.15558 153
297.22449 67
297.28171 43
297.30429 141
298.06665 62
299.16959 44
299.24948 95
300.07916 53
300.13239 45
300.15121 135
301.12042 50
303.18033 93
304.09781 46
305.21011 68
305.23911 43
306.07819 45
306.08994 105
307.2417 49
308.12952 59
309.01569 57
309.18253 60
309.20084 105
309.2403 50
309.27902 62
309.32953 77
310.29001 87
310.31265 180
311.13266 123
313.17804 46
316.13077 43
317.21588 60
319.10599 58
319.21643 138
320.24963 66
321.21176 54
321.22745 54
321.26172 120
321.31778 53
322.24753 49
322.26227 71
323.24203 162
325.19534 74
325.24725 68
326.37616 145
327.11099 65
327.14133 56
327.18317 44
327.95807 47
328.03741 86
330.56436 57
331.10764 57
331.20435 298
331.30219 46
332.97421 100
332.99738 54
333.18045 54
333.19183 71
333.24133 50
333.25449 77
333.27017 48
334.14688 129
334.24045 89
334.98898 64
335.22571 63
335.25818 115
335.996 44
336.13174 47
336.93613 73
339.17914 83
339.23489 92
339.25189 47
339.26947 158
341.0148 80
341.142 44
341.2435 171
342.00943 64
343.01666 58
345.0603 59
346.02823 64
347.23053 76
348.10132 164
348.30704 141
349.70264 45
351.1615 46
351.18488 53
351.25858 67
352.94525 173
352.95905 113
353.07993 60
353.21539 49
353.26807 56
353.93713 69
354.08987 4231
354.9429 144
355.06967 246
355.08743 759
355.10443 420
355.14481 55
355.17438 52
355.23114 98
356.07895 116
356.0903 68
356.15686 51
357.15677 54
359.24155 56
359.2616 52
360.19699 55
361.11917 65
361.21735 110
361.25653 78
361.26822 68
363.254 88
365.20627 89
365.24548 52
367.65585 55
368.06815 141
369.05798 72
369.18268 79
369.20477 85
370.08832 91
370.19327 43
371.16418 128
371.2746 47
372.0889 59
372.1489 47
372.27048 53
375.21326 49
375.23724 75
376.04715 167
376.07849 108
376.23523 66
377.07025 65
377.27539 50
377.3363 70
378.09949 53
378.26355 46
379.14276 96
379.32803 81
381.04382 64
381.20911 54
381.27145 44
381.76599 45
381.9451 49
382.0853 59
383.0636 46
383.14481 50
383.19836 62
383.33063 76
384.24744 50
385.08487 57
385.28629 58
385.31711 74
387.27039 48
389.27298 84
390.29974 69
391.26312 43
391.28265 141
391.33194 307
392.48682 45
394.26215 43
394.59009 44
394.99393 2916
395.13995 52
395.32397 45
395.98538 120
396.0014 428
396.99124 2390
397.98041 216
397.99902 267
398.01376 138
398.04337 101
398.97241 126
398.98679 97
399.01413 76
399.05695 57
399.07339 48
399.33865 63
399.39441 47
399.99612 56
401.18961 82
401.87506 54
403.01672 48
403.08893 56
405.28516 71
406.07639 156
406.30188 74
407.24719 146
408.18668 51
409.11411 53
409.17383 48
409.24582 80
409.28775 73
411.12961 88
413.26035 72
413.33313 88
413.35019 45
415.03311 51
415.11551 50
415.24142 43
415.28922 87
415.31668 45
417.04538 77
419.36078 123
421.06631 69
421.09808 104
421.23392 62
421.25894 89
422.13269 49
422.21371 47
423.06985 176
423.08618 103
425.2077 52
425.23279 85
425.31229 56
425.76953 77
427.26682 52
427.31104 70
429.08481 54
430.25015 59
430.28546 89
431.06653 53
433.09509 71
433.11945 104
Name: Chlorothiazide
PrecursorMZ: 295.9565
PrecursorType: [M+H]+
IonMode: Positive
Formula: C7H6ClN3O4S2
SMILES: C1=C2C(=CC(=C1Cl)S(=O)(=O)N)S(=O)(=O)N=CN2
InChI: 
InChIKey: JBMKAUGHUNFTOL-UHFFFAOYSA-N
RetentionTime: 1.011783
CCS: 
CollisionEnergy: 20-40 eV
InstrumentType: UPLC-QTOF-MS
Comment: PI: Cristina Nerin; Data collector: QiZhi Su, GUIA, University of Zaragoza, Spain; Collision energy: 20-40 V; Instrument: Waters HPLC-QTOF-MS (Xevo G2 QTof); Ionization: ESI; Deconvoluted by MS-DIAL; Column: Waters AtlantisTM premier BEH C18 AX column (2.1 × 100mm x 1.7μm); Flow rate: 0.3mL/min; Mobile phase A and B are water and methnaol, respectively, both with 0.1% formic acid; Gradient elution: from A/B (95/5) to A/B (100/0) in 7min, kept for 4 min, then back to A/B (95/5) in 0.1 min, and maintained for additional 1.9 min (13min in total).; Injection volume: 10 μL
Num peaks: 56
114.00906 311
114.01558 295
123.9914 765
123.99949 826
124.00932 832
129.00671 286
129.02118 327
131.95972 704
131.97079 707
139.9917 869
141.95473 752
141.98634 353
142.00934 320
143.94609 308
143.95555 331
154.99805 374
155.00598 398
155.02162 295
155.96808 679
155.98013 928
155.99057 963
156.00436 613
156.99496 455
157.01453 877
157.02588 766
157.99638 809
158.00545 645
158.01767 533
159.00963 285
169.94743 521
169.96106 508
187.94981 550
187.95976 557
203.95013 1339
204.9841 2403
205.94402 362
205.95139 367
206.979 786
214.97014 1701
216.95299 734
216.96814 737
220.98184 1252
221.00145 404
222.97427 463
222.98877 436
230.95926 1447
230.96889 1435
232.96408 571
232.98149 299
268.93323 416
268.94791 518
278.92899 4799
278.94156 4878
279.93869 481
280.92792 1640
295.95773 26755
Name: Chlorothiazide
PrecursorMZ: 295.958
PrecursorType: [M+H]+
IonMode: Positive
Formula: C7H6ClN3O4S2
SMILES: C1=C2C(=CC(=C1Cl)S(=O)(=O)N)S(=O)(=O)N=CN2
InChI: 
InChIKey: JBMKAUGHUNFTOL-UHFFFAOYSA-N
RetentionTime: 2.79925
CCS: 
CollisionEnergy: 20-40 eV
InstrumentType: UPLC-QTOF-MS
Comment: PI: Cristina Nerin; Data collector: QiZhi Su, GUIA, University of Zaragoza, Spain; Collision energy: 20-40 V; Instrument: Waters HPLC-QTOF-MS (Xevo G2 QTof); Ionization: ESI; Deconvoluted by MS-DIAL; Column: Waters AtlantisTM premier BEH C18 AX column (2.1 × 100mm x 1.7μm); Flow rate: 0.3mL/min; Mobile phase A and B are water and methnaol, respectively, both with 0.1% formic acid; Gradient elution: from A/B (95/5) to A/B (100/0) in 7min, kept for 4 min, then back to A/B (95/5) in 0.1 min, and maintained for additional 1.9 min (13min in total).; Injection volume: 10 μL
Num peaks: 6
141.95206 251
169.93845 271
169.96426 268
220.9812 370
280.93045 437
295.95764 22132
Name: cresol red
PrecursorMZ: 383.0944
PrecursorType: [M+H]+
IonMode: Positive
Formula: C21H18O5S
SMILES: CC1=C(C=CC(=C1)C2(C3=CC=CC=C3S(=O)(=O)O2)C4=CC(=C(C=C4)O)C)O
InChI: 
InChIKey: OBRMNDMBJQTZHV-UHFFFAOYSA-N
RetentionTime: 6.918617
CCS: 
CollisionEnergy: 20-40 eV
InstrumentType: UPLC-QTOF-MS
Comment: PI: Cristina Nerin; Data collector: QiZhi Su, GUIA, University of Zaragoza, Spain; Collision energy: 20-40 V; Instrument: Waters HPLC-QTOF-MS (Xevo G2 QTof); Ionization: ESI; Deconvoluted by MS-DIAL; Column: Waters AtlantisTM premier BEH C18 AX column (2.1 × 100mm x 1.7μm); Flow rate: 0.3mL/min; Mobile phase A and B are water and methnaol, respectively, both with 0.1% formic acid; Gradient elution: from A/B (95/5) to A/B (100/0) in 7min, kept for 4 min, then back to A/B (95/5) in 0.1 min, and maintained for additional 1.9 min (13min in total).; Injection volume: 10 μL
Num peaks: 238
55.01407 41
55.02 41
55.02513 41
60.0808 191
65.05962 22
67.05402 23
67.05946 23
68.98689 15
71.04953 36
76.02484 41
76.03197 30
76.04339 32
77.03848 83
77.04409 83
79.05007 126
79.06206 126
83.07977 19
83.08992 18
85.10252 61
86.9815 24
88.96884 26
89.04563 39
91.05027 168
91.05683 168
91.06295 167
93.75645 20
95.05284 74
95.07938 52
95.08722 56
97.06016 20
97.06629 17
98.98427 66
98.99133 72
99.97153 25
99.98001 26
100.10971 39
100.93153 21
100.94219 18
100.99762 31
101.01047 41
101.02225 26
101.0966 19
102.09256 26
103.04462 21
103.05521 18
105.03257 51
105.03886 51
107.05145 1491
108.05034 163
108.06924 152
115.05924 44
115.96305 58
117.07612 50
117.09268 21
118.91772 22
119.08736 34
120.08665 40
121.03139 52
121.04072 48
121.06367 40
122.06651 20
122.08515 35
122.10509 20
123.04589 230
124.08452 23
125.06136 66
125.0933 35
125.1002 19
126.02212 21
127.07945 20
128.05658 47
128.06697 49
129.07054 42
131.08319 51
133.09975 49
133.10806 46
133.12663 58
134.06947 31
135.04039 46
135.11058 32
137.0891 56
137.09695 55
139.04231 29
139.1171 47
140.96379 16
141.07153 17
142.07245 39
143.08574 35
144.0887 33
145.04045 15
145.09471 30
147.11548 15
147.12285 17
148.11545 16
149.05768 20
152.06567 33
152.99339 72
153.00351 85
153.99701 18
154.07025 43
154.07773 41
154.96849 33
154.99577 23
155.00713 21
155.08357 15
155.09306 15
157.10098 26
159.01137 16
159.08879 16
161.12804 34
161.13962 32
162.13948 23
165.07138 125
165.08171 127
165.11844 16
166.06181 33
166.07121 37
166.08505 21
168.05809 59
168.0743 73
168.0845 59
168.99248 26
169.09003 45
169.1022 43
170.0916 22
172.12018 18
175.0786 27
176.08241 16
176.1024 24
176.11607 19
178.07068 27
181.07835 65
181.09779 71
182.06552 25
182.07294 69
182.08479 113
183.07512 34
183.08444 40
183.09189 37
184.08464 17
185.04907 27
185.06236 19
187.15373 16
196.04819 55
196.06073 60
200.11832 15
201.10924 26
207.06789 21
207.08167 32
211.05861 19
211.07224 42
211.09314 43
215.10387 16
217.09764 16
219.04628 62
219.06165 46
223.06743 36
225.13443 51
225.15536 42
225.16435 34
225.20409 34
226.09749 49
226.14136 26
227.13567 15
229.08482 15
229.09604 15
229.96677 20
230.0882 30
230.10237 26
233.05386 19
233.10312 16
235.08075 25
236.08267 48
237.07298 21
237.15456 40
237.22939 27
239.07672 22
243.00589 36
249.15402 28
250.10483 21
251.07117 15
253.11449 15
257.08203 30
257.10129 24
258.12732 18
259.10052 23
261.09851 72
267.07898 15
270.07474 18
271.13425 20
272.22827 26
273.09998 19
274.09796 67
275.01932 187
275.04108 608
275.11169 17
275.12436 23
275.16049 17
276.04263 103
277.02634 52
285.08881 21
286.10556 16
287.12411 16
288.12573 19
289.05963 58
289.08115 65
290.1524 18
293.13898 24
298.11697 24
300.09268 24
303.09735 40
303.12415 103
305.02353 20
305.0343 30
307.13327 22
309.13922 18
311.29666 21
319.13699 30
323.19171 18
323.86118 18
324.32294 80
334.15527 51
335.1304 24
335.15521 42
337.11783 23
345.1622 19
346.98053 26
351.22165 33
354.2269 38
355.0835 54
355.0979 32
355.13727 15
364.19382 15
365.14551 21
371.15903 25
371.16977 19
383.07993 25
383.09802 147
Name: Methyl elaidate
PrecursorMZ: 297.2794
PrecursorType: [M+H]+
IonMode: Positive
Formula: C19H36O2
SMILES: CCCCCCCCC=CCCCCCCCC(=O)OC
InChI: 
InChIKey: QYDYPVFESGNLHU-ZHACJKMWSA-N
RetentionTime: 8.942166
CCS: 
CollisionEnergy: 20-40 eV
InstrumentType: UPLC-QTOF-MS
Comment: PI: Cristina Nerin; Data collector: QiZhi Su, GUIA, University of Zaragoza, Spain; Collision energy: 20-40 V; Instrument: Waters HPLC-QTOF-MS (Xevo G2 QTof); Ionization: ESI; Deconvoluted by MS-DIAL; Column: Waters AtlantisTM premier BEH C18 AX column (2.1 × 100mm x 1.7μm); Flow rate: 0.3mL/min; Mobile phase A and B are water and methnaol, respectively, both with 0.1% formic acid; Gradient elution: from A/B (95/5) to A/B (100/0) in 7min, kept for 4 min, then back to A/B (95/5) in 0.1 min, and maintained for additional 1.9 min (13min in total).; Injection volume: 10 μL
Num peaks: 868
51.62738 37
51.79303 53
51.83723 144
52.65559 37
53.05096 44
53.26592 41
53.79409 39
53.95414 58
55.0118 74
55.05323 262
55.05802 157
55.52145 68
56.35428 133
57.03226 41
57.06942 612
57.07492 476
57.2783 45
58.06819 54
58.30915 69
59.04221 44
59.04976 178
59.4917 37
59.672 35
59.78963 43
60.08197 1731
60.48428 208
61.08339 88
61.08712 134
61.11553 39
61.24274 68
61.43679 61
61.67388 62
61.84348 44
61.95681 36
61.96112 35
62.1002 54
62.21181 41
62.42724 51
63.14091 61
63.62567 61
64.3065 35
64.40285 42
65.03225 42
65.04173 53
65.32539 43
65.41982 37
66.50722 57
66.55293 53
67.05551 1703
67.27612 54
67.33322 43
67.34336 39
68.24673 45
68.4389 52
68.80437 43
69.03137 68
69.0369 158
69.07029 3413
69.14968 69
69.6265 36
70.06989 58
70.07343 118
70.0789 59
70.98306 58
71.04592 202
71.05223 245
71.05927 41
71.08534 1383
71.09203 191
72.04456 57
72.94214 96
73.04836 125
73.05525 68
73.06433 106
74.04532 41
74.09786 152
74.10361 176
74.83672 43
74.88347 53
75.05003 42
75.44625 39
75.53108 42
75.62551 46
76.67701 51
77.03951 159
77.8689 108
79.05405 839
79.0602 358
80.05706 50
81.03397 44
81.07048 2654
81.07782 350
82.07311 248
82.07932 144
83.05003 217
83.08611 2103
84.08858 164
84.97514 57
85.02572 230
85.05218 36
85.0636 289
85.07119 182
85.10075 639
85.10474 236
85.68709 52
85.9414 50
86.0635 56
86.10493 130
86.41585 101
87.04231 48
87.43305 54
88.04627 37
88.06935 212
89.05364 37
89.06143 722
89.14708 39
89.47237 43
89.54686 45
90.39731 50
91.02664 35
91.03925 81
91.05545 964
91.48302 61
91.96333 218
92.05299 55
92.05738 141
92.99715 56
93.03262 114
93.05608 124
93.07096 1562
93.24228 46
93.25726 36
94.06157 58
94.07012 216
94.078 48
95.05141 135
95.08575 2990
95.09454 454
95.40854 62
96.0563 47
96.08451 39
96.09029 113
96.9332 52
96.94328 41
97.06502 670
97.10184 2001
97.50095 64
97.94527 53
97.97749 49
98.06896 37
98.09323 40
98.10024 75
98.10493 127
98.56927 48
98.9606 63
98.98408 234
98.99519 88
99.04016 65
99.0491 69
99.08285 370
99.11781 114
99.28943 81
99.9698 53
100.04749 54
100.33875 53
101.05742 177
101.0639 148
101.10263 102
101.11607 61
102.06089 91
102.09033 125
104.05871 44
104.68314 71
105.03622 54
105.06389 160
105.07097 439
105.96518 36
106.07282 51
107.04534 92
107.05492 102
107.06477 82
107.0826 671
107.0894 552
108.05466 59
108.06603 48
108.08892 59
108.0955 124
108.49718 37
108.56406 53
109.00805 44
109.06612 328
109.10161 1538
110.04102 40
110.10681 128
110.39389 42
111.04552 330
111.08176 752
111.09125 77
111.11637 343
111.1238 55
112.05417 41
112.08286 74
112.46777 46
112.55736 121
112.68918 41
113.05743 43
113.06529 40
113.09104 113
113.09919 139
113.1078 66
113.13087 35
114.08816 118
114.09969 44
114.98634 44
115.02814 97
115.03916 187
115.04987 102
115.05809 35
115.07569 211
115.116 36
115.56796 61
115.95884 67
116.05043 51
116.11675 51
117.06769 68
117.07652 90
117.08543 160
117.43224 43
117.95483 36
118.07288 70
118.08968 81
119.04929 52
119.08114 449
119.08862 239
120.06693 54
120.07832 56
120.08431 52
120.44551 51
121.02937 35
121.06662 193
121.0763 43
121.1015 1551
121.46705 56
121.83366 53
122.03252 58
122.10159 298
123.01208 118
123.08191 318
123.09204 42
123.11628 919
123.12572 156
124.12315 356
124.99417 40
125.05786 135
125.0638 68
125.09354 447
125.10175 171
125.13598 141
125.96898 91
126.02589 144
126.06641 68
126.61519 62
126.96671 46
126.97644 41
127.07175 106
127.08079 100
127.11249 165
127.15456 44
127.95982 78
127.99909 92
128.05992 48
128.07231 40
129.05112 65
129.05975 87
129.06883 75
129.07614 70
129.09801 205
130.077 94
130.1552 42
131.07228 64
131.08328 255
131.08981 199
131.09885 105
132.08044 81
132.09998 38
133.00992 49
133.05606 58
133.06723 168
133.08328 126
133.09148 143
133.10315 375
133.84891 134
134.05812 47
135.07532 84
135.08499 212
135.09926 86
135.11034 279
135.11853 1363
135.88849 67
136.06798 53
136.08995 48
136.12456 92
137.06264 411
137.08755 73
137.09734 335
137.11333 51
137.1346 420
137.14879 130
137.2352 97
137.67525 36
138.10063 60
138.10898 41
138.12773 100
138.13487 57
138.95328 45
138.98447 54
139.03862 48
139.0731 184
139.10675 184
139.12212 153
139.14711 239
140.02261 71
140.03177 96
140.0416 45
140.10722 35
140.14592 346
140.39412 43
141.05379 42
141.05984 75
141.08571 66
141.09917 180
141.12849 88
141.13844 92
141.45695 61
142.0314 38
142.07542 83
142.08641 77
142.15889 39
143.07251 71
143.08145 47
143.0929 204
143.10577 86
144.05275 48
144.06606 62
144.08281 165
144.09764 98
145.0549 64
145.06573 68
145.09357 79
145.10263 164
147.05093 111
147.06233 255
147.0717 184
147.08986 326
147.11172 226
147.12238 566
148.05766 52
148.07613 83
148.12921 36
149.02263 1679
149.05711 109
149.09218 116
149.10118 65
149.13287 641
149.99509 37
150.02878 393
150.05653 51
150.19025 45
150.46373 42
151.02211 44
151.07448 106
151.10416 259
151.11136 185
151.14821 124
152.02368 91
152.04572 44
152.07983 46
152.10254 57
152.11438 45
152.99709 69
153.01747 70
153.05835 136
153.08644 48
153.12984 293
155.08527 168
155.09688 60
155.10901 125
156.02313 36
156.09494 71
156.11002 106
157.08861 101
157.0985 161
157.11256 84
157.12119 86
157.83582 38
158.0553 42
158.09135 90
159.04228 83
159.06453 77
159.08272 45
159.10693 311
159.12054 231
159.13197 44
160.08328 63
160.10419 91
161.05411 38
161.10091 735
161.12659 188
161.13748 258
161.94414 85
162.09334 74
162.12457 38
163.06023 243
163.07126 235
163.1095 181
163.13924 105
163.15164 266
164.09103 52
165.01747 39
165.04854 123
165.05916 80
165.0694 91
165.08881 69
165.12294 291
165.1609 108
165.17125 170
166.02205 36
166.04137 51
166.06186 65
166.07564 82
166.12115 73
166.15237 79
166.16368 177
166.17686 39
166.9805 64
166.99254 115
167.03262 42
167.0439 82
167.06882 146
167.07883 60
167.10466 85
167.11322 58
167.14244 277
168.07559 61
168.11659 256
169.07732 55
169.09262 135
169.1087 79
169.12466 182
169.1582 147
170.0916 106
170.16879 109
171.04688 55
171.09264 54
171.10448 70
171.1181 123
171.1268 47
171.18039 79
172.07755 48
173.0894 77
173.10393 99
173.13565 219
174.10878 50
174.11914 47
174.13469 129
175.01707 73
175.11261 87
175.12833 206
175.14594 284
176.00916 42
176.03638 437
176.05234 83
176.12848 35
176.15395 47
176.96927 78
177.06882 50
177.08043 54
177.09929 276
177.11261 51
177.12724 163
177.16351 399
177.42943 37
177.52425 151
178.09953 49
178.14026 45
178.1595 52
178.17627 61
179.00856 58
179.06088 44
179.07941 115
179.11073 55
179.13811 73
179.15202 37
179.17494 80
180.05666 65
180.1104 45
180.15094 103
180.16765 39
180.99039 39
181.07027 67
181.08038 71
181.09407 59
181.116 69
181.17384 161
182.08893 46
182.12398 66
182.92966 36
182.98489 89
183.04279 77
183.10097 116
183.14024 105
183.17369 41
183.88951 123
184.17371 68
185.12164 115
185.12856 139
185.15555 50
186.11891 83
186.45128 37
187.10551 132
187.14578 166
188.0705 41
188.11205 39
188.14127 47
188.62265 174
188.99902 46
189.01315 73
189.10202 49
189.12892 131
189.15958 94
190.02608 53
191.04175 54
191.11105 235
191.14062 51
191.16667 52
191.17635 213
191.18619 80
193.03462 66
193.10663 48
193.12083 164
193.1535 58
193.91835 36
194.11044 35
195.06125 38
195.07329 46
195.09923 88
195.17726 174
195.2103 76
196.05746 158
196.06561 61
197.03711 70
197.13054 146
197.19215 69
197.2307 41
198.12697 87
198.18886 44
198.99454 42
199.08018 55
199.13469 84
200.55226 47
201.03619 245
201.05081 42
201.07115 43
201.12088 82
201.12958 45
201.16156 57
201.1684 136
201.40538 57
201.55927 44
202.06194 58
202.10779 464
202.12291 103
203.09454 44
203.10483 125
203.14349 83
203.18007 246
205.1194 80
205.14575 64
205.15881 69
205.20015 79
205.30409 64
207.03618 60
207.07761 56
207.09982 113
207.13614 80
207.2079 60
207.21645 65
208.02478 57
208.04607 199
208.05598 162
208.06461 70
208.14404 80
208.58871 120
209.11682 188
209.1982 81
210.02594 61
210.08173 50
210.11929 53
211.14017 48
211.1579 49
212.08124 48
212.15892 41
213.1499 73
213.15813 57
215.15715 43
215.17787 113
216.11507 88
216.12895 78
217.08038 42
217.13095 142
217.14619 53
217.19778 84
218.07268 226
218.65485 35
219.08766 105
219.11679 81
219.13496 70
219.17314 193
219.20706 150
219.21698 53
220.0752 45
221.06728 66
221.08749 407
221.12627 38
221.14487 79
221.16734 125
221.66347 37
222.08028 179
222.11165 77
223.01392 78
223.03267 61
223.10291 59
223.12863 48
223.17955 92
223.21561 99
223.56697 59
225.06027 84
226.13516 1601
226.18718 40
226.65305 36
227.04933 45
227.13235 248
227.14391 287
227.19418 75
228.13176 78
228.14856 92
228.38745 47
229.05586 61
229.18607 73
229.20473 40
231.12294 35
231.1519 73
231.16885 36
231.18137 38
231.20894 44
231.22537 121
232.08067 81
232.37833 43
233.15495 228
233.17699 93
234.15108 36
234.51445 47
235.16753 65
235.19403 75
235.22147 81
235.97635 35
236.06207 39
236.08281 86
237.0829 1141
237.11234 89
237.16063 42
237.21341 44
238.07785 115
238.10579 79
238.50198 38
239.03383 56
239.08507 125
239.12642 116
239.174 36
239.19656 71
240.09995 50
240.23199 135
240.83559 56
241.07997 53
241.19493 80
242.1403 52
242.22018 36
242.25873 139
243.09509 36
243.12277 66
243.15581 47
243.2002 62
244.99678 62
245.19553 74
245.21997 139
245.23317 58
246.11066 97
246.20396 173
246.96863 75
246.98061 120
247.23299 48
247.24782 162
248.97946 51
248.98801 48
249.06067 42
249.17882 160
249.18967 328
249.24466 79
249.26346 35
249.52058 44
250.08696 197
250.10713 55
250.1857 74
250.19804 43
250.21216 60
250.2312 41
250.60957 61
251.08894 65
251.09964 44
251.12596 79
251.16252 40
251.2005 52
251.24576 78
251.60419 50
251.72556 38
252.1588 316
253.07956 49
253.10971 39
253.22786 47
254.10857 36
254.2478 130
255.13255 51
255.1693 41
255.23029 94
256.26038 49
257.06677 65
257.15421 39
257.20139 41
257.27042 42
257.65369 44
258.09433 35
259.11426 39
259.14252 60
259.16107 38
259.24997 79
261.13589 54
261.19382 55
261.34177 39
261.97507 35
262.12781 60
262.14246 64
263.09528 41
263.16907 105
264.10233 35
264.15994 57
265.06876 37
265.11194 177
265.15036 36
265.16855 38
265.18793 74
265.2171 59
265.23218 62
265.24936 176
266.99088 53
266.99963 143
267.10867 154
267.15952 60
267.20279 44
267.23566 52
267.50815 49
268.01422 72
268.26505 61
269.00031 70
269.06082 42
269.0864 88
269.11023 81
269.17401 49
269.18637 53
270.09152 43
270.17633 44
270.22223 59
270.28421 35
271.11517 49
271.16473 96
271.19989 60
272.12598 43
273.07483 36
273.16083 51
273.18765 120
274.16394 38
275.25354 36
275.5679 36
275.58282 45
276.27533 42
277.09097 42
277.14618 85
277.21204 73
277.25272 86
278.1525 397
278.16568 1371
278.18982 140
279.04697 127
279.11023 40
279.12311 91
279.16043 120
279.17365 262
279.22815 44
280.15796 47
280.17007 48
280.27277 40
281.05219 345
281.06482 194
281.10983 160
281.23425 66
281.25049 37
281.29498 97
281.32465 50
282.0553 346
282.28394 204
283.03033 54
283.04501 68
283.05722 36
283.08496 74
283.15533 56
283.1814 54
283.2352 73
283.26605 133
283.28564 125
284.11618 63
284.17618 46
284.18921 61
284.29913 173
284.69168 53
285.05786 46
285.17569 186
285.22522 40
286.22327 42
287.13965 50
289.04791 188
289.06299 74
289.20389 85
289.25751 56
290.06879 83
290.15826 44
291.22055 132
291.23758 101
291.68317 52
292.01694 162
292.22827 52
292.27615 52
293.05997 107
293.12479 59
293.13974 83
293.15939 55
293.20105 82
293.21445 57
293.24371 81
295.08847 53
295.11407 334
295.1478 63
295.20016 51
295.21243 48
295.27533 42
296.10809 103
296.16986 174
296.29507 69
296.61169 43
297.27789 48
Name: Tetracycline
PrecursorMZ: 445.1602
PrecursorType: [M+H]+
IonMode: Positive
Formula: C22H24N2O8
SMILES: CC1(C2CC3C(C(=O)C(=C(C3(C(=O)C2=C(C4=C1C=CC=C4O)O)O)O)C(=O)N)N(C)C)O
InChI: 
InChIKey: NWXMGUDVXFXRIG-WESIUVDSSA-N
RetentionTime: 2.6774
CCS: 
CollisionEnergy: 20-40 eV
InstrumentType: UPLC-QTOF-MS
Comment: PI: Cristina Nerin; Data collector: QiZhi Su, GUIA, University of Zaragoza, Spain; Collision energy: 20-40 V; Instrument: Waters HPLC-QTOF-MS (Xevo G2 QTof); Ionization: ESI; Deconvoluted by MS-DIAL; Column: Waters AtlantisTM premier BEH C18 AX column (2.1 × 100mm x 1.7μm); Flow rate: 0.3mL/min; Mobile phase A and B are water and methnaol, respectively, both with 0.1% formic acid; Gradient elution: from A/B (95/5) to A/B (100/0) in 7min, kept for 4 min, then back to A/B (95/5) in 0.1 min, and maintained for additional 1.9 min (13min in total).; Injection volume: 10 μL
Num peaks: 39
86.0575 2189
86.06394 2195
98.06054 11916
126.05564 6786
154.05054 74548
155.05489 5545
155.07344 2831
241.08621 9316
242.09294 1244
251.07091 2136
257.08228 3976
267.0647 7226
267.07745 7241
268.07117 1180
269.08292 12316
270.0842 2041
291.06024 2299
291.07516 2289
293.07932 1452
297.07773 1711
319.06033 2391
321.07629 8112
322.07907 1690
334.04684 1628
337.07123 15972
338.07767 3205
349.06033 4654
349.0751 4980
365.06699 5904
366.0589 1043
366.07309 1107
392.11285 2850
410.12268 98892
411.12531 22642
412.13156 3370
427.14917 5854
428.13678 5672
429.13831 1200
445.16031 5556
Name: "Methyl cis,cis-11,14-eicosadienoate"
PrecursorMZ: 323.2962
PrecursorType: [M+H]+
IonMode: Positive
Formula: C21H38O2
SMILES: CCCCCC=CCC=CCCCCCCCCCC(=O)OC
InChI: 
InChIKey: GWJCFAOQCNNFAM-NQLNTKRDSA-N
RetentionTime: 9.021983
CCS: 
CollisionEnergy: 20-40 eV
InstrumentType: UPLC-QTOF-MS
Comment: PI: Cristina Nerin; Data collector: QiZhi Su, GUIA, University of Zaragoza, Spain; Collision energy: 20-40 V; Instrument: Waters HPLC-QTOF-MS (Xevo G2 QTof); Ionization: ESI; Deconvoluted by MS-DIAL; Column: Waters AtlantisTM premier BEH C18 AX column (2.1 × 100mm x 1.7μm); Flow rate: 0.3mL/min; Mobile phase A and B are water and methnaol, respectively, both with 0.1% formic acid; Gradient elution: from A/B (95/5) to A/B (100/0) in 7min, kept for 4 min, then back to A/B (95/5) in 0.1 min, and maintained for additional 1.9 min (13min in total).; Injection volume: 10 μL
Num peaks: 766
50.20584 57
50.68395 40
50.80241 143
50.86269 44
51.31102 58
51.47413 88
53.25483 45
53.59752 88
54.76315 133
55.05455 259
56.22413 99
56.72945 106
57.03207 65
57.07045 459
57.07407 229
58.04417 67
58.06702 62
58.07209 66
58.49572 44
58.54819 39
58.70679 47
59.04764 49
59.56799 51
60.08106 1546
60.26672 42
61.08604 200
61.31037 81
61.31582 215
61.64996 59
61.75998 39
61.99234 63
62.00349 48
63.88401 64
64.77194 42
64.89339 52
64.978 44
65.14365 46
66.01009 50
66.84787 51
67.05453 1392
67.06207 153
67.41376 58
68.99816 45
69.03458 114
69.04001 53
69.07035 3020
70.05851 39
70.06491 61
70.07458 68
70.44912 39
71.05064 508
71.08513 905
71.09122 353
72.08665 71
72.09129 95
72.09771 68
73.04421 203
73.05081 168
73.06636 68
73.70723 46
74.09297 209
74.0978 200
74.62357 49
74.6595 44
74.72921 54
74.97809 47
75.03211 111
75.04405 51
75.10323 89
77.03757 237
77.04801 45
77.12393 50
77.17202 66
78.0414 73
79.05443 874
79.78128 42
80.02542 45
81.03678 40
81.07078 3888
81.6381 62
82.07391 74
82.0801 228
83.01917 40
83.04859 335
83.05552 175
83.08618 2318
84.04902 48
84.07751 49
84.08776 217
84.89203 82
85.02914 91
85.0559 44
85.06711 408
85.09241 88
85.10273 1477
85.56416 64
85.95352 54
86.05583 39
86.06963 57
86.10567 63
87.04472 51
87.7828 63
89.05878 227
89.06502 315
89.07397 87
89.43942 337
89.45595 45
89.69549 76
90.05892 54
90.06825 77
90.28653 55
90.29274 40
91.05592 567
91.77475 50
92.06055 139
92.44253 40
93.00745 185
93.03576 55
93.0702 1433
94.07119 48
94.0787 43
95.04951 268
95.0872 3534
95.79044 88
96.08616 361
96.09616 148
96.9455 87
97.02223 51
97.03017 44
97.06511 692
97.07381 74
97.1024 1743
97.96711 63
97.97353 50
98.10436 98
98.98185 241
98.98873 150
99.04355 316
99.0793 108
99.11631 106
100.07857 71
100.11269 59
100.1253 56
101.02254 72
101.05941 90
101.09991 110
102.09444 395
102.75967 44
103.03742 54
103.04326 45
103.72072 103
104.75399 55
105.03249 55
105.07021 669
105.0799 170
105.19484 94
105.82389 45
106.07439 201
106.08814 53
106.10102 104
107.01724 101
107.05122 42
107.06969 94
107.08753 1373
108.05824 42
108.09858 44
109.02196 42
109.03587 128
109.06316 102
109.10245 1681
110.05074 46
110.06145 40
110.10298 198
110.83121 71
110.96225 41
111.02511 58
111.04578 255
111.06716 42
111.07849 497
111.08552 424
111.11341 284
111.1215 624
111.76334 52
112.05 41
112.08526 42
112.4952 41
112.98335 42
113.05134 56
113.061 81
113.06719 125
113.09562 224
113.13337 63
113.96008 42
114.94835 48
115.06396 50
115.07632 130
115.09608 114
115.11658 54
115.95061 51
116.89304 52
116.95334 49
117.05379 90
117.06358 91
117.07458 101
117.08708 102
117.48111 89
117.97042 64
118.09402 39
118.88844 48
119.0862 687
119.0952 120
120.04064 93
120.0894 85
121.03382 50
121.06401 134
121.07359 56
121.1022 2027
121.81097 57
122.10777 69
122.91949 125
122.97372 62
123.04693 83
123.05412 87
123.07491 212
123.08495 369
123.11825 1398
124.04972 62
124.11861 99
125.02382 109
125.0639 78
125.09407 342
125.10056 183
125.12781 110
125.98607 46
126.01878 51
126.02517 70
126.05755 72
126.0942 52
126.83892 50
127.0223 96
127.04327 45
127.07784 124
127.57397 40
127.95112 42
128.07217 93
128.11028 54
129.05428 53
129.07779 59
129.09518 305
129.37581 64
131.08813 266
131.65855 76
132.3138 39
133.06374 56
133.08643 192
133.1004 828
133.49629 42
134.0968 67
134.80486 68
135.0452 63
135.07005 51
135.07863 177
135.11786 570
136.1179 98
137.06146 239
137.06783 159
137.08403 48
137.09647 200
137.10252 250
137.1308 341
137.14011 111
137.76578 53
138.10278 43
138.3363 45
138.56908 110
138.6548 42
139.00348 85
139.07936 73
139.10822 128
139.11588 172
139.94385 89
140.06911 44
140.14578 86
140.15472 111
141.01866 46
141.06102 54
141.0705 76
141.09206 109
141.16223 54
141.93024 64
142.05952 42
142.38063 50
143.10881 79
143.59764 52
144.05328 46
144.08817 98
144.53467 58
145.05318 132
145.09875 396
145.10428 156
145.1134 49
147.06335 459
147.07114 611
147.11082 184
147.12029 693
148.00708 55
148.05896 52
148.07033 107
148.08076 52
148.12128 143
148.9362 44
149.0248 2013
149.04779 136
149.06436 45
149.09787 63
149.1059 63
149.12726 261
149.13486 216
149.14499 140
149.31874 64
149.51308 41
150.02519 46
150.03094 39
150.05339 160
150.09518 60
151.03035 91
151.06778 146
151.08154 69
151.11211 207
151.1203 47
151.13687 66
151.14664 78
151.15402 107
152.04416 45
152.05112 46
152.11893 128
153.00328 361
153.05319 118
153.06992 106
153.12878 407
154.12901 66
155.0397 134
155.08279 58
155.1391 41
156.01926 42
156.09471 116
156.10236 80
156.45993 63
156.52435 54
156.53328 43
156.55614 43
156.99519 55
157.10382 77
157.1223 98
157.46809 45
157.56718 63
157.99579 39
158.09641 41
159.07576 88
159.08817 49
159.12175 506
159.13847 54
160.11275 43
161.0663 67
161.0771 40
161.13303 647
161.92567 74
162.12585 45
162.13112 120
163.05685 97
163.11732 145
163.14732 343
163.15575 257
164.05592 54
164.91028 49
165.05505 60
165.08522 168
165.12878 146
165.13795 89
165.17329 130
166.15613 83
166.16501 102
166.98984 87
167.03091 48
167.0403 94
167.10414 102
167.13454 55
167.14326 114
169.08418 77
169.09373 59
169.16103 78
169.99826 41
170.10921 182
170.11617 70
171.00099 57
171.10222 80
171.11995 106
171.12675 226
172.29663 44
173.13246 188
173.16644 51
174.06654 53
175.03828 78
175.09135 44
175.10445 45
175.14038 322
175.14894 230
175.15865 169
175.77336 47
175.86855 93
176.02596 153
176.15224 55
177.0589 64
177.11401 45
177.12215 90
177.13092 55
177.16002 164
177.1705 119
178.02788 167
178.14404 94
179.06549 63
179.09811 43
179.11191 117
179.17339 74
179.18214 209
180.13425 48
180.19244 39
181.05762 57
181.11482 44
181.12753 189
181.15437 115
181.17175 65
182.51256 57
183.11424 157
183.13385 42
183.1754 133
184.13962 88
184.16443 40
185.088 65
185.12219 100
185.13304 96
186.95795 45
187.08704 49
187.11078 53
187.15424 91
189.13191 122
189.15942 57
189.16896 86
190.0408 52
191.10556 193
191.1425 52
191.16959 143
191.18402 81
193.10233 48
193.12631 336
193.15773 205
193.20395 125
194.03012 127
194.12338 95
194.132 52
195.17506 143
197.07259 47
197.1282 45
197.14278 84
197.1584 46
197.18814 49
199.13072 140
199.14345 68
199.15349 80
201.04987 196
201.11896 104
202.10727 453
203.12943 49
203.14742 138
203.17833 154
204.12141 68
204.93248 47
205.09715 41
205.19678 50
206.64359 45
207.03735 189
207.0619 49
207.10503 47
207.14876 49
207.1731 71
207.20815 58
208.02739 40
208.05978 46
208.13396 43
209.11966 107
209.15202 94
209.1857 134
209.79512 64
210.02632 41
210.08479 55
211.15559 125
211.20657 65
213.05186 109
213.14241 45
213.15938 42
215.10286 58
215.11827 44
215.16568 104
215.18631 100
215.84842 53
216.13315 52
217.19531 80
217.81804 62
218.06233 46
219.0717 96
219.13702 96
219.21236 87
220.17752 48
221.08566 802
221.15236 87
221.19495 60
221.22383 65
222.08469 114
222.16513 49
223.03207 43
223.06407 136
223.13533 72
223.1736 74
223.20497 112
225.1496 69
225.1702 78
225.21135 131
226.05876 85
226.18459 66
226.25055 39
227.10532 51
227.12892 71
227.16183 44
227.18416 50
228.01524 50
229.086 46
229.1109 50
229.15335 72
229.16548 44
229.19945 54
230.18541 39
231.16422 55
231.17639 83
231.61536 50
232.0815 58
233.09178 58
233.12743 129
233.16095 40
233.18033 199
234.09064 92
235.13341 108
235.17075 46
235.21732 84
236.00102 39
237.07619 252
237.08522 251
237.10278 65
237.15387 125
237.22173 170
237.23399 71
238.08234 192
238.09407 71
238.15256 87
239.14885 109
239.17743 88
240.23581 53
240.27396 66
240.99066 56
241.08257 42
241.17688 58
241.18558 66
243.22316 85
244.0126 45
245.00111 99
245.01485 47
245.13042 52
245.19423 47
245.22989 165
245.24051 92
246.20227 65
246.98137 54
247.11864 52
247.16728 54
247.22366 54
247.24854 91
249.15799 74
249.1924 156
250.08519 55
250.09663 96
250.15788 70
250.22198 56
251.1219 55
251.16901 49
251.20578 62
251.24043 53
252.12166 129
253.03722 63
253.05075 88
253.14368 81
253.21555 125
255.15659 40
255.17303 42
256.23932 57
257.06702 74
257.15286 111
257.18985 121
257.19946 55
257.23087 47
261.14267 81
261.18304 57
261.60483 49
263.13474 64
263.15045 47
263.16989 108
263.2113 64
263.23065 103
264.1073 105
264.25034 91
264.27036 54
265.11237 55
265.1413 53
265.21579 79
266.17596 42
266.21686 49
266.9964 54
267.10739 58
267.25195 48
268.0943 41
268.25641 49
269.28036 57
270.11389 40
270.5531 51
273.17294 44
273.22263 56
273.25635 332
274.26572 64
275.1564 73
275.26514 121
276.12717 52
277.0788 124
277.21289 59
277.25494 84
278.13422 54
278.22522 79
279.12775 39
279.18771 64
279.20825 90
279.22171 57
279.28183 63
280.18726 48
280.98151 47
281.05389 3413
281.17834 67
281.19861 122
281.25616 65
281.28568 115
282.04727 648
282.06256 552
282.13345 77
282.26468 40
282.27951 59
283.04941 470
283.17694 60
283.26392 49
283.29398 193
284.17868 78
284.19293 92
284.28534 49
284.68716 54
285.19006 152
285.52472 39
285.71515 44
286.24908 41
287.25336 72
289.04153 53
289.05066 64
289.06696 98
289.17358 75
289.21707 76
289.26324 65
290.06909 92
291.19473 75
291.21225 98
291.23138 101
291.27609 151
292.23499 63
292.26392 60
293.21567 207
293.23639 47
295.05853 44
295.10806 594
295.22281 119
295.23715 44
295.26837 55
295.29282 54
296.10629 157
296.29813 52
296.31363 46
296.96774 69
297.07013 59
297.22299 60
298.84827 40
299.2113 56
300.1102 79
300.13223 71
300.30402 79
301.14825 115
301.25174 69
302.47858 50
303.20016 50
303.30255 64
303.97775 48
304.13324 47
305.25278 68
305.29428 122
306.20224 42
306.2468 42
306.27463 56
307.09949 45
307.10907 46
307.18991 54
307.23206 53
307.26022 65
307.60797 87
308.2066 43
309.05374 57
309.22198 45
309.27832 168
309.2944 40
309.31686 63
310.30505 129
310.32733 129
311.10791 78
311.28241 86
311.2948 46
312.36172 47
312.71393 52
313.12665 54
313.14148 72
313.24344 73
313.28159 46
313.35599 69
313.95166 42
314.14499 67
315.18445 41
315.27341 41
315.30203 39
315.32663 50
317.21561 39
317.24686 52
317.26028 39
318.14349 46
319.13004 56
319.255 64
320.18802 56
320.22729 54
321.25375 98
321.26474 164
321.27835 53
321.29916 107
321.31775 473
322.24533 54
322.26843 69
322.33636 41
323.18527 76
323.6232 59
Name: "Methyl cis,cis-11,14-eicosadienoate"
PrecursorMZ: 340.3222
PrecursorType: [M+NH4]+
IonMode: Positive
Formula: C21H38O2
SMILES: CCCCCC=CCC=CCCCCCCCCCC(=O)OC
InChI: 
InChIKey: GWJCFAOQCNNFAM-NQLNTKRDSA-N
RetentionTime: 9.052433
CCS: 
CollisionEnergy: 20-40 eV
InstrumentType: UPLC-QTOF-MS
Comment: PI: Cristina Nerin; Data collector: QiZhi Su, GUIA, University of Zaragoza, Spain; Collision energy: 20-40 V; Instrument: Waters HPLC-QTOF-MS (Xevo G2 QTof); Ionization: ESI; Deconvoluted by MS-DIAL; Column: Waters AtlantisTM premier BEH C18 AX column (2.1 × 100mm x 1.7μm); Flow rate: 0.3mL/min; Mobile phase A and B are water and methnaol, respectively, both with 0.1% formic acid; Gradient elution: from A/B (95/5) to A/B (100/0) in 7min, kept for 4 min, then back to A/B (95/5) in 0.1 min, and maintained for additional 1.9 min (13min in total).; Injection volume: 10 μL
Num peaks: 116
55.05195 202
55.05825 211
57.0685 139
57.07327 140
60.06821 143
60.0824 223
67.05409 769
67.05956 773
67.07275 756
69.06737 1053
69.07155 1053
71.08292 426
71.08707 415
73.03967 962
73.04698 996
73.06056 1006
73.07018 195
79.05514 428
79.06145 434
81.07053 1179
81.08378 1175
83.04677 246
83.05294 249
83.06673 437
83.08701 681
85.05078 188
85.06506 143
85.09991 707
85.10815 699
91.03976 324
91.04894 358
91.05523 349
91.06767 333
93.07103 690
95.07409 1544
95.08642 1538
95.10715 697
97.06363 393
97.06915 395
97.07672 397
97.09413 896
97.10412 918
105.05753 458
105.06721 464
105.07483 478
107.08062 623
107.08831 610
109.09567 594
109.10266 599
109.1075 590
111.07688 164
111.08288 176
111.09844 261
111.11888 188
111.12846 195
119.07699 416
119.0901 416
121.10255 742
133.08649 603
133.10289 664
135.11761 466
137.10898 181
145.0927 143
145.10458 143
147.06612 2801
147.10075 390
147.11357 361
147.12413 365
148.06967 535
148.0826 549
149.0051 185
149.02422 827
149.03897 1525
149.04712 838
149.05493 1006
149.06386 928
149.07164 247
149.1272 142
149.13734 179
150.03297 174
150.04984 146
153.12129 147
153.13205 163
161.1163 211
161.12904 217
161.13687 212
163.15134 151
175.15393 162
181.12628 384
189.14828 199
207.03206 345
207.04916 347
221.08687 1069
222.07962 344
222.09474 355
222.10904 254
223.06189 796
223.07317 822
223.09282 234
265.02759 225
267.00046 155
273.24753 218
273.26343 190
281.05313 13782
282.05075 3564
282.06247 3347
283.05374 2085
284.05267 319
295.10379 139
321.32095 535
326.96014 1608
326.9733 1547
327.96652 456
327.98572 223
328.97534 264
335.33398 189
Name: Tetracycline
PrecursorMZ: 445.1596
PrecursorType: [M+H]+
IonMode: Positive
Formula: C22H24N2O8
SMILES: CC1(C2CC3C(C(=O)C(=C(C3(C(=O)C2=C(C4=C1C=CC=C4O)O)O)O)C(=O)N)N(C)C)O
InChI: 
InChIKey: NWXMGUDVXFXRIG-WESIUVDSSA-N
RetentionTime: 0.89375
CCS: 
CollisionEnergy: 20-40 eV
InstrumentType: UPLC-QTOF-MS
Comment: PI: Cristina Nerin; Data collector: QiZhi Su, GUIA, University of Zaragoza, Spain; Collision energy: 20-40 V; Instrument: Waters HPLC-QTOF-MS (Xevo G2 QTof); Ionization: ESI; Deconvoluted by MS-DIAL; Column: Waters AtlantisTM premier BEH C18 AX column (2.1 × 100mm x 1.7μm); Flow rate: 0.3mL/min; Mobile phase A and B are water and methnaol, respectively, both with 0.1% formic acid; Gradient elution: from A/B (95/5) to A/B (100/0) in 7min, kept for 4 min, then back to A/B (95/5) in 0.1 min, and maintained for additional 1.9 min (13min in total).; Injection volume: 10 μL
Num peaks: 39
86.06139 1328
98.06062 10375
126.05482 6375
154.05006 71775
155.05446 5122
241.08484 9695
242.07729 1437
242.09201 1266
243.06602 898
251.07262 1966
257.08212 3647
267.06482 6225
268.06705 975
268.08661 909
269.08163 11064
270.0856 1938
291.0675 2245
293.07611 1393
293.0921 1263
297.0762 1795
319.06161 2219
321.07639 7322
322.07336 1821
322.08594 1853
334.0448 1631
337.07062 14876
338.07361 3095
349.05573 5353
349.07095 5229
350.07507 1123
365.06503 4897
366.06934 1178
410.12231 86138
411.12546 18859
412.12885 3047
427.14664 6189
428.13705 5350
429.13989 1214
445.16086 8648
Name: cypermethrin
PrecursorMZ: 416.0813
PrecursorType: [M+H]+
IonMode: Positive
Formula: C22H19Cl2NO3
SMILES: CC1(C(C1C(=O)OC(C#N)C2=CC(=CC=C2)OC3=CC=CC=C3)C=C(Cl)Cl)C
InChI: 
InChIKey: KAATUXNTWXVJKI-UHFFFAOYSA-N
RetentionTime: 7.867583
CCS: 
CollisionEnergy: 20-40 eV
InstrumentType: UPLC-QTOF-MS
Comment: PI: Cristina Nerin; Data collector: QiZhi Su, GUIA, University of Zaragoza, Spain; Collision energy: 20-40 V; Instrument: Waters HPLC-QTOF-MS (Xevo G2 QTof); Ionization: ESI; Deconvoluted by MS-DIAL; Column: Waters AtlantisTM premier BEH C18 AX column (2.1 × 100mm x 1.7μm); Flow rate: 0.3mL/min; Mobile phase A and B are water and methnaol, respectively, both with 0.1% formic acid; Gradient elution: from A/B (95/5) to A/B (100/0) in 7min, kept for 4 min, then back to A/B (95/5) in 0.1 min, and maintained for additional 1.9 min (13min in total).; Injection volume: 10 μL
Num peaks: 742
50.15714 66
50.62741 71
50.92321 45
54.44211 114
55.01834 98
55.05417 206
55.05938 101
55.59136 55
56.72088 44
57.06744 185
57.07308 528
58.06935 52
59.0479 103
59.05189 153
60.08179 1063
63.57812 85
64.32983 47
64.61477 59
65.03927 166
66.0338 60
67.04899 59
67.05587 601
67.88345 53
67.93644 58
68.06052 167
69.03265 235
69.03727 193
69.07045 1207
70.07546 56
71.04807 147
71.08567 734
73.03122 173
73.04473 95
73.05064 89
73.06581 65
74.09371 59
74.09882 62
74.92877 101
75.02483 44
77.03501 87
77.03979 270
78.0423 68
79.05212 289
79.05907 448
80.02576 76
80.06302 64
81.03312 100
81.07114 1310
81.57589 130
82.06916 51
82.07374 66
83.04575 129
83.05211 141
83.08441 802
83.08929 387
83.81053 60
84.08842 173
84.80869 50
84.8729 99
84.96175 78
85.02779 244
85.06622 388
85.10085 467
85.10529 164
86.09427 71
86.1041 50
86.11082 53
86.94338 66
86.99652 155
87.04391 288
88.08691 203
89.05914 601
89.06355 1133
90.06189 45
91.05485 964
91.8765 60
92.05444 111
93.00303 60
93.03318 141
93.04208 44
93.06958 932
94.04271 51
94.07797 47
94.84537 100
95.04661 304
95.0523 113
95.08548 1458
95.09602 197
96.08073 44
96.08817 123
97.06594 601
97.10207 462
98.0706 52
98.1038 80
98.9819 91
99.04431 108
99.04886 48
99.07178 54
99.08192 75
100.11669 85
100.93022 48
100.94714 55
101.06206 100
102.01198 61
102.09328 49
102.94553 51
103.05408 65
105.06281 73
105.07108 494
106.07466 66
107.04967 260
107.07661 122
107.08412 851
108.00256 53
108.04702 72
108.08804 187
108.57876 50
108.97884 90
109.02315 207
109.03155 594
109.06053 294
109.06841 184
109.10028 772
110.10587 78
110.61242 45
111.00726 54
111.04088 193
111.04806 66
111.07319 57
111.07836 165
111.08565 79
111.11595 120
112.05397 73
112.99391 63
113.05806 50
113.09718 155
113.96688 76
115.04837 65
115.06446 63
115.07268 76
115.07918 50
115.10992 58
116.04943 54
117.06815 132
117.0847 125
117.09199 95
118.05109 66
118.08305 76
119.05094 94
119.07447 51
119.0854 504
119.09406 206
120.09085 159
121.05788 76
121.07028 155
121.09867 493
121.10466 586
123.04222 180
123.07054 45
123.08192 312
123.09793 59
123.1134 321
123.12099 236
124.08753 65
125.04824 146
125.092 194
125.1005 413
125.12551 91
126.02134 597
126.03604 80
127.02736 393
127.03674 55
127.04691 66
127.07893 119
128.02402 47
128.06395 159
129.02647 148
129.03694 101
129.06763 136
130.07619 98
130.16316 67
131.05116 64
131.07123 211
131.08594 190
133.0634 44
133.08643 822
133.10117 212
133.11011 64
133.61397 74
135.08054 151
135.11304 303
135.12161 128
135.12907 58
135.69267 46
136.09061 60
136.11958 97
137.0547 76
137.06245 102
137.08185 47
137.09505 279
137.10168 466
137.13147 164
137.13795 104
139.08089 62
139.1188 112
140.08197 44
141.07201 44
142.07343 66
142.93887 51
143.07788 88
143.08661 60
143.09598 48
145.04404 57
145.10289 377
147.07744 84
147.08395 101
147.10886 106
147.1192 171
148.00038 187
148.00713 302
148.08243 70
148.09161 71
149.02849 335
149.04037 65
149.09605 92
149.12019 87
149.13242 347
151.07518 86
151.10927 113
151.15036 110
152.06737 85
152.84747 117
152.992 212
153.00311 908
153.04916 78
153.06714 82
153.08459 51
153.12511 101
153.15955 113
153.55876 83
154.99594 123
155.06573 75
155.08546 72
155.1131 53
156.02718 91
156.03453 49
156.99722 878
157.0213 81
157.05338 46
157.08138 48
157.0972 152
157.10739 154
157.85339 47
157.99345 86
158.02673 44
158.1013 111
159.11507 301
160.09584 48
160.12207 68
160.9955 48
161.05371 68
161.09413 118
161.11757 148
161.13608 152
162.34911 54
163.01237 91
163.11002 85
163.11853 66
163.1452 309
163.1526 107
164.01108 57
164.05066 60
164.07584 45
164.08553 186
164.11606 85
165.0062 207
165.09747 223
165.12251 135
165.13768 60
166.06529 90
167.07138 154
167.08672 76
167.13966 94
168.06039 61
168.0731 64
168.0827 276
168.09254 117
169.08496 1563
169.09473 799
169.10066 311
169.12907 67
169.37314 102
169.63737 59
170.09476 225
171.07069 171
171.08849 98
171.10738 81
171.13379 63
172.11209 78
172.14197 113
173.10196 170
173.13388 200
174.10521 48
175.00351 95
175.0186 68
175.07361 147
175.10936 189
175.15266 152
176.03133 74
177.09564 124
177.11557 636
177.13597 124
177.16325 113
177.17088 114
178.11523 44
178.12856 61
178.88683 72
178.97191 44
179.08521 46
179.15138 60
179.98854 95
180.07135 71
180.08304 281
180.80081 47
181.06586 1371
181.07927 416
181.09547 75
181.12206 123
182.07135 248
182.07928 250
182.09018 56
183.00897 48
183.0717 131
183.10019 65
183.15172 125
184.076 51
185.00545 64
185.12407 50
185.1362 76
185.14458 51
186.14153 78
187.00705 45
187.11324 47
187.14696 105
188.14484 68
189.12392 55
189.1395 44
189.16588 235
190.03448 44
190.08835 60
190.16927 56
190.91974 53
190.99548 213
191.0045 542
191.07071 48
191.11006 72
191.13739 88
191.19394 75
192.00549 72
192.9996 332
193.01799 114
194.00862 51
194.1376 90
194.15945 53
195.09355 48
196.1015 64
197.05009 56
197.06003 77
197.60695 52
198.06036 98
198.07254 73
198.10397 57
198.21703 60
199.07455 52
199.0993 110
199.14969 174
200.10742 44
200.29573 77
200.98656 89
201.15056 47
201.16258 184
202.11218 49
202.1711 81
203.08578 62
203.17476 97
203.61551 54
205.08482 49
205.16621 60
207.03287 104
207.10759 44
208.03638 57
208.07178 1333
208.08202 368
208.62827 51
209.06984 123
209.08324 89
209.12355 51
209.18706 122
210.11798 103
210.99364 84
211.05791 60
211.10265 84
211.14827 48
213.0851 100
213.09941 101
213.15894 58
213.83681 50
214.10269 142
215.07439 72
215.10146 87
215.12871 114
215.14336 89
215.17967 582
216.14957 60
216.20921 67
217.07355 99
217.08653 44
217.15895 105
218.06802 86
219.17886 70
220.31123 60
221.15392 150
222.07971 46
223.0583 57
223.06898 91
223.16936 57
223.20094 200
223.21184 244
224.19516 56
224.20854 146
225.10535 66
225.15244 74
225.17307 67
226.07968 57
226.13924 138
227.00175 47
227.17644 148
227.20222 83
228.17236 72
229.1628 254
229.20126 121
230.20688 69
231.0376 70
231.14386 72
231.17763 44
233.08293 73
234.98981 61
235.02454 49
235.14853 61
236.03607 46
237.07219 120
237.11147 97
237.14655 51
237.21394 74
238.09669 48
239.12488 57
239.14079 65
239.1899 64
239.20667 84
240.14551 49
240.35149 85
241.09607 87
241.17131 59
241.20638 56
243.00539 435
243.09514 52
243.17033 62
244.00591 50
244.27432 60
244.99962 552
245.08409 46
245.10954 50
247.04605 69
247.20157 169
247.22597 103
248.08661 74
248.22353 49
248.96922 55
250.09744 164
251.10178 49
251.55107 174
253.13725 115
253.16168 61
255.15273 45
255.16576 56
255.21349 71
256.15915 50
256.99448 92
257.03241 44
257.18259 55
258.20044 60
259.06085 45
259.11288 89
260.15341 49
261.16339 53
261.22745 70
263.19769 91
265.14468 83
265.17004 52
265.19031 201
265.2066 90
265.55093 58
267.18118 184
267.20667 104
268.99774 68
269.0961 62
269.13907 101
270.8642 50
271.0376 77
271.14227 107
272.2037 45
273.03314 50
273.14169 107
273.22284 50
275.19196 85
276.05521 66
276.12231 356
277.20825 60
277.22018 84
279.22382 56
279.23807 68
280.27722 45
281.05621 285
281.17194 44
281.19226 66
282.05505 191
285.16968 56
287.25241 63
287.99191 66
289.05978 91
289.13443 47
289.21237 60
291.11548 49
291.22861 195
291.2467 144
292.09164 69
292.15057 45
293.16824 61
293.18338 55
293.19867 68
293.22198 142
294.25699 47
295.11005 91
295.19476 167
295.20648 78
295.52686 46
296.20352 112
296.29117 107
297.30005 86
298.34235 44
299.19836 56
300.10941 60
300.1344 178
301.116 57
301.14285 119
302.08276 44
305.20767 155
305.25073 154
305.30258 46
306.08514 48
306.25537 49
307.18237 105
307.21707 91
307.26334 48
308.16248 57
308.22717 71
308.30334 66
309.16275 45
309.20279 141
309.28485 128
309.94101 77
310.19937 53
310.22971 46
310.30066 176
310.32739 46
311.10486 76
311.19406 88
311.30005 47
312.11517 57
313.10428 135
316.15765 52
316.63721 67
317.21008 55
317.22067 56
317.2774 61
319.19559 72
321.0899 49
321.2308 53
321.27417 107
322.194 61
322.93613 47
323.17682 45
323.29886 71
324.23657 64
324.94278 59
324.99921 58
325.22519 147
326.2052 46
326.94141 59
326.96051 54
327.24664 89
327.32187 45
327.34265 112
329.19592 65
330.25055 120
331.21918 44
332.983 57
332.99634 137
334.26874 87
335.00208 137
335.17325 49
335.2496 144
335.26511 88
336.10471 65
337.19312 90
337.22696 53
337.25638 79
339.16489 51
339.25818 72
339.27429 168
340.25244 92
341.00836 52
341.02737 49
341.15378 49
341.23538 49
341.26553 151
343.0257 64
344.12747 44
344.14587 57
345.18988 57
345.24255 79
345.31934 113
347.19495 71
348.03973 52
348.1463 56
348.22107 46
349.22195 72
351.20435 77
351.2511 72
351.2641 52
352.95624 287
353.09399 62
353.21524 49
353.96161 136
354.08173 1562
354.09607 2352
354.93051 75
354.94336 75
354.95633 58
355.0701 316
355.09186 501
355.11066 205
356.06165 48
356.07858 236
356.1004 66
356.11697 106
357.08484 46
360.93063 72
362.16327 47
362.27405 91
364.99005 82
365.10843 77
365.20319 45
365.233 66
365.25131 49
367.19092 57
367.92581 51
368.164 82
368.23636 58
369.05957 107
369.68646 59
370.0228 48
371.19965 60
371.21756 88
371.2598 108
372.28973 60
372.68011 60
373.57443 47
375.27975 77
375.33267 45
376.00629 55
376.06485 312
376.07867 287
376.29166 48
376.56982 50
376.98346 48
377.01834 47
377.08563 257
378.02402 131
378.03806 78
378.97382 47
378.99411 44
379.12967 57
379.24515 75
379.26166 46
379.85046 108
381.12469 156
381.16162 159
381.21658 48
382.09659 86
382.10828 76
383.03922 69
383.09207 55
383.20978 125
385.28897 51
385.32159 100
389.25159 74
391.31808 51
392.04489 55
394.99405 4004
395.26175 62
395.27957 102
395.9928 529
396.99216 4342
397.07611 55
397.98996 1035
398.01364 234
398.04681 164
398.98166 155
399.25775 72
403.24429 116
403.29276 73
403.33585 50
404.20493 46
404.30069 87
404.88519 50
405.25192 71
405.2941 138
405.30984 60
405.3779 60
405.85703 46
407.22995 84
407.26178 49
408.20264 152
409.3302 46
410.27545 54
411.26776 54
414.11432 52
415.28888 197
415.3067 130
415.32919 62
416.06537 70
Name: cypermethrin
PrecursorMZ: 438.0649
PrecursorType: [M+Na]+
IonMode: Positive
Formula: C22H19Cl2NO3
SMILES: CC1(C(C1C(=O)OC(C#N)C2=CC(=CC=C2)OC3=CC=CC=C3)C=C(Cl)Cl)C
InChI: 
InChIKey: KAATUXNTWXVJKI-UHFFFAOYSA-N
RetentionTime: 7.867583
CCS: 
CollisionEnergy: 20-40 eV
InstrumentType: UPLC-QTOF-MS
Comment: PI: Cristina Nerin; Data collector: QiZhi Su, GUIA, University of Zaragoza, Spain; Collision energy: 20-40 V; Instrument: Waters HPLC-QTOF-MS (Xevo G2 QTof); Ionization: ESI; Deconvoluted by MS-DIAL; Column: Waters AtlantisTM premier BEH C18 AX column (2.1 × 100mm x 1.7μm); Flow rate: 0.3mL/min; Mobile phase A and B are water and methnaol, respectively, both with 0.1% formic acid; Gradient elution: from A/B (95/5) to A/B (100/0) in 7min, kept for 4 min, then back to A/B (95/5) in 0.1 min, and maintained for additional 1.9 min (13min in total).; Injection volume: 10 μL
Num peaks: 782
50.15714 66
50.62741 71
50.92321 45
54.44211 114
55.01834 98
55.05417 206
55.05938 101
55.59136 55
56.72088 44
57.06744 185
57.07308 528
58.06935 52
59.0479 103
59.05189 153
60.08179 1063
63.57812 85
64.32983 47
64.61477 59
65.03927 166
66.0338 60
67.04899 59
67.05587 601
67.88345 53
67.93644 58
68.06052 167
69.03265 235
69.03727 193
69.07045 1207
70.07546 56
71.04807 147
71.08567 734
73.03122 173
73.04473 95
73.05064 89
73.06581 65
74.09371 59
74.09882 62
74.92877 101
75.02483 44
77.03501 87
77.03979 270
78.0423 68
79.05212 289
79.05907 448
80.02576 76
80.06302 64
81.03312 100
81.07114 1310
81.57589 130
82.06916 51
82.07374 66
83.04575 129
83.05211 141
83.08441 802
83.08929 387
83.81053 60
84.08842 173
84.80869 50
84.8729 99
84.96175 78
85.02779 244
85.06622 388
85.10085 467
85.10529 164
86.09427 71
86.1041 50
86.11082 53
86.94338 66
86.99652 155
87.04391 288
88.08691 203
89.05914 601
89.06355 1133
90.06189 45
91.05485 964
91.8765 60
92.05444 111
93.00303 60
93.03318 141
93.04208 44
93.06958 932
94.04271 51
94.07797 47
94.84537 100
95.04661 304
95.0523 113
95.08548 1458
95.09602 197
96.08073 44
96.08817 123
97.06594 601
97.10207 462
98.0706 52
98.1038 80
98.9819 91
99.04431 108
99.04886 48
99.07178 54
99.08192 75
100.11669 85
100.93022 48
100.94714 55
101.06206 100
102.01198 61
102.09328 49
102.94553 51
103.05408 65
105.06281 73
105.07108 494
106.07466 66
107.04967 260
107.07661 122
107.08412 851
108.00256 53
108.04702 72
108.08804 187
108.57876 50
108.97884 90
109.02315 207
109.03155 594
109.06053 294
109.06841 184
109.10028 772
110.10587 78
110.61242 45
111.00726 54
111.04088 193
111.04806 66
111.07319 57
111.07836 165
111.08565 79
111.11595 120
112.05397 73
112.99391 63
113.05806 50
113.09718 155
113.96688 76
115.04837 65
115.06446 63
115.07268 76
115.07918 50
115.10992 58
116.04943 54
117.06815 132
117.0847 125
117.09199 95
118.05109 66
118.08305 76
119.05094 94
119.07447 51
119.0854 504
119.09406 206
120.09085 159
121.05788 76
121.07028 155
121.09867 493
121.10466 586
123.04222 180
123.07054 45
123.08192 312
123.09793 59
123.1134 321
123.12099 236
124.08753 65
125.04824 146
125.092 194
125.1005 413
125.12551 91
126.02134 597
126.03604 80
127.02736 393
127.03674 55
127.04691 66
127.07893 119
128.02402 47
128.06395 159
129.02647 148
129.03694 101
129.06763 136
130.07619 98
130.16316 67
131.05116 64
131.07123 211
131.08594 190
133.0634 44
133.08643 822
133.10117 212
133.11011 64
133.61397 74
135.08054 151
135.11304 303
135.12161 128
135.12907 58
135.69267 46
136.09061 60
136.11958 97
137.0547 76
137.06245 102
137.08185 47
137.09505 279
137.10168 466
137.13147 164
137.13795 104
139.08089 62
139.1188 112
140.08197 44
141.07201 44
142.07343 66
142.93887 51
143.07788 88
143.08661 60
143.09598 48
145.04404 57
145.10289 377
147.07744 84
147.08395 101
147.10886 106
147.1192 171
148.00038 187
148.00713 302
148.08243 70
148.09161 71
149.02849 335
149.04037 65
149.09605 92
149.12019 87
149.13242 347
151.07518 86
151.10927 113
151.15036 110
152.06737 85
152.84747 117
152.992 212
153.00311 908
153.04916 78
153.06714 82
153.08459 51
153.12511 101
153.15955 113
153.55876 83
154.99594 123
155.06573 75
155.08546 72
155.1131 53
156.02718 91
156.03453 49
156.99722 878
157.0213 81
157.05338 46
157.08138 48
157.0972 152
157.10739 154
157.85339 47
157.99345 86
158.02673 44
158.1013 111
159.11507 301
160.09584 48
160.12207 68
160.9955 48
161.05371 68
161.09413 118
161.11757 148
161.13608 152
162.34911 54
163.01237 91
163.11002 85
163.11853 66
163.1452 309
163.1526 107
164.01108 57
164.05066 60
164.07584 45
164.08553 186
164.11606 85
165.0062 207
165.09747 223
165.12251 135
165.13768 60
166.06529 90
167.07138 154
167.08672 76
167.13966 94
168.06039 61
168.0731 64
168.0827 276
168.09254 117
169.08496 1563
169.09473 799
169.10066 311
169.12907 67
169.37314 102
169.63737 59
170.09476 225
171.07069 171
171.08849 98
171.10738 81
171.13379 63
172.11209 78
172.14197 113
173.10196 170
173.13388 200
174.10521 48
175.00351 95
175.0186 68
175.07361 147
175.10936 189
175.15266 152
176.03133 74
177.09564 124
177.11557 636
177.13597 124
177.16325 113
177.17088 114
178.11523 44
178.12856 61
178.88683 72
178.97191 44
179.08521 46
179.15138 60
179.98854 95
180.07135 71
180.08304 281
180.80081 47
181.06586 1371
181.07927 416
181.09547 75
181.12206 123
182.07135 248
182.07928 250
182.09018 56
183.00897 48
183.0717 131
183.10019 65
183.15172 125
184.076 51
185.00545 64
185.12407 50
185.1362 76
185.14458 51
186.14153 78
187.00705 45
187.11324 47
187.14696 105
188.14484 68
189.12392 55
189.1395 44
189.16588 235
190.03448 44
190.08835 60
190.16927 56
190.91974 53
190.99548 213
191.0045 542
191.07071 48
191.11006 72
191.13739 88
191.19394 75
192.00549 72
192.9996 332
193.01799 114
194.00862 51
194.1376 90
194.15945 53
195.09355 48
196.1015 64
197.05009 56
197.06003 77
197.60695 52
198.06036 98
198.07254 73
198.10397 57
198.21703 60
199.07455 52
199.0993 110
199.14969 174
200.10742 44
200.29573 77
200.98656 89
201.15056 47
201.16258 184
202.11218 49
202.1711 81
203.08578 62
203.17476 97
203.61551 54
205.08482 49
205.16621 60
207.03287 104
207.10759 44
208.03638 57
208.07178 1333
208.08202 368
208.62827 51
209.06984 123
209.08324 89
209.12355 51
209.18706 122
210.11798 103
210.99364 84
211.05791 60
211.10265 84
211.14827 48
213.0851 100
213.09941 101
213.15894 58
213.83681 50
214.10269 142
215.07439 72
215.10146 87
215.12871 114
215.14336 89
215.17967 582
216.14957 60
216.20921 67
217.07355 99
217.08653 44
217.15895 105
218.06802 86
219.17886 70
220.31123 60
221.15392 150
222.07971 46
223.0583 57
223.06898 91
223.16936 57
223.20094 200
223.21184 244
224.19516 56
224.20854 146
225.10535 66
225.15244 74
225.17307 67
226.07968 57
226.13924 138
227.00175 47
227.17644 148
227.20222 83
228.17236 72
229.1628 254
229.20126 121
230.20688 69
231.0376 70
231.14386 72
231.17763 44
233.08293 73
234.98981 61
235.02454 49
235.14853 61
236.03607 46
237.07219 120
237.11147 97
237.14655 51
237.21394 74
238.09669 48
239.12488 57
239.14079 65
239.1899 64
239.20667 84
240.14551 49
240.35149 85
241.09607 87
241.17131 59
241.20638 56
243.00539 435
243.09514 52
243.17033 62
244.00591 50
244.27432 60
244.99962 552
245.08409 46
245.10954 50
247.04605 69
247.20157 169
247.22597 103
248.08661 74
248.22353 49
248.96922 55
250.09744 164
251.10178 49
251.55107 174
253.13725 115
253.16168 61
255.15273 45
255.16576 56
255.21349 71
256.15915 50
256.99448 92
257.03241 44
257.18259 55
258.20044 60
259.06085 45
259.11288 89
260.15341 49
261.16339 53
261.22745 70
263.19769 91
265.14468 83
265.17004 52
265.19031 201
265.2066 90
265.55093 58
267.18118 184
267.20667 104
268.99774 68
269.0961 62
269.13907 101
270.8642 50
271.0376 77
271.14227 107
272.2037 45
273.03314 50
273.14169 107
273.22284 50
275.19196 85
276.05521 66
276.12231 356
277.20825 60
277.22018 84
279.22382 56
279.23807 68
280.27722 45
281.05621 285
281.17194 44
281.19226 66
282.05505 191
285.16968 56
287.25241 63
287.99191 66
289.05978 91
289.13443 47
289.21237 60
291.11548 49
291.22861 195
291.2467 144
292.09164 69
292.15057 45
293.16824 61
293.18338 55
293.19867 68
293.22198 142
294.25699 47
295.11005 91
295.19476 167
295.20648 78
295.52686 46
296.20352 112
296.29117 107
297.30005 86
298.34235 44
299.19836 56
300.10941 60
300.1344 178
301.116 57
301.14285 119
302.08276 44
305.20767 155
305.25073 154
305.30258 46
306.08514 48
306.25537 49
307.18237 105
307.21707 91
307.26334 48
308.16248 57
308.22717 71
308.30334 66
309.16275 45
309.20279 141
309.28485 128
309.94101 77
310.19937 53
310.22971 46
310.30066 176
310.32739 46
311.10486 76
311.19406 88
311.30005 47
312.11517 57
313.10428 135
316.15765 52
316.63721 67
317.21008 55
317.22067 56
317.2774 61
319.19559 72
321.0899 49
321.2308 53
321.27417 107
322.194 61
322.93613 47
323.17682 45
323.29886 71
324.23657 64
324.94278 59
324.99921 58
325.22519 147
326.2052 46
326.94141 59
326.96051 54
327.24664 89
327.32187 45
327.34265 112
329.19592 65
330.25055 120
331.21918 44
332.983 57
332.99634 137
334.26874 87
335.00208 137
335.17325 49
335.2496 144
335.26511 88
336.10471 65
337.19312 90
337.22696 53
337.25638 79
339.16489 51
339.25818 72
339.27429 168
340.25244 92
341.00836 52
341.02737 49
341.15378 49
341.23538 49
341.26553 151
343.0257 64
344.12747 44
344.14587 57
345.18988 57
345.24255 79
345.31934 113
347.19495 71
348.03973 52
348.1463 56
348.22107 46
349.22195 72
351.20435 77
351.2511 72
351.2641 52
352.95624 287
353.09399 62
353.21524 49
353.96161 136
354.08173 1562
354.09607 2352
354.93051 75
354.94336 75
354.95633 58
355.0701 316
355.09186 501
355.11066 205
356.06165 48
356.07858 236
356.1004 66
356.11697 106
357.08484 46
360.93063 72
362.16327 47
362.27405 91
364.99005 82
365.10843 77
365.20319 45
365.233 66
365.25131 49
367.19092 57
367.92581 51
368.164 82
368.23636 58
369.05957 107
369.68646 59
370.0228 48
371.19965 60
371.21756 88
371.2598 108
372.28973 60
372.68011 60
373.57443 47
375.27975 77
375.33267 45
376.00629 55
376.06485 312
376.07867 287
376.29166 48
376.56982 50
376.98346 48
377.01834 47
377.08563 257
378.02402 131
378.03806 78
378.97382 47
378.99411 44
379.12967 57
379.24515 75
379.26166 46
379.85046 108
381.12469 156
381.16162 159
381.21658 48
382.09659 86
382.10828 76
383.03922 69
383.09207 55
383.20978 125
385.28897 51
385.32159 100
389.25159 74
391.31808 51
392.04489 55
394.99405 4004
395.26175 62
395.27957 102
395.9928 529
396.99216 4342
397.07611 55
397.98996 1035
398.01364 234
398.04681 164
398.98166 155
399.25775 72
403.24429 116
403.29276 73
403.33585 50
404.20493 46
404.30069 87
404.88519 50
405.25192 71
405.2941 138
405.30984 60
405.3779 60
405.85703 46
407.22995 84
407.26178 49
408.20264 152
409.3302 46
410.27545 54
411.26776 54
414.11432 52
415.28888 197
415.3067 130
415.32919 62
416.06537 70
418.23401 83
419.23013 46
419.2691 62
419.28641 72
420.05255 75
420.08701 45
421.05463 143
421.08728 154
421.19266 61
421.32913 77
422.13159 62
422.19241 71
423.07727 251
423.2775 110
425.22964 44
426.17374 52
427.28757 70
427.30707 61
428.28342 63
428.30826 55
429.23932 75
429.30887 55
430.10632 122
431.14758 57
432.39426 45
432.8537 50
433.08127 94
433.1124 58
433.18161 59
434.11487 50
435.19836 55
435.2897 56
435.34198 55
436.20685 50
436.29919 46
437.21136 82
437.29645 59
437.31345 62
438.05399 121
438.06943 102
Name: Thiocarbanilide
PrecursorMZ: 251.062
PrecursorType: [M+Na]+
IonMode: Positive
Formula: C13H12N2S
SMILES: C1=CC=C(C=C1)NC(=S)NC2=CC=CC=C2
InChI: 
InChIKey: FCSHMCFRCYZTRQ-UHFFFAOYSA-N
RetentionTime: 5.499063
CCS: 
CollisionEnergy: 20-40 eV
InstrumentType: UPLC-QTOF-MS
Comment: PI: Cristina Nerin; Data collector: QiZhi Su, GUIA, University of Zaragoza, Spain; Collision energy: 20-40 V; Instrument: Waters HPLC-QTOF-MS (Xevo G2 QTof); Ionization: ESI; Deconvoluted by MS-DIAL; Column: Waters AtlantisTM premier BEH C18 AX column (2.1 × 100mm x 1.7μm); Flow rate: 0.3mL/min; Mobile phase A and B are water and methnaol, respectively, both with 0.1% formic acid; Gradient elution: from A/B (95/5) to A/B (100/0) in 7min, kept for 4 min, then back to A/B (95/5) in 0.1 min, and maintained for additional 1.9 min (13min in total).; Injection volume: 10 μL
Num peaks: 25
77.01844 58837
77.03812 58366
78.04293 4066
78.04972 4052
84.95989 1839
84.96472 1841
84.97397 1860
92.05051 1492
92.06123 1491
94.04811 136017
94.0646 135711
95.05012 6792
95.0686 6616
95.08691 6518
108.9918 22975
109.01032 22844
136.02127 118816
136.04111 65548
137.02484 7596
138.01814 3733
138.02921 3735
195.09222 3248
195.10196 3094
229.06659 1887
229.08182 2019
Name: 2-Phenylindole
PrecursorMZ: 194.0971
PrecursorType: [M+H]+
IonMode: Positive
Formula: C14H11N
SMILES: C1=CC=C(C=C1)C2=CC3=CC=CC=C3N2
InChI: 
InChIKey: KLLLJCACIRKBDT-UHFFFAOYSA-N
RetentionTime: 6.940517
CCS: 
CollisionEnergy: 20-40 eV
InstrumentType: UPLC-QTOF-MS
Comment: PI: Cristina Nerin; Data collector: QiZhi Su, GUIA, University of Zaragoza, Spain; Collision energy: 20-40 V; Instrument: Waters HPLC-QTOF-MS (Xevo G2 QTof); Ionization: ESI; Deconvoluted by MS-DIAL; Column: Waters AtlantisTM premier BEH C18 AX column (2.1 × 100mm x 1.7μm); Flow rate: 0.3mL/min; Mobile phase A and B are water and methnaol, respectively, both with 0.1% formic acid; Gradient elution: from A/B (95/5) to A/B (100/0) in 7min, kept for 4 min, then back to A/B (95/5) in 0.1 min, and maintained for additional 1.9 min (13min in total).; Injection volume: 10 μL
Num peaks: 39
84.96127 451
89.0386 625
89.04505 606
90.04314 758
90.05007 752
90.05414 746
91.05413 1578
116.0315 2112
116.04317 2438
116.05006 2423
117.05919 2028
151.05968 301
151.07527 249
152.06219 2797
152.08093 2828
153.06918 412
165.0699 3829
166.06415 1447
166.07401 1574
166.08252 1577
167.08577 8492
168.07268 801
168.08759 1041
168.0975 1012
177.05119 367
177.06764 828
177.07751 821
178.05533 299
178.06769 457
178.082 431
179.06422 287
179.07309 273
179.08461 274
180.06702 267
180.08194 322
180.09834 244
192.08318 850
193.08908 9282
194.0965 24147
Name: "Tris(4-tert-butyl-3-hydroxy-2,6-dimethylbenzyl) isocyanurate"
PrecursorMZ: 700.4335
PrecursorType: [M+H]+
IonMode: Positive
Formula: C42H57N3O6
SMILES: CC1=CC(=C(C(=C1CN2C(=O)N(C(=O)N(C2=O)CC3=C(C(=C(C=C3C)C(C)(C)C)O)C)CC4=C(C(=C(C=C4C)C(C)(C)C)O)C)C)O)C(C)(C)C
InChI: 
InChIKey: XYXJKPCGSGVSBO-UHFFFAOYSA-N
RetentionTime: 8.47484
CCS: 
CollisionEnergy: 20-40 eV
InstrumentType: UPLC-QTOF-MS
Comment: PI: Cristina Nerin; Data collector: QiZhi Su, GUIA, University of Zaragoza, Spain; Collision energy: 20-40 V; Instrument: Waters HPLC-QTOF-MS (Xevo G2 QTof); Ionization: ESI; Deconvoluted by MS-DIAL; Column: Waters AtlantisTM premier BEH C18 AX column (2.1 × 100mm x 1.7μm); Flow rate: 0.3mL/min; Mobile phase A and B are water and methnaol, respectively, both with 0.1% formic acid; Gradient elution: from A/B (95/5) to A/B (100/0) in 7min, kept for 4 min, then back to A/B (95/5) in 0.1 min, and maintained for additional 1.9 min (13min in total).; Injection volume: 10 μL
Num peaks: 62
73.04642 59389
73.06097 58960
74.0474 4427
75.0246 609
75.03165 1700
75.04323 1733
89.03932 622
133.03305 1185
135.08067 1439
147.06505 43643
148.06721 4504
148.08601 4639
149.04633 7270
149.06628 4598
149.07872 1875
191.00119 2866
191.1432 18126
192.14694 2759
192.99037 610
193.00322 709
207.03197 17314
208.03429 1278
223.08714 2447
224.06978 1348
225.06325 777
241.05434 1394
248.99037 1850
249.99168 803
250.96942 2646
251.97275 860
252.96169 632
252.97755 613
266.9993 14307
267.99979 2359
270.01273 711
281.0513 44076
282.05157 3497
283.04938 2584
284.29538 1032
284.31128 734
313.08893 612
324.98685 3704
325.98785 906
326.96744 2616
328.96616 1406
341.01733 55624
342.0188 11976
343.0159 5651
344.01459 1291
353.04025 6052
354.04398 2015
371.10083 17223
372.10181 4928
373.09851 2652
399.08505 616
415.03763 5767
445.11905 4344
446.11978 1644
447.11832 883
603.44928 699
653.40344 762
681.21765 1353
Name: "Tris(4-tert-butyl-3-hydroxy-2,6-dimethylbenzyl) isocyanurate"
PrecursorMZ: 722.416
PrecursorType: [M+Na]+
IonMode: Positive
Formula: C42H57N3O6
SMILES: CC1=CC(=C(C(=C1CN2C(=O)N(C(=O)N(C2=O)CC3=C(C(=C(C=C3C)C(C)(C)C)O)C)CC4=C(C(=C(C=C4C)C(C)(C)C)O)C)C)O)C(C)(C)C
InChI: 
InChIKey: XYXJKPCGSGVSBO-UHFFFAOYSA-N
RetentionTime: 8.492517
CCS: 
CollisionEnergy: 20-40 eV
InstrumentType: UPLC-QTOF-MS
Comment: PI: Cristina Nerin; Data collector: QiZhi Su, GUIA, University of Zaragoza, Spain; Collision energy: 20-40 V; Instrument: Waters HPLC-QTOF-MS (Xevo G2 QTof); Ionization: ESI; Deconvoluted by MS-DIAL; Column: Waters AtlantisTM premier BEH C18 AX column (2.1 × 100mm x 1.7μm); Flow rate: 0.3mL/min; Mobile phase A and B are water and methnaol, respectively, both with 0.1% formic acid; Gradient elution: from A/B (95/5) to A/B (100/0) in 7min, kept for 4 min, then back to A/B (95/5) in 0.1 min, and maintained for additional 1.9 min (13min in total).; Injection volume: 10 μL
Num peaks: 95
73.0462 37448
74.04701 2405
74.05309 2421
74.06307 2433
75.02814 1005
75.04418 1139
75.05397 1150
75.06007 1163
89.04246 628
89.06006 610
132.99469 514
133.01114 434
133.01862 494
133.04951 785
135.06712 872
135.08072 630
147.06514 4515
148.06688 589
149.04599 580
149.06328 751
163.05994 18582
164.06165 1903
164.0759 1948
165.05484 857
165.06448 883
191.00029 2488
191.00798 2488
191.14253 12217
192.14801 1525
193.00574 420
193.01733 493
205.04439 397
205.05658 419
207.03244 6774
207.06847 3363
208.03424 671
208.07649 399
209.02322 519
209.03738 638
209.05334 814
209.07124 478
223.02478 506
223.09422 1335
237.07913 18910
238.08076 3243
239.07835 1711
250.96815 4270
251.96964 504
252.95906 455
252.97154 479
266.99933 30202
268.00034 6760
268.99783 3993
269.99927 513
284.28897 945
284.30505 830
293.02802 445
293.03989 418
311.09998 2663
312.1008 419
324.98798 957
341.01733 6979
342.01813 1720
343.01617 1610
355.06866 18369
356.07004 6318
357.06693 3788
358.06842 475
371.10065 2558
372.10199 555
373.1171 928
400.97162 1278
400.98447 1300
416.05801 706
441.07278 546
532.27771 471
548.25568 600
647.16412 24567
648.16388 12692
649.16223 9344
650.13916 489
650.16608 2385
651.15106 848
663.12634 1693
663.15674 925
664.13947 988
665.12915 638
700.41626 613
719.38397 1262
719.40942 1853
719.90411 1607
720.38812 382
720.4187 649
722.41016 4009
722.43701 1448
Name: Thiocarbanilide
PrecursorMZ: 229.0802
PrecursorType: [M+H]+
IonMode: Positive
Formula: C13H12N2S
SMILES: C1=CC=C(C=C1)NC(=S)NC2=CC=CC=C2
InChI: 
InChIKey: FCSHMCFRCYZTRQ-UHFFFAOYSA-N
RetentionTime: 5.497927
CCS: 
CollisionEnergy: 20-40 eV
InstrumentType: UPLC-QTOF-MS
Comment: PI: Cristina Nerin; Data collector: QiZhi Su, GUIA, University of Zaragoza, Spain; Collision energy: 20-40 V; Instrument: Waters HPLC-QTOF-MS (Xevo G2 QTof); Ionization: ESI; Deconvoluted by MS-DIAL; Column: Waters AtlantisTM premier BEH C18 AX column (2.1 × 100mm x 1.7μm); Flow rate: 0.3mL/min; Mobile phase A and B are water and methnaol, respectively, both with 0.1% formic acid; Gradient elution: from A/B (95/5) to A/B (100/0) in 7min, kept for 4 min, then back to A/B (95/5) in 0.1 min, and maintained for additional 1.9 min (13min in total).; Injection volume: 10 μL
Num peaks: 21
77.03844 17516
78.03831 1348
78.04478 1342
78.05707 1339
84.96041 482
84.96973 478
92.05096 597
94.06496 43348
95.05077 1972
95.06828 2073
95.08458 1976
108.99166 6481
109.0109 6367
136.02147 37481
137.02591 2115
138.00455 892
138.01666 1040
138.02592 1013
195.08501 1453
195.09453 1405
229.07565 517
Name: "3,4-Diacetoxy-1-butene"
PrecursorMZ: 195.063
PrecursorType: [M+Na]+
IonMode: Positive
Formula: C8H12O4
SMILES: CC(=O)OCC(C=C)OC(=O)C
InChI: 
InChIKey: MWWXARALRVYLAE-UHFFFAOYSA-N
RetentionTime: 4.586833
CCS: 
CollisionEnergy: 20-40 eV
InstrumentType: UPLC-QTOF-MS
Comment: PI: Cristina Nerin; Data collector: QiZhi Su, GUIA, University of Zaragoza, Spain; Collision energy: 20-40 V; Instrument: Waters HPLC-QTOF-MS (Xevo G2 QTof); Ionization: ESI; Deconvoluted by MS-DIAL; Column: Waters AtlantisTM premier BEH C18 AX column (2.1 × 100mm x 1.7μm); Flow rate: 0.3mL/min; Mobile phase A and B are water and methnaol, respectively, both with 0.1% formic acid; Gradient elution: from A/B (95/5) to A/B (100/0) in 7min, kept for 4 min, then back to A/B (95/5) in 0.1 min, and maintained for additional 1.9 min (13min in total).; Injection volume: 10 μL
Num peaks: 45
54.98257 83
56.96231 95
58.06413 1513
65.03671 93
69.0687 71
70.01745 105
71.04996 541
72.52654 75
73.04488 100
73.05016 76
78.98076 72
81.07026 68
82.98248 138
84.95654 173
84.9632 340
91.05646 69
92.05201 233
92.0594 109
95.08601 92
96.99799 83
98.97521 3675
108.99577 159
109.00291 90
109.09969 103
109.10644 102
111.03835 74
112.99564 102
113.06123 644
123.00925 76
123.1181 140
124.98945 78
127.00951 87
132.9987 69
140.14378 6627
141.14667 504
144.98309 114
151.00661 99
151.44948 93
152.98657 77
155.04196 124
159.00562 97
168.99516 93
169.01436 121
187.59802 71
194.02371 69
Name: "3,4-Diacetoxy-1-butene"
PrecursorMZ: 211.0287
PrecursorType: [M+K]+
IonMode: Positive
Formula: C8H12O4
SMILES: CC(=O)OCC(C=C)OC(=O)C
InChI: 
InChIKey: MWWXARALRVYLAE-UHFFFAOYSA-N
RetentionTime: 4.586833
CCS: 
CollisionEnergy: 20-40 eV
InstrumentType: UPLC-QTOF-MS
Comment: PI: Cristina Nerin; Data collector: QiZhi Su, GUIA, University of Zaragoza, Spain; Collision energy: 20-40 V; Instrument: Waters HPLC-QTOF-MS (Xevo G2 QTof); Ionization: ESI; Deconvoluted by MS-DIAL; Column: Waters AtlantisTM premier BEH C18 AX column (2.1 × 100mm x 1.7μm); Flow rate: 0.3mL/min; Mobile phase A and B are water and methnaol, respectively, both with 0.1% formic acid; Gradient elution: from A/B (95/5) to A/B (100/0) in 7min, kept for 4 min, then back to A/B (95/5) in 0.1 min, and maintained for additional 1.9 min (13min in total).; Injection volume: 10 μL
Num peaks: 47
54.98257 83
56.96231 95
58.06413 1513
65.03671 93
69.0687 71
70.01745 105
71.04996 541
72.52654 75
73.04488 100
73.05016 76
78.98076 72
81.07026 68
82.98248 138
84.95654 173
84.9632 340
91.05646 69
92.05201 233
92.0594 109
95.08601 92
96.99799 83
98.97521 3675
108.99577 159
109.00291 90
109.09969 103
109.10644 102
111.03835 74
112.99564 102
113.06123 644
123.00925 76
123.1181 140
124.98945 78
127.00951 87
132.9987 69
140.14378 6627
141.14667 504
144.98309 114
151.00661 99
151.44948 93
152.98657 77
155.04196 124
159.00562 97
168.99516 93
169.01436 121
187.59802 71
194.02371 69
207.03264 127
211.02594 342
Name: "N,N'-(Hexane-1,6-diyl)bis(N-(2,2,6,6-tetramethylpiperidin-4-yl)formamide)"
PrecursorMZ: 451.4027
PrecursorType: [M+H]+
IonMode: Positive
Formula: C26H50N4O2
SMILES: CC1(CC(CC(N1)(C)C)N(CCCCCCN(C=O)C2CC(NC(C2)(C)C)(C)C)C=O)C
InChI: 
InChIKey: UONLDZHKYCFZRW-UHFFFAOYSA-N
RetentionTime: 0.8518667
CCS: 
CollisionEnergy: 20-40 eV
InstrumentType: UPLC-QTOF-MS
Comment: PI: Cristina Nerin; Data collector: QiZhi Su, GUIA, University of Zaragoza, Spain; Collision energy: 20-40 V; Instrument: Waters HPLC-QTOF-MS (Xevo G2 QTof); Ionization: ESI; Deconvoluted by MS-DIAL; Column: Waters AtlantisTM premier BEH C18 AX column (2.1 × 100mm x 1.7μm); Flow rate: 0.3mL/min; Mobile phase A and B are water and methnaol, respectively, both with 0.1% formic acid; Gradient elution: from A/B (95/5) to A/B (100/0) in 7min, kept for 4 min, then back to A/B (95/5) in 0.1 min, and maintained for additional 1.9 min (13min in total).; Injection volume: 10 μL
Num peaks: 45
58.06456 59991
58.07704 59986
67.05346 9475
69.05467 4894
79.05417 6263
81.05289 102864
81.06945 102832
82.07229 5278
83.07164 12382
83.08527 12401
84.08043 23663
84.0969 23662
85.0646 29070
95.08482 16589
98.07991 21239
98.09608 20592
100.11262 6227
112.09252 5145
123.11653 149175
124.11935 13678
125.11965 7868
126.091 20411
126.12739 7967
139.11699 11714
140.14284 52809
145.1335 7034
153.11475 30297
153.61607 6070
166.15891 24548
183.18478 7904
189.65903 21297
190.16026 5529
193.16992 24550
209.20212 8524
211.18044 126611
212.18385 15131
284.27097 6711
310.28683 5588
312.26453 37811
313.2692 5661
350.31622 26625
351.31998 5021
423.40631 6374
434.37219 4908
451.39957 488612
Name: "4,4'-Methylenebis(3-chloro-2,6-diethylaniline)"
PrecursorMZ: 757.3326
PrecursorType: [2M+H]+
IonMode: Positive
Formula: C21H28Cl2N2
SMILES: CCC1=CC(=C(C(=C1N)CC)Cl)CC2=C(C(=C(C(=C2)CC)N)CC)Cl
InChI: 
InChIKey: VIOMIGLBMQVNLY-UHFFFAOYSA-N
RetentionTime: 7.738033
CCS: 
CollisionEnergy: 20-40 eV
InstrumentType: UPLC-QTOF-MS
Comment: PI: Cristina Nerin; Data collector: QiZhi Su, GUIA, University of Zaragoza, Spain; Collision energy: 20-40 V; Instrument: Waters HPLC-QTOF-MS (Xevo G2 QTof); Ionization: ESI; Deconvoluted by MS-DIAL; Column: Waters AtlantisTM premier BEH C18 AX column (2.1 × 100mm x 1.7μm); Flow rate: 0.3mL/min; Mobile phase A and B are water and methnaol, respectively, both with 0.1% formic acid; Gradient elution: from A/B (95/5) to A/B (100/0) in 7min, kept for 4 min, then back to A/B (95/5) in 0.1 min, and maintained for additional 1.9 min (13min in total).; Injection volume: 10 μL
Num peaks: 36
128.0618 17901
129.06915 16196
143.08533 8742
144.0921 10905
146.0968 11898
151.01201 8985
151.03111 8768
179.06229 200011
180.06218 38687
181.06155 94686
182.06335 14944
196.08905 744669
197.09227 89190
198.08623 230677
199.08971 22112
262.15894 30997
263.16367 15270
268.08929 12687
270.08136 12299
270.10135 12295
282.10611 8730
284.11475 8500
297.12735 10103
298.13474 24366
299.13571 10091
327.17349 8576
363.13904 20054
365.13678 11404
377.15356 23449
379.16934 824177
379.36395 11677
380.17252 178103
381.16675 535883
382.16977 106875
383.16531 83789
384.16812 15177
Name: "N,N'-(Hexane-1,6-diyl)bis(N-(2,2,6,6-tetramethylpiperidin-4-yl)formamide)"
PrecursorMZ: 901.7966
PrecursorType: [2M+H]+
IonMode: Positive
Formula: C26H50N4O2
SMILES: CC1(CC(CC(N1)(C)C)N(CCCCCCN(C=O)C2CC(NC(C2)(C)C)(C)C)C=O)C
InChI: 
InChIKey: UONLDZHKYCFZRW-UHFFFAOYSA-N
RetentionTime: 0.8518667
CCS: 
CollisionEnergy: 20-40 eV
InstrumentType: UPLC-QTOF-MS
Comment: PI: Cristina Nerin; Data collector: QiZhi Su, GUIA, University of Zaragoza, Spain; Collision energy: 20-40 V; Instrument: Waters HPLC-QTOF-MS (Xevo G2 QTof); Ionization: ESI; Deconvoluted by MS-DIAL; Column: Waters AtlantisTM premier BEH C18 AX column (2.1 × 100mm x 1.7μm); Flow rate: 0.3mL/min; Mobile phase A and B are water and methnaol, respectively, both with 0.1% formic acid; Gradient elution: from A/B (95/5) to A/B (100/0) in 7min, kept for 4 min, then back to A/B (95/5) in 0.1 min, and maintained for additional 1.9 min (13min in total).; Injection volume: 10 μL
Num peaks: 49
58.06456 59991
58.07704 59986
67.05346 9470
69.05467 4900
69.06967 4874
79.05417 6274
81.05289 102850
81.06945 102794
82.07229 5274
83.07164 12393
83.08527 12407
84.08043 23655
84.0969 23654
85.0646 29055
95.08482 16575
98.07991 21231
98.09608 20588
100.11262 6225
112.09252 5149
123.11653 149120
124.11935 13675
125.11965 7868
126.091 20405
126.12739 7977
139.11699 11707
140.14284 52804
145.1335 7034
153.11475 30292
153.61607 6068
166.15891 24533
183.18478 7912
189.65903 21281
190.16026 5533
193.16992 24535
194.16986 4814
209.20212 8524
211.18044 126571
212.18385 15125
284.27097 6711
310.28683 5589
312.26453 37800
313.2692 5660
350.31622 26626
351.31998 5022
423.40631 6375
434.37219 4909
451.39957 477381
452.40292 129896
453.40701 15037
Name: "4,4'-Methylenebis(3-chloro-2,6-diethylaniline)"
PrecursorMZ: 379.1711
PrecursorType: [M+H]+
IonMode: Positive
Formula: C21H28Cl2N2
SMILES: CCC1=CC(=C(C(=C1N)CC)Cl)CC2=C(C(=C(C(=C2)CC)N)CC)Cl
InChI: 
InChIKey: VIOMIGLBMQVNLY-UHFFFAOYSA-N
RetentionTime: 7.74565
CCS: 
CollisionEnergy: 20-40 eV
InstrumentType: UPLC-QTOF-MS
Comment: PI: Cristina Nerin; Data collector: QiZhi Su, GUIA, University of Zaragoza, Spain; Collision energy: 20-40 V; Instrument: Waters HPLC-QTOF-MS (Xevo G2 QTof); Ionization: ESI; Deconvoluted by MS-DIAL; Column: Waters AtlantisTM premier BEH C18 AX column (2.1 × 100mm x 1.7μm); Flow rate: 0.3mL/min; Mobile phase A and B are water and methnaol, respectively, both with 0.1% formic acid; Gradient elution: from A/B (95/5) to A/B (100/0) in 7min, kept for 4 min, then back to A/B (95/5) in 0.1 min, and maintained for additional 1.9 min (13min in total).; Injection volume: 10 μL
Num peaks: 29
128.06134 17959
129.06912 16206
143.08546 8750
144.09195 10917
146.09616 11894
151.03085 8787
179.06207 200630
180.0621 38729
181.06126 94797
182.063 14966
196.08881 745420
197.09152 89282
198.08582 230965
199.08931 22138
262.1586 31140
263.1636 15280
268.08939 12732
270.10004 12310
282.1051 8770
284.11295 8479
297.12659 10111
298.13449 24392
299.13513 10077
327.17166 8627
363.13882 20076
365.13684 11408
377.15363 23474
379.16873 840246
379.36371 12011
Name: "N,N'-(Hexane-1,6-diyl)bis(N-(2,2,6,6-tetramethylpiperidin-4-yl)formamide)"
PrecursorMZ: 451.4035
PrecursorType: [M+H]+
IonMode: Positive
Formula: C26H50N4O2
SMILES: CC1(CC(CC(N1)(C)C)N(CCCCCCN(C=O)C2CC(NC(C2)(C)C)(C)C)C=O)C
InChI: 
InChIKey: UONLDZHKYCFZRW-UHFFFAOYSA-N
RetentionTime: 1.427267
CCS: 
CollisionEnergy: 20-40 eV
InstrumentType: UPLC-QTOF-MS
Comment: PI: Cristina Nerin; Data collector: QiZhi Su, GUIA, University of Zaragoza, Spain; Collision energy: 20-40 V; Instrument: Waters HPLC-QTOF-MS (Xevo G2 QTof); Ionization: ESI; Deconvoluted by MS-DIAL; Column: Waters AtlantisTM premier BEH C18 AX column (2.1 × 100mm x 1.7μm); Flow rate: 0.3mL/min; Mobile phase A and B are water and methnaol, respectively, both with 0.1% formic acid; Gradient elution: from A/B (95/5) to A/B (100/0) in 7min, kept for 4 min, then back to A/B (95/5) in 0.1 min, and maintained for additional 1.9 min (13min in total).; Injection volume: 10 μL
Num peaks: 133
55.0545 422
55.06201 422
57.06861 330
58.06541 5717
59.06775 250
67.05485 678
69.06434 665
69.07164 668
69.08956 258
70.06342 164
70.07484 159
79.04916 602
79.05659 601
81.05531 9876
81.07017 9862
82.06248 583
82.0737 632
82.08288 587
83.08122 1179
83.08654 1175
84.08102 2304
84.08693 2303
84.09774 2344
85.06556 2693
85.08305 2836
86.05905 209
86.06705 215
86.07361 216
93.05489 238
93.06609 275
93.07373 271
94.06199 281
94.06924 295
94.07722 295
95.08313 1570
95.08881 1565
95.09749 1565
96.08318 331
96.08955 331
96.09621 333
98.09388 1986
98.09831 1983
100.10801 592
100.11356 592
100.12233 594
110.09238 583
110.09981 582
110.10962 541
112.07247 152
112.07752 250
112.08786 369
112.09743 545
112.10956 485
112.11555 412
112.12645 267
121.09531 235
121.10315 229
123.11731 14884
124.12019 1150
124.13467 1104
125.11848 993
125.12507 989
125.6142 174
125.62317 174
126.09216 1857
126.10995 2697
126.12914 875
128.10106 335
128.11119 335
138.12506 260
138.13669 255
139.11842 1375
139.60791 265
139.61958 262
140.14455 3155
141.14742 286
145.12924 682
145.1387 683
153.11665 3733
153.61678 833
153.63255 677
166.16112 2187
167.14796 311
167.1564 332
167.16335 329
167.17166 321
171.13708 379
171.15263 401
173.12668 233
175.66013 555
175.66858 553
176.16093 181
176.17123 180
183.18245 744
183.19798 734
189.65904 2613
189.67532 2547
190.15955 693
193.17296 2054
194.15376 471
194.17313 543
209.1944 783
209.20625 769
211.18169 13237
212.18538 1468
221.1458 226
221.16502 375
221.17531 362
226.19736 349
226.2095 349
237.19258 232
237.21107 231
239.17744 496
239.19287 383
284.27225 417
294.26031 238
295.23434 185
295.24921 193
310.28369 327
310.29822 271
312.26526 2471
312.2854 1843
313.25204 226
313.27557 342
338.27948 286
350.30164 420
350.31647 806
350.3317 733
351.31387 219
351.33011 185
423.40808 193
434.37738 196
451.40341 13747
Name: 4-(4-morpholinyl)benzaldehyde
PrecursorMZ: 192.103
PrecursorType: [M+H]+
IonMode: Positive
Formula: C11H13NO2
SMILES: C1COCCN1C2=CC=C(C=C2)C=O
InChI: 
InChIKey: FOAQOAXQMISINY-UHFFFAOYSA-N
RetentionTime: 4.849383
CCS: 
CollisionEnergy: 20-40 eV
InstrumentType: UPLC-QTOF-MS
Comment: PI: Cristina Nerin; Data collector: QiZhi Su, GUIA, University of Zaragoza, Spain; Collision energy: 20-40 V; Instrument: Waters HPLC-QTOF-MS (Xevo G2 QTof); Ionization: ESI; Deconvoluted by MS-DIAL; Column: Waters AtlantisTM premier BEH C18 AX column (2.1 × 100mm x 1.7μm); Flow rate: 0.3mL/min; Mobile phase A and B are water and methnaol, respectively, both with 0.1% formic acid; Gradient elution: from A/B (95/5) to A/B (100/0) in 7min, kept for 4 min, then back to A/B (95/5) in 0.1 min, and maintained for additional 1.9 min (13min in total).; Injection volume: 10 μL
Num peaks: 49
77.03817 14857
77.05373 14865
78.02748 1882
78.04426 1897
78.05634 1869
79.05416 6392
91.05373 18374
92.0366 2878
92.05176 3845
92.06078 3867
93.05497 4406
93.06217 4358
93.07129 4364
94.05535 1805
94.0649 1751
103.05424 11106
104.05031 10413
104.06687 10497
105.03818 30628
105.05731 30345
106.065 8371
106.0821 8528
117.05731 4724
118.0649 39227
119.07229 23259
120.08041 98247
121.06415 1531
121.08446 7851
130.06438 2860
130.07829 2878
131.07234 4553
132.02621 1080
132.04459 1296
132.05719 1288
132.08165 5999
133.04814 1461
133.05638 1456
134.05066 1132
134.06221 1181
134.09633 1112
146.09743 4113
148.07608 9170
162.09219 4021
163.09898 4582
164.10666 8750
189.06261 1054
190.08519 2269
191.09465 1470
192.10184 100102
Name: "3,5-Bis(1,1-dimethylethyl)-4-hydroxybenzenepropanoic acid thiodi-2,1-ethanediyl ester"
PrecursorMZ: 665.3846
PrecursorType: [M+Na]+
IonMode: Positive
Formula: C38H58O6S
SMILES: CC(C)(C)C1=CC(=CC(=C1O)C(C)(C)C)CCC(=O)OCCSCCOC(=O)CCC2=CC(=C(C(=C2)C(C)(C)C)O)C(C)(C)C
InChI: 
InChIKey: VFBJXXJYHWLXRM-UHFFFAOYSA-N
RetentionTime: 8.43895
CCS: 
CollisionEnergy: 20-40 eV
InstrumentType: UPLC-QTOF-MS
Comment: PI: Cristina Nerin; Data collector: QiZhi Su, GUIA, University of Zaragoza, Spain; Collision energy: 20-40 V; Instrument: Waters HPLC-QTOF-MS (Xevo G2 QTof); Ionization: ESI; Deconvoluted by MS-DIAL; Column: Waters AtlantisTM premier BEH C18 AX column (2.1 × 100mm x 1.7μm); Flow rate: 0.3mL/min; Mobile phase A and B are water and methnaol, respectively, both with 0.1% formic acid; Gradient elution: from A/B (95/5) to A/B (100/0) in 7min, kept for 4 min, then back to A/B (95/5) in 0.1 min, and maintained for additional 1.9 min (13min in total).; Injection volume: 10 μL
Num peaks: 38
57.06 740
57.07042 745
57.07911 747
133.06441 9109
133.08421 10222
175.07558 813
193.08687 13590
194.08705 1217
194.0954 1225
219.17706 1500
231.13414 1265
231.1418 1276
249.14912 34543
250.15382 4019
253.0903 803
293.03809 621
309.15283 13746
310.14856 1779
310.1633 1735
311.15485 611
317.14331 1740
441.07159 623
456.20166 701
456.21796 747
625.27271 624
625.29706 741
647.1673 4999
648.16925 2274
649.1579 900
660.42456 843
662.37488 25409
662.87671 21203
663.13361 566
663.37909 10977
663.86011 2072
663.88293 3890
664.38342 1293
665.383 56442
Name: 4-methylbenzophenone
PrecursorMZ: 197.0984
PrecursorType: [M+H]+
IonMode: Positive
Formula: C14H12O
SMILES: CC1=CC=C(C=C1)C(=O)C2=CC=CC=C2
InChI: 
InChIKey: WXPWZZHELZEVPO-UHFFFAOYSA-N
RetentionTime: 6.85385
CCS: 
CollisionEnergy: 20-40 eV
InstrumentType: UPLC-QTOF-MS
Comment: PI: Cristina Nerin; Data collector: QiZhi Su, GUIA, University of Zaragoza, Spain; Collision energy: 20-40 V; Instrument: Waters HPLC-QTOF-MS (Xevo G2 QTof); Ionization: ESI; Deconvoluted by MS-DIAL; Column: Waters AtlantisTM premier BEH C18 AX column (2.1 × 100mm x 1.7μm); Flow rate: 0.3mL/min; Mobile phase A and B are water and methnaol, respectively, both with 0.1% formic acid; Gradient elution: from A/B (95/5) to A/B (100/0) in 7min, kept for 4 min, then back to A/B (95/5) in 0.1 min, and maintained for additional 1.9 min (13min in total).; Injection volume: 10 μL
Num peaks: 14
65.03891 4918
77.03796 215221
78.04166 10235
91.05376 164843
92.04247 9396
92.05707 9386
105.0332 456529
105.05292 456281
106.03616 28937
118.02416 27880
119.04873 196710
120.05187 13867
127.02966 13039
197.09645 4666
Name: 4-methylbenzophenone
PrecursorMZ: 219.0788
PrecursorType: [M+Na]+
IonMode: Positive
Formula: C14H12O
SMILES: CC1=CC=C(C=C1)C(=O)C2=CC=CC=C2
InChI: 
InChIKey: WXPWZZHELZEVPO-UHFFFAOYSA-N
RetentionTime: 6.85385
CCS: 
CollisionEnergy: 20-40 eV
InstrumentType: UPLC-QTOF-MS
Comment: PI: Cristina Nerin; Data collector: QiZhi Su, GUIA, University of Zaragoza, Spain; Collision energy: 20-40 V; Instrument: Waters HPLC-QTOF-MS (Xevo G2 QTof); Ionization: ESI; Deconvoluted by MS-DIAL; Column: Waters AtlantisTM premier BEH C18 AX column (2.1 × 100mm x 1.7μm); Flow rate: 0.3mL/min; Mobile phase A and B are water and methnaol, respectively, both with 0.1% formic acid; Gradient elution: from A/B (95/5) to A/B (100/0) in 7min, kept for 4 min, then back to A/B (95/5) in 0.1 min, and maintained for additional 1.9 min (13min in total).; Injection volume: 10 μL
Num peaks: 19
65.03891 4916
77.03796 215143
78.04166 10230
91.05376 164831
92.04247 9397
92.05707 9387
105.0332 456650
105.05292 456389
106.03616 28922
118.02416 27880
119.04873 196723
120.05187 13871
127.02966 13039
208.08099 8290
216.06908 294622
216.57104 84822
217.07162 15768
218.05002 6304
218.06738 6252
Name: 2-Methoxy-5-methylaniline
PrecursorMZ: 138.0916
PrecursorType: [M+H]+
IonMode: Positive
Formula: C8H11NO
SMILES: CC1=CC(=C(C=C1)OC)N
InChI: 
InChIKey: WXWCDTXEKCVRRO-UHFFFAOYSA-N
RetentionTime: 0.8772944
CCS: 
CollisionEnergy: 20-40 eV
InstrumentType: UPLC-QTOF-MS
Comment: PI: Cristina Nerin; Data collector: QiZhi Su, GUIA, University of Zaragoza, Spain; Collision energy: 20-40 V; Instrument: Waters HPLC-QTOF-MS (Xevo G2 QTof); Ionization: ESI; Deconvoluted by MS-DIAL; Column: Waters AtlantisTM premier BEH C18 AX column (2.1 × 100mm x 1.7μm); Flow rate: 0.3mL/min; Mobile phase A and B are water and methnaol, respectively, both with 0.1% formic acid; Gradient elution: from A/B (95/5) to A/B (100/0) in 7min, kept for 4 min, then back to A/B (95/5) in 0.1 min, and maintained for additional 1.9 min (13min in total).; Injection volume: 10 μL
Num peaks: 35
77.03823 631
78.0453 864
78.04977 869
79.03302 152
79.05483 459
80.05101 488
80.06038 488
92.04745 81
92.05482 81
93.05207 122
93.06039 83
94.06026 347
94.06647 349
106.03367 244
106.04218 296
106.04881 1098
106.06515 993
107.0506 290
107.06676 294
107.07431 247
107.08622 174
120.08067 365
122.0615 1599
122.08014 1250
123.06782 8049
123.07924 8060
124.02259 780
124.05654 457
124.06673 476
124.07531 475
130.0502 102
130.06133 211
130.07083 210
138.08237 120
138.09326 636
Name: "4,4-Methylenedianiline"
PrecursorMZ: 199.1234
PrecursorType: [M+H]+
IonMode: Positive
Formula: C13H14N2
SMILES: C1=CC(=CC=C1CC2=CC=C(C=C2)N)N
InChI: 
InChIKey: YBRVSVVVWCFQMG-UHFFFAOYSA-N
RetentionTime: 0.7415
CCS: 
CollisionEnergy: 20-40 eV
InstrumentType: UPLC-QTOF-MS
Comment: PI: Cristina Nerin; Data collector: QiZhi Su, GUIA, University of Zaragoza, Spain; Collision energy: 20-40 V; Instrument: Waters HPLC-QTOF-MS (Xevo G2 QTof); Ionization: ESI; Deconvoluted by MS-DIAL; Column: Waters AtlantisTM premier BEH C18 AX column (2.1 × 100mm x 1.7μm); Flow rate: 0.3mL/min; Mobile phase A and B are water and methnaol, respectively, both with 0.1% formic acid; Gradient elution: from A/B (95/5) to A/B (100/0) in 7min, kept for 4 min, then back to A/B (95/5) in 0.1 min, and maintained for additional 1.9 min (13min in total).; Injection volume: 10 μL
Num peaks: 21
77.03542 547
77.04163 553
79.04094 1008
79.05587 1008
89.03806 1515
89.04853 1510
93.05607 649
93.06841 629
100.05482 551
100.06439 550
100.07073 553
106.06516 51134
107.04897 1161
107.0688 2648
165.07013 1884
167.06856 541
167.07832 537
180.08214 882
182.09329 1207
182.10291 1215
199.12355 10007
Name: 4-Aminoazobenzol
PrecursorMZ: 198.1042
PrecursorType: [M+H]+
IonMode: Positive
Formula: C12H11N3
SMILES: C1=CC=C(C=C1)N=NC2=CC=C(C=C2)N
InChI: 
InChIKey: QPQKUYVSJWQSDY-UHFFFAOYSA-N
RetentionTime: 6.221583
CCS: 
CollisionEnergy: 20-40 eV
InstrumentType: UPLC-QTOF-MS
Comment: PI: Cristina Nerin; Data collector: QiZhi Su, GUIA, University of Zaragoza, Spain; Collision energy: 20-40 V; Instrument: Waters HPLC-QTOF-MS (Xevo G2 QTof); Ionization: ESI; Deconvoluted by MS-DIAL; Column: Waters AtlantisTM premier BEH C18 AX column (2.1 × 100mm x 1.7μm); Flow rate: 0.3mL/min; Mobile phase A and B are water and methnaol, respectively, both with 0.1% formic acid; Gradient elution: from A/B (95/5) to A/B (100/0) in 7min, kept for 4 min, then back to A/B (95/5) in 0.1 min, and maintained for additional 1.9 min (13min in total).; Injection volume: 10 μL
Num peaks: 12
77.02197 278148
77.03852 278056
78.02577 14063
78.04185 14027
92.03243 4106
92.04939 4123
92.06641 4120
93.05804 6703
93.07447 6729
105.03061 2824
105.04659 2787
198.10468 9683
Name: "4,4'-Thiodianiline"
PrecursorMZ: 217.0805
PrecursorType: [M+H]+
IonMode: Positive
Formula: C12H12N2S
SMILES: C1=CC(=CC=C1N)SC2=CC=C(C=C2)N
InChI: 
InChIKey: ICNFHJVPAJKPHW-UHFFFAOYSA-N
RetentionTime: 0.9319167
CCS: 
CollisionEnergy: 20-40 eV
InstrumentType: UPLC-QTOF-MS
Comment: PI: Cristina Nerin; Data collector: QiZhi Su, GUIA, University of Zaragoza, Spain; Collision energy: 20-40 V; Instrument: Waters HPLC-QTOF-MS (Xevo G2 QTof); Ionization: ESI; Deconvoluted by MS-DIAL; Column: Waters AtlantisTM premier BEH C18 AX column (2.1 × 100mm x 1.7μm); Flow rate: 0.3mL/min; Mobile phase A and B are water and methnaol, respectively, both with 0.1% formic acid; Gradient elution: from A/B (95/5) to A/B (100/0) in 7min, kept for 4 min, then back to A/B (95/5) in 0.1 min, and maintained for additional 1.9 min (13min in total).; Injection volume: 10 μL
Num peaks: 125
77.0394 305
77.04888 310
78.0462 301
78.05482 298
79.04206 324
79.05352 335
80.05015 2855
85.05756 615
85.06615 619
93.04391 1336
93.05843 1403
93.06935 1398
93.07733 1390
106.04742 1823
106.0658 1485
117.05177 275
118.06525 312
118.07169 308
120.08165 3304
122.05961 1087
122.06826 1082
122.07999 740
123.06793 4237
123.08421 4253
124.02161 27434
125.02492 1221
125.03407 1218
125.04684 441
126.01884 815
126.03378 781
132.06805 298
132.08337 284
133.07495 499
133.09044 496
134.06012 284
134.06779 302
135.06294 348
135.07069 409
135.09401 315
138.07886 280
138.08797 292
138.09949 284
139.05495 2596
140.05196 481
140.06274 457
144.09906 399
145.06761 431
145.07611 427
145.08725 405
145.09378 324
150.08252 393
150.09433 369
150.10469 340
156.07466 387
156.08636 365
156.0965 285
161.08369 286
161.09996 383
161.1086 280
166.05139 336
166.06749 365
167.07486 1977
168.07616 468
168.08565 453
171.02621 401
171.03505 401
171.08932 522
171.10243 467
172.02621 302
172.03705 314
172.10202 1195
173.09973 841
173.10991 782
173.12395 710
174.08833 300
174.09496 297
176.09387 349
176.10861 346
181.07898 665
181.09618 680
182.08626 1584
182.10054 1659
183.02901 2349
183.09349 1406
183.10838 1379
184.03369 1815
184.05025 1645
184.09497 1041
184.10419 924
185.02104 295
185.03139 335
185.04054 348
185.0929 957
185.10954 964
185.12553 728
186.10693 305
190.08902 301
191.08316 509
191.09702 546
194.0764 309
195.09459 2376
196.1006 1795
197.1078 25302
198.11317 2294
199.04601 4875
199.09065 338
199.1098 1447
199.12373 1412
200.054 4372
201.04074 454
201.06017 553
208.09875 554
208.11127 513
209.10876 6163
210.1158 2281
211.12672 1779
212.1088 329
213.09666 352
213.10497 426
215.06149 362
215.0775 336
215.114 282
216.06816 1197
216.07738 1198
217.08035 5545
Name: "4,4'-Thiodianiline"
PrecursorMZ: 217.0795
PrecursorType: [M+H]+
IonMode: Positive
Formula: C12H12N2S
SMILES: C1=CC(=CC=C1N)SC2=CC=C(C=C2)N
InChI: 
InChIKey: ICNFHJVPAJKPHW-UHFFFAOYSA-N
RetentionTime: 2.814533
CCS: 
CollisionEnergy: 20-40 eV
InstrumentType: UPLC-QTOF-MS
Comment: PI: Cristina Nerin; Data collector: QiZhi Su, GUIA, University of Zaragoza, Spain; Collision energy: 20-40 V; Instrument: Waters HPLC-QTOF-MS (Xevo G2 QTof); Ionization: ESI; Deconvoluted by MS-DIAL; Column: Waters AtlantisTM premier BEH C18 AX column (2.1 × 100mm x 1.7μm); Flow rate: 0.3mL/min; Mobile phase A and B are water and methnaol, respectively, both with 0.1% formic acid; Gradient elution: from A/B (95/5) to A/B (100/0) in 7min, kept for 4 min, then back to A/B (95/5) in 0.1 min, and maintained for additional 1.9 min (13min in total).; Injection volume: 10 μL
Num peaks: 48
80.04908 4953
93.05284 2010
93.0575 2015
93.06574 2012
124.02133 45373
125.0139 2211
125.02453 2201
126.01646 1359
126.02415 1371
139.05434 4597
140.04813 613
140.05473 634
140.06177 629
140.07115 530
156.07416 849
156.08118 863
156.08832 851
166.05441 588
166.06535 587
166.07916 534
167.07466 3485
168.08015 493
171.02119 809
171.02853 807
172.03546 730
182.0699 672
182.08211 701
182.09465 706
183.02686 4035
183.07777 804
183.09315 839
184.01349 528
184.03453 3488
184.05624 663
184.10092 3512
185.02722 508
185.03946 521
198.03825 511
198.04568 504
199.04587 8688
200.05234 7521
201.03838 964
201.05305 1232
201.06667 1055
215.06361 959
216.0717 2689
216.08113 2692
217.07996 6418
Name: "2,6-Dimethylaniline"
PrecursorMZ: 122.0964
PrecursorType: [M+H]+
IonMode: Positive
Formula: C8H11N
SMILES: CC1=C(C(=CC=C1)C)N
InChI: 
InChIKey: UFFBMTHBGFGIHF-UHFFFAOYSA-N
RetentionTime: 3.294717
CCS: 
CollisionEnergy: 20-40 eV
InstrumentType: UPLC-QTOF-MS
Comment: PI: Cristina Nerin; Data collector: QiZhi Su, GUIA, University of Zaragoza, Spain; Collision energy: 20-40 V; Instrument: Waters HPLC-QTOF-MS (Xevo G2 QTof); Ionization: ESI; Deconvoluted by MS-DIAL; Column: Waters AtlantisTM premier BEH C18 AX column (2.1 × 100mm x 1.7μm); Flow rate: 0.3mL/min; Mobile phase A and B are water and methnaol, respectively, both with 0.1% formic acid; Gradient elution: from A/B (95/5) to A/B (100/0) in 7min, kept for 4 min, then back to A/B (95/5) in 0.1 min, and maintained for additional 1.9 min (13min in total).; Injection volume: 10 μL
Num peaks: 34
71.04894 121
73.04929 89
75.02671 53
77.03901 2211
77.05561 75
78.04347 112
79.05375 1781
79.06509 182
80.05209 138
80.06277 274
81.06815 76
84.95586 65
84.96449 162
91.0556 89
92.06075 101
93.06533 80
94.08304 62
103.05082 470
103.0563 1247
104.06721 66
105.06988 5076
105.08266 342
106.05887 72
106.06584 442
106.07169 371
106.07779 165
107.07336 1622
108.07872 99
119.04238 61
120.07683 63
120.0841 109
121.08632 72
122.09328 1125
122.09929 1447
Name: 4-Aminobiphenyl
PrecursorMZ: 170.0965
PrecursorType: [M+H]+
IonMode: Positive
Formula: C12H11N
SMILES: C1=CC=C(C=C1)C2=CC=C(C=C2)N
InChI: 
InChIKey: DMVOXQPQNTYEKQ-UHFFFAOYSA-N
RetentionTime: 4.2551
CCS: 
CollisionEnergy: 20-40 eV
InstrumentType: UPLC-QTOF-MS
Comment: PI: Cristina Nerin; Data collector: QiZhi Su, GUIA, University of Zaragoza, Spain; Collision energy: 20-40 V; Instrument: Waters HPLC-QTOF-MS (Xevo G2 QTof); Ionization: ESI; Deconvoluted by MS-DIAL; Column: Waters AtlantisTM premier BEH C18 AX column (2.1 × 100mm x 1.7μm); Flow rate: 0.3mL/min; Mobile phase A and B are water and methnaol, respectively, both with 0.1% formic acid; Gradient elution: from A/B (95/5) to A/B (100/0) in 7min, kept for 4 min, then back to A/B (95/5) in 0.1 min, and maintained for additional 1.9 min (13min in total).; Injection volume: 10 μL
Num peaks: 21
65.03932 1422
77.03956 1304
92.0494 5312
93.0573 5734
93.0738 5766
127.05434 8241
128.06131 7711
129.05992 1543
129.06955 1549
143.0714 4813
143.08479 4792
151.05379 13585
152.06171 125999
153.06841 65490
154.07143 8176
155.07425 2710
155.09204 2590
168.06131 2512
168.08128 3612
169.08789 16468
170.09596 58115
Name: 2-Napthylamine
PrecursorMZ: 144.0809
PrecursorType: [M+H]+
IonMode: Positive
Formula: C10H9N
SMILES: C1=CC=C2C=C(C=CC2=C1)N
InChI: 
InChIKey: JBIJLHTVPXGSAM-UHFFFAOYSA-N
RetentionTime: 3.223857
CCS: 
CollisionEnergy: 20-40 eV
InstrumentType: UPLC-QTOF-MS
Comment: PI: Cristina Nerin; Data collector: QiZhi Su, GUIA, University of Zaragoza, Spain; Collision energy: 20-40 V; Instrument: Waters HPLC-QTOF-MS (Xevo G2 QTof); Ionization: ESI; Deconvoluted by MS-DIAL; Column: Waters AtlantisTM premier BEH C18 AX column (2.1 × 100mm x 1.7μm); Flow rate: 0.3mL/min; Mobile phase A and B are water and methnaol, respectively, both with 0.1% formic acid; Gradient elution: from A/B (95/5) to A/B (100/0) in 7min, kept for 4 min, then back to A/B (95/5) in 0.1 min, and maintained for additional 1.9 min (13min in total).; Injection volume: 10 μL
Num peaks: 20
77.01999 417
77.0312 462
77.03877 465
101.03727 98
115.03515 145
115.04548 217
115.05488 217
116.05348 93
116.06206 93
117.07087 460
118.07244 73
126.04996 234
127.03883 6418
127.05468 6337
128.05345 741
128.06172 743
128.069 727
143.0582 883
143.07466 1015
144.08194 2376
Name: "1,2-Benzisothiazol-3(2H)-one"
PrecursorMZ: 152.0167
PrecursorType: [M+H]+
IonMode: Positive
Formula: C7H5NOS
SMILES: C1=CC=C2C(=C1)C(=O)NS2
InChI: 
InChIKey: DMSMPAJRVJJAGA-UHFFFAOYSA-N
RetentionTime: 4.229146
CCS: 
CollisionEnergy: 20-40 eV
InstrumentType: UPLC-QTOF-MS
Comment: PI: Cristina Nerin; Data collector: QiZhi Su, GUIA, University of Zaragoza, Spain; Collision energy: 20-40 V; Instrument: Waters HPLC-QTOF-MS (Xevo G2 QTof); Ionization: ESI; Deconvoluted by MS-DIAL; Column: Waters AtlantisTM premier BEH C18 AX column (2.1 × 100mm x 1.7μm); Flow rate: 0.3mL/min; Mobile phase A and B are water and methnaol, respectively, both with 0.1% formic acid; Gradient elution: from A/B (95/5) to A/B (100/0) in 7min, kept for 4 min, then back to A/B (95/5) in 0.1 min, and maintained for additional 1.9 min (13min in total).; Injection volume: 10 μL
Num peaks: 37
63.0245 91
65.03853 90
77.0386 389
77.04527 392
80.04109 225
80.05159 221
81.96032 109
84.95942 86
84.96425 87
90.03438 406
95.48238 101
95.48911 101
104.49194 99
105.02915 996
105.03664 998
105.04771 1017
106.03363 75
106.04089 72
106.99323 95
109.01164 1423
109.03052 1541
110.0165 45
113.48925 170
113.49898 169
122.50225 69
132.98627 46
133.00624 42
134.0063 1534
134.01537 1537
134.99545 138
135.01108 157
135.99501 84
136.00191 94
136.01205 90
137.01331 43
151.00978 81
152.01796 3975
Name: Dinonyl phthalate
PrecursorMZ: 419.3161
PrecursorType: [M+H]+
IonMode: Positive
Formula: C26H42O4
SMILES: CCCCCCCCCOC(=O)C1=CC=CC=C1C(=O)OCCCCCCCCC
InChI: 
InChIKey: DROMNWUQASBTFM-UHFFFAOYSA-N
RetentionTime: 8.94202
CCS: 
CollisionEnergy: 20-40 eV
InstrumentType: UPLC-QTOF-MS
Comment: PI: Cristina Nerin; Data collector: QiZhi Su, GUIA, University of Zaragoza, Spain; Collision energy: 20-40 V; Instrument: Waters HPLC-QTOF-MS (Xevo G2 QTof); Ionization: ESI; Deconvoluted by MS-DIAL; Column: Waters AtlantisTM premier BEH C18 AX column (2.1 × 100mm x 1.7μm); Flow rate: 0.3mL/min; Mobile phase A and B are water and methnaol, respectively, both with 0.1% formic acid; Gradient elution: from A/B (95/5) to A/B (100/0) in 7min, kept for 4 min, then back to A/B (95/5) in 0.1 min, and maintained for additional 1.9 min (13min in total).; Injection volume: 10 μL
Num peaks: 102
57.06981 2643
65.03693 186
69.06635 465
69.07343 462
71.0853 18055
72.07137 759
72.0891 627
81.07061 456
83.0859 394
83.0941 388
85.10087 17054
86.10345 865
89.04334 781
89.05772 766
89.06458 1049
91.04017 250
91.05141 277
91.05627 285
91.06181 310
91.06988 316
93.02518 181
93.03807 225
95.08586 662
97.10091 294
111.11625 213
111.12373 216
121.02616 292
121.03352 233
123.11771 184
127.14864 691
127.1572 691
133.0737 1102
133.08691 1102
133.09991 1130
135.11095 257
135.1201 273
149.0235 5565
149.06982 241
149.07947 899
149.12488 188
149.13736 181
150.0249 1288
150.03238 1152
160.9917 342
161.00417 338
177.10571 500
177.1178 518
177.13402 229
181.09549 580
183.1071 487
183.11845 469
267.98364 541
275.16299 425
277.01312 262
277.02798 285
277.11377 510
277.13016 404
279.01813 649
279.02747 547
279.04437 441
293.02148 486
296.08572 243
297.11551 319
303.13434 553
312.14651 239
312.1601 319
315.1203 230
315.14026 681
317.14349 939
318.15173 200
326.94525 389
333.11319 307
333.13995 276
335.12009 265
341.34164 183
341.35394 185
353.043 209
361.08234 349
361.57281 201
361.58536 199
362.07062 195
367.22571 230
367.23608 282
373.12399 481
375.21677 1534
375.25891 1768
375.71307 964
375.72824 1245
375.7608 580
375.77673 583
376.23416 505
376.24918 342
376.26825 270
397.272 2485
397.7785 932
398.26028 236
398.28513 260
415.01917 509
417.01904 219
419.28128 981
419.31821 800
419.78616 377
Name: Dinonyl phthalate
PrecursorMZ: 441.298
PrecursorType: [M+Na]+
IonMode: Positive
Formula: C26H42O4
SMILES: CCCCCCCCCOC(=O)C1=CC=CC=C1C(=O)OCCCCCCCCC
InChI: 
InChIKey: DROMNWUQASBTFM-UHFFFAOYSA-N
RetentionTime: 8.932734
CCS: 
CollisionEnergy: 20-40 eV
InstrumentType: UPLC-QTOF-MS
Comment: PI: Cristina Nerin; Data collector: QiZhi Su, GUIA, University of Zaragoza, Spain; Collision energy: 20-40 V; Instrument: Waters HPLC-QTOF-MS (Xevo G2 QTof); Ionization: ESI; Deconvoluted by MS-DIAL; Column: Waters AtlantisTM premier BEH C18 AX column (2.1 × 100mm x 1.7μm); Flow rate: 0.3mL/min; Mobile phase A and B are water and methnaol, respectively, both with 0.1% formic acid; Gradient elution: from A/B (95/5) to A/B (100/0) in 7min, kept for 4 min, then back to A/B (95/5) in 0.1 min, and maintained for additional 1.9 min (13min in total).; Injection volume: 10 μL
Num peaks: 8
71.08477 2817
164.05727 2895
164.06638 2856
221.08443 31752
373.10934 3043
438.28766 10062
438.789 5135
441.2959 275024
Name: Dinonyl phthalate
PrecursorMZ: 457.2726
PrecursorType: [M+K]+
IonMode: Positive
Formula: C26H42O4
SMILES: CCCCCCCCCOC(=O)C1=CC=CC=C1C(=O)OCCCCCCCCC
InChI: 
InChIKey: DROMNWUQASBTFM-UHFFFAOYSA-N
RetentionTime: 8.9382
CCS: 
CollisionEnergy: 20-40 eV
InstrumentType: UPLC-QTOF-MS
Comment: PI: Cristina Nerin; Data collector: QiZhi Su, GUIA, University of Zaragoza, Spain; Collision energy: 20-40 V; Instrument: Waters HPLC-QTOF-MS (Xevo G2 QTof); Ionization: ESI; Deconvoluted by MS-DIAL; Column: Waters AtlantisTM premier BEH C18 AX column (2.1 × 100mm x 1.7μm); Flow rate: 0.3mL/min; Mobile phase A and B are water and methnaol, respectively, both with 0.1% formic acid; Gradient elution: from A/B (95/5) to A/B (100/0) in 7min, kept for 4 min, then back to A/B (95/5) in 0.1 min, and maintained for additional 1.9 min (13min in total).; Injection volume: 10 μL
Num peaks: 10
71.08476 27969
85.08559 22260
85.10072 22076
149.02293 41692
331.1218 25117
332.12698 3246
441.29636 300363
442.29971 76504
443.30273 8372
457.27032 4445
Name: "2,4-Diamino-6-phenyl-1,3,5-triazine"
PrecursorMZ: 188.0934
PrecursorType: [M+H]+
IonMode: Positive
Formula: C9H9N5
SMILES: C1=CC=C(C=C1)C2=NC(=NC(=N2)N)N
InChI: 
InChIKey: GZVHEAJQGPRDLQ-UHFFFAOYSA-N
RetentionTime: 2.723123
CCS: 
CollisionEnergy: 20-40 eV
InstrumentType: UPLC-QTOF-MS
Comment: PI: Cristina Nerin; Data collector: QiZhi Su, GUIA, University of Zaragoza, Spain; Collision energy: 20-40 V; Instrument: Waters HPLC-QTOF-MS (Xevo G2 QTof); Ionization: ESI; Deconvoluted by MS-DIAL; Column: Waters AtlantisTM premier BEH C18 AX column (2.1 × 100mm x 1.7μm); Flow rate: 0.3mL/min; Mobile phase A and B are water and methnaol, respectively, both with 0.1% formic acid; Gradient elution: from A/B (95/5) to A/B (100/0) in 7min, kept for 4 min, then back to A/B (95/5) in 0.1 min, and maintained for additional 1.9 min (13min in total).; Injection volume: 10 μL
Num peaks: 40
58.07042 38
68.02245 167
68.02643 102
70.00854 46
70.01386 77
71.09124 42
77.03962 272
77.97984 55
78.98421 36
78.98925 56
83.08995 40
84.96056 185
85.05059 1158
85.06063 168
85.95235 35
86.0601 117
88.04379 43
104.04982 3315
105.05518 91
107.04737 72
107.95766 36
108.06361 37
119.04908 45
121.0683 48
121.07816 101
127.05156 43
134.05974 66
135.06389 37
139.09523 107
144.07465 46
146.06747 330
146.07713 119
147.06914 179
147.95372 44
148.08725 70
176.02721 63
182.13248 50
183.85669 72
184.83937 55
188.09358 2203
Name: "2,4-Diamino-6-phenyl-1,3,5-triazine"
PrecursorMZ: 188.0936
PrecursorType: [M+H]+
IonMode: Positive
Formula: C9H9N5
SMILES: C1=CC=C(C=C1)C2=NC(=NC(=N2)N)N
InChI: 
InChIKey: GZVHEAJQGPRDLQ-UHFFFAOYSA-N
RetentionTime: 0.9305889
CCS: 
CollisionEnergy: 20-40 eV
InstrumentType: UPLC-QTOF-MS
Comment: PI: Cristina Nerin; Data collector: QiZhi Su, GUIA, University of Zaragoza, Spain; Collision energy: 20-40 V; Instrument: Waters HPLC-QTOF-MS (Xevo G2 QTof); Ionization: ESI; Deconvoluted by MS-DIAL; Column: Waters AtlantisTM premier BEH C18 AX column (2.1 × 100mm x 1.7μm); Flow rate: 0.3mL/min; Mobile phase A and B are water and methnaol, respectively, both with 0.1% formic acid; Gradient elution: from A/B (95/5) to A/B (100/0) in 7min, kept for 4 min, then back to A/B (95/5) in 0.1 min, and maintained for additional 1.9 min (13min in total).; Injection volume: 10 μL
Num peaks: 10
68.02466 1991
77.03721 1212
77.04262 1211
85.05081 14210
104.04925 41950
105.05363 2241
105.07266 1310
121.07655 1221
146.07086 3150
188.09335 26266
Name: Ethylene glycol dimethacrylate
PrecursorMZ: 221.0793
PrecursorType: [M+Na]+
IonMode: Positive
Formula: C10H14O4
SMILES: CC(=C)C(=O)OCCOC(=O)C(=C)C
InChI: 
InChIKey: STVZJERGLQHEKB-UHFFFAOYSA-N
RetentionTime: 6.013856
CCS: 
CollisionEnergy: 20-40 eV
InstrumentType: UPLC-QTOF-MS
Comment: PI: Cristina Nerin; Data collector: QiZhi Su, GUIA, University of Zaragoza, Spain; Collision energy: 20-40 V; Instrument: Waters HPLC-QTOF-MS (Xevo G2 QTof); Ionization: ESI; Deconvoluted by MS-DIAL; Column: Waters AtlantisTM premier BEH C18 AX column (2.1 × 100mm x 1.7μm); Flow rate: 0.3mL/min; Mobile phase A and B are water and methnaol, respectively, both with 0.1% formic acid; Gradient elution: from A/B (95/5) to A/B (100/0) in 7min, kept for 4 min, then back to A/B (95/5) in 0.1 min, and maintained for additional 1.9 min (13min in total).; Injection volume: 10 μL
Num peaks: 14
69.03197 2781
69.03721 2782
80.99155 414
80.99855 398
81.00316 398
81.00695 400
113.05962 14005
114.06281 697
114.07268 702
124.98987 1697
124.99928 1681
149.01277 215
149.02786 216
221.08339 233
Name: Dinonyl phthalate
PrecursorMZ: 854.6495
PrecursorType: [2M+NH4]+
IonMode: Positive
Formula: C26H42O4
SMILES: CCCCCCCCCOC(=O)C1=CC=CC=C1C(=O)OCCCCCCCCC
InChI: 
InChIKey: DROMNWUQASBTFM-UHFFFAOYSA-N
RetentionTime: 8.945817
CCS: 
CollisionEnergy: 20-40 eV
InstrumentType: UPLC-QTOF-MS
Comment: PI: Cristina Nerin; Data collector: QiZhi Su, GUIA, University of Zaragoza, Spain; Collision energy: 20-40 V; Instrument: Waters HPLC-QTOF-MS (Xevo G2 QTof); Ionization: ESI; Deconvoluted by MS-DIAL; Column: Waters AtlantisTM premier BEH C18 AX column (2.1 × 100mm x 1.7μm); Flow rate: 0.3mL/min; Mobile phase A and B are water and methnaol, respectively, both with 0.1% formic acid; Gradient elution: from A/B (95/5) to A/B (100/0) in 7min, kept for 4 min, then back to A/B (95/5) in 0.1 min, and maintained for additional 1.9 min (13min in total).; Injection volume: 10 μL
Num peaks: 23
57.06958 3857
71.08504 29763
71.10123 29849
85.10065 22258
149.02266 40778
331.12009 24715
332.12479 3165
375.21832 3354
438.28757 7913
438.789 3433
441.29605 300107
442.29965 67553
443.30447 7622
475.27277 3259
503.25809 3913
503.27808 3743
623.29102 4925
647.44012 20024
647.94141 16487
648.4433 4185
777.55524 3179
777.5824 3243
795.20142 3335
Name: Dinonyl phthalate
PrecursorMZ: 859.6057
PrecursorType: [2M+Na]+
IonMode: Positive
Formula: C26H42O4
SMILES: CCCCCCCCCOC(=O)C1=CC=CC=C1C(=O)OCCCCCCCCC
InChI: 
InChIKey: DROMNWUQASBTFM-UHFFFAOYSA-N
RetentionTime: 8.939137
CCS: 
CollisionEnergy: 20-40 eV
InstrumentType: UPLC-QTOF-MS
Comment: PI: Cristina Nerin; Data collector: QiZhi Su, GUIA, University of Zaragoza, Spain; Collision energy: 20-40 V; Instrument: Waters HPLC-QTOF-MS (Xevo G2 QTof); Ionization: ESI; Deconvoluted by MS-DIAL; Column: Waters AtlantisTM premier BEH C18 AX column (2.1 × 100mm x 1.7μm); Flow rate: 0.3mL/min; Mobile phase A and B are water and methnaol, respectively, both with 0.1% formic acid; Gradient elution: from A/B (95/5) to A/B (100/0) in 7min, kept for 4 min, then back to A/B (95/5) in 0.1 min, and maintained for additional 1.9 min (13min in total).; Injection volume: 10 μL
Num peaks: 19
57.06951 3857
57.08044 3857
71.08476 32655
85.08559 23865
85.10072 23502
149.02293 40778
331.1218 24736
332.12698 3162
441.29636 300107
442.29971 69607
443.30273 8213
457.27032 3832
503.26971 3858
623.28693 3555
647.43842 46643
647.94128 39459
648.44293 16957
648.94647 4747
777.56659 3630
Name: Dinonyl phthalate
PrecursorMZ: 875.5837
PrecursorType: [2M+K]+
IonMode: Positive
Formula: C26H42O4
SMILES: CCCCCCCCCOC(=O)C1=CC=CC=C1C(=O)OCCCCCCCCC
InChI: 
InChIKey: DROMNWUQASBTFM-UHFFFAOYSA-N
RetentionTime: 8.940142
CCS: 
CollisionEnergy: 20-40 eV
InstrumentType: UPLC-QTOF-MS
Comment: PI: Cristina Nerin; Data collector: QiZhi Su, GUIA, University of Zaragoza, Spain; Collision energy: 20-40 V; Instrument: Waters HPLC-QTOF-MS (Xevo G2 QTof); Ionization: ESI; Deconvoluted by MS-DIAL; Column: Waters AtlantisTM premier BEH C18 AX column (2.1 × 100mm x 1.7μm); Flow rate: 0.3mL/min; Mobile phase A and B are water and methnaol, respectively, both with 0.1% formic acid; Gradient elution: from A/B (95/5) to A/B (100/0) in 7min, kept for 4 min, then back to A/B (95/5) in 0.1 min, and maintained for additional 1.9 min (13min in total).; Injection volume: 10 μL
Num peaks: 17
71.08525 10226
85.10085 13206
149.02315 23785
297.09601 6255
356.0704 141477
429.08902 405006
438.2901 6157
441.29703 209320
442.3002 53752
443.30554 6341
601.41473 8891
647.44165 26219
647.94183 22960
648.44507 9377
749.42981 15499
750.43207 5457
777.56879 5180
Name: 4-Octadecylmorpholine
PrecursorMZ: 340.3617
PrecursorType: [M+H]+
IonMode: Positive
Formula: C22H45NO
SMILES: CCCCCCCCCCCCCCCCCCN1CCOCC1
InChI: 
InChIKey: GSMSOLOCRKCJMR-UHFFFAOYSA-N
RetentionTime: 6.410172
CCS: 
CollisionEnergy: 20-40 eV
InstrumentType: UPLC-QTOF-MS
Comment: PI: Cristina Nerin; Data collector: QiZhi Su, GUIA, University of Zaragoza, Spain; Collision energy: 20-40 V; Instrument: Waters HPLC-QTOF-MS (Xevo G2 QTof); Ionization: ESI; Deconvoluted by MS-DIAL; Column: Waters AtlantisTM premier BEH C18 AX column (2.1 × 100mm x 1.7μm); Flow rate: 0.3mL/min; Mobile phase A and B are water and methnaol, respectively, both with 0.1% formic acid; Gradient elution: from A/B (95/5) to A/B (100/0) in 7min, kept for 4 min, then back to A/B (95/5) in 0.1 min, and maintained for additional 1.9 min (13min in total).; Injection volume: 10 μL
Num peaks: 5
70.065 10070
71.06934 3726
71.0855 3704
88.0754 31263
340.35757 311724
Name: 2-ethylanthraquinone
PrecursorMZ: 237.0907
PrecursorType: [M+H]+
IonMode: Positive
Formula: C16H12O2
SMILES: CCC1=CC2=C(C=C1)C(=O)C3=CC=CC=C3C2=O
InChI: 
InChIKey: SJEBAWHUJDUKQK-UHFFFAOYSA-N
RetentionTime: 7.526375
CCS: 
CollisionEnergy: 20-40 eV
InstrumentType: UPLC-QTOF-MS
Comment: PI: Cristina Nerin; Data collector: QiZhi Su, GUIA, University of Zaragoza, Spain; Collision energy: 20-40 V; Instrument: Waters HPLC-QTOF-MS (Xevo G2 QTof); Ionization: ESI; Deconvoluted by MS-DIAL; Column: Waters AtlantisTM premier BEH C18 AX column (2.1 × 100mm x 1.7μm); Flow rate: 0.3mL/min; Mobile phase A and B are water and methnaol, respectively, both with 0.1% formic acid; Gradient elution: from A/B (95/5) to A/B (100/0) in 7min, kept for 4 min, then back to A/B (95/5) in 0.1 min, and maintained for additional 1.9 min (13min in total).; Injection volume: 10 μL
Num peaks: 248
57.0702 441
57.07491 440
67.05255 210
67.05647 210
69.06894 282
70.9785 124
70.98428 129
71.05096 84
71.07581 135
71.08739 95
77.02366 80
77.03625 79
79.04086 190
79.05637 185
81.0698 805
83.08556 307
89.04153 104
91.05429 369
91.07389 305
93.07022 206
95.0872 364
95.09415 370
97.09064 253
97.09917 226
97.10513 230
98.97384 99
98.98293 119
99.05994 96
105.03823 81
105.05013 183
105.06227 274
105.07162 277
107.049 95
107.08623 320
109.024 94
109.03381 99
109.10191 224
111.08133 130
111.09663 159
111.11597 100
116.06684 79
119.03603 404
119.04539 468
119.05153 469
119.07639 303
119.08912 266
121.08578 246
121.0934 303
121.1035 282
122.09459 96
122.10265 96
123.07631 145
123.08635 147
123.10612 235
123.1161 198
124.00609 113
125.05322 111
125.06551 112
128.05092 90
128.06316 119
128.07878 130
129.05429 125
129.07123 130
129.08539 114
130.5181 113
131.07155 96
131.0885 140
133.01733 146
133.03117 102
133.08603 189
133.10287 187
134.04915 148
134.06171 105
134.06758 99
134.07588 125
135.06303 119
135.07161 107
135.08478 95
135.11407 226
135.11986 232
137.05759 133
137.06999 136
137.09308 108
137.10423 104
137.13133 130
137.14011 122
138.02205 2115
138.02823 2130
138.52176 413
138.53358 416
139.00777 98
139.01617 87
139.02831 92
139.03729 104
139.0775 81
139.11452 115
140.01398 110
140.02185 105
141.01288 105
141.02046 92
145.10188 81
145.12067 154
147.00462 165
147.02342 1113
147.03084 2323
147.04346 2363
147.05426 1849
147.07103 151
147.10382 239
147.1163 273
147.12517 232
147.52226 134
147.5321 131
147.53792 130
148.04558 172
148.0542 197
148.07246 124
148.08675 100
148.09845 89
149.05887 122
149.07289 185
149.09026 134
149.10149 93
151.06033 79
151.07637 94
152.04253 154
152.06061 401
152.07397 413
153.05428 447
153.07047 566
153.0959 182
154.06471 110
154.08276 89
155.08328 81
156.02815 296
156.03337 290
156.04684 287
159.0825 110
159.09134 96
159.11844 80
161.09081 102
161.10794 107
161.1234 116
163.07988 105
163.15381 112
165.02971 160
165.05159 600
165.06258 660
165.07918 411
165.09019 163
165.11517 155
165.12787 141
165.13904 116
166.05652 80
166.07788 201
166.08784 237
166.09773 188
167.03648 120
167.06351 155
167.08075 122
169.04239 83
171.11015 97
178.08495 82
179.0538 89
179.07043 109
179.08511 129
179.10742 96
181.05232 79
181.06345 93
185.12633 86
185.13748 93
189.06627 88
190.07243 85
191.07193 181
191.08394 175
191.10022 100
193.03334 124
193.04404 196
193.06581 217
193.08606 85
193.11542 113
193.12601 106
194.04723 85
194.06645 120
194.07701 135
194.09598 93
195.06934 98
195.08095 119
201.06259 95
201.0793 131
201.09348 84
203.08226 98
203.09734 350
203.11441 318
207.078 114
207.09099 122
207.101 90
207.11714 93
208.05321 188
208.09879 83
209.05278 2107
209.06323 2288
209.07347 2081
209.11533 178
209.12773 188
210.06339 290
210.07961 239
210.12219 81
210.14015 229
210.15782 213
211.05498 102
211.0681 158
211.07965 124
211.1015 251
211.12761 85
218.067 136
218.08238 119
219.06064 215
219.06749 324
219.08018 415
219.10329 217
220.08635 90
220.09895 87
221.07796 296
221.10039 371
221.1145 481
221.14232 88
222.064 139
222.07571 147
222.0939 136
223.06013 99
223.07562 181
223.08868 149
223.10612 93
223.14171 92
225.05408 88
225.07204 91
227.05637 83
227.06451 81
234.04861 88
234.55286 91
235.05272 127
235.07521 334
235.09656 146
236.07256 134
236.09479 142
237.09181 7900
237.13921 148
Name: "N,N-Dimethyltetradecylamine"
PrecursorMZ: 242.2861
PrecursorType: [M+H]+
IonMode: Positive
Formula: C16H35N
SMILES: CCCCCCCCCCCCCCN(C)C
InChI: 
InChIKey: SFBHPFQSSDCYSL-UHFFFAOYSA-N
RetentionTime: 5.33405
CCS: 
CollisionEnergy: 20-40 eV
InstrumentType: UPLC-QTOF-MS
Comment: PI: Cristina Nerin; Data collector: QiZhi Su, GUIA, University of Zaragoza, Spain; Collision energy: 20-40 V; Instrument: Waters HPLC-QTOF-MS (Xevo G2 QTof); Ionization: ESI; Deconvoluted by MS-DIAL; Column: Waters AtlantisTM premier BEH C18 AX column (2.1 × 100mm x 1.7μm); Flow rate: 0.3mL/min; Mobile phase A and B are water and methnaol, respectively, both with 0.1% formic acid; Gradient elution: from A/B (95/5) to A/B (100/0) in 7min, kept for 4 min, then back to A/B (95/5) in 0.1 min, and maintained for additional 1.9 min (13min in total).; Injection volume: 10 μL
Num peaks: 4
57.07021 1090
71.08556 998
85.09934 581
242.2847 27057
Name: "N,N-Dimethyltetradecylamine"
PrecursorMZ: 242.2868
PrecursorType: [M+H]+
IonMode: Positive
Formula: C16H35N
SMILES: CCCCCCCCCCCCCCN(C)C
InChI: 
InChIKey: SFBHPFQSSDCYSL-UHFFFAOYSA-N
RetentionTime: 5.43674
CCS: 
CollisionEnergy: 20-40 eV
InstrumentType: UPLC-QTOF-MS
Comment: PI: Cristina Nerin; Data collector: QiZhi Su, GUIA, University of Zaragoza, Spain; Collision energy: 20-40 V; Instrument: Waters HPLC-QTOF-MS (Xevo G2 QTof); Ionization: ESI; Deconvoluted by MS-DIAL; Column: Waters AtlantisTM premier BEH C18 AX column (2.1 × 100mm x 1.7μm); Flow rate: 0.3mL/min; Mobile phase A and B are water and methnaol, respectively, both with 0.1% formic acid; Gradient elution: from A/B (95/5) to A/B (100/0) in 7min, kept for 4 min, then back to A/B (95/5) in 0.1 min, and maintained for additional 1.9 min (13min in total).; Injection volume: 10 μL
Num peaks: 15
57.07146 202
67.05418 44
70.96574 73
70.97726 72
70.9818 72
71.08157 196
71.08553 196
73.04797 62
83.04858 78
83.05798 84
85.10414 47
89.06 51
128.05254 44
145.01735 47
242.28436 4302
Name: Anthranilamide
PrecursorMZ: 137.0707
PrecursorType: [M+H]+
IonMode: Positive
Formula: C7H8N2O
SMILES: C1=CC=C(C(=C1)C(=O)N)N
InChI: 
InChIKey: PXBFMLJZNCDSMP-UHFFFAOYSA-N
RetentionTime: 0.9407555
CCS: 
CollisionEnergy: 20-40 eV
InstrumentType: UPLC-QTOF-MS
Comment: PI: Cristina Nerin; Data collector: QiZhi Su, GUIA, University of Zaragoza, Spain; Collision energy: 20-40 V; Instrument: Waters HPLC-QTOF-MS (Xevo G2 QTof); Ionization: ESI; Deconvoluted by MS-DIAL; Column: Waters AtlantisTM premier BEH C18 AX column (2.1 × 100mm x 1.7μm); Flow rate: 0.3mL/min; Mobile phase A and B are water and methnaol, respectively, both with 0.1% formic acid; Gradient elution: from A/B (95/5) to A/B (100/0) in 7min, kept for 4 min, then back to A/B (95/5) in 0.1 min, and maintained for additional 1.9 min (13min in total).; Injection volume: 10 μL
Num peaks: 186
55.05536 33
56.96837 31
57.03197 23
57.85563 40
58.06626 20
65.03754 1049
66.03426 28
66.04115 66
66.17105 34
66.45773 21
67.22427 23
68.98323 22
70.01477 28
70.05475 64
70.06237 21
71.04274 26
71.05306 21
72.04234 46
72.08919 24
72.24427 50
73.01324 34
73.04274 42
73.05238 76
74.04594 23
77.03519 21
78.01059 64
78.9784 25
78.98384 76
79.05625 119
80.05442 35
80.94695 99
80.99267 38
81.04117 36
81.06996 46
81.95626 28
81.9616 22
81.99747 20
82.06402 95
83.04778 44
83.08501 21
84.96066 338
85.0049 37
85.05788 24
85.82022 20
86.04678 120
86.06538 42
86.09248 21
87.04003 70
88.07422 24
88.11547 21
88.95366 21
89.05927 264
90.0631 42
90.06894 36
90.98822 20
91.0184 24
91.0517 24
91.05897 119
91.90135 25
92.05026 1699
92.11456 21
93.05563 72
93.07004 20
93.08579 22
94.95387 26
94.95937 21
94.96645 127
94.98713 20
95.05373 33
95.08739 28
95.09331 30
96.31517 24
97.03115 47
97.93526 20
97.96882 20
98.05634 20
98.9581 24
98.9789 38
99.08564 26
100.01802 87
100.03428 29
100.17343 49
100.72173 24
100.92831 49
100.94011 28
100.95757 28
100.96283 22
100.97259 27
100.99456 45
101.07577 34
101.94105 22
101.95265 50
102.03681 127
102.04339 52
102.07298 23
102.97849 33
104.9541 33
104.99132 27
105.0394 20
105.06681 41
106.0219 29
106.96635 26
106.98885 23
107.01842 35
107.05014 83
107.08453 44
107.09077 105
108.97079 60
108.99762 25
110.03039 29
110.06257 56
110.96278 86
110.97343 20
110.9846 36
111.00403 20
111.01357 45
111.08167 22
111.96275 27
112.07172 22
112.97307 22
112.99081 26
113.95799 22
114.03904 31
115.02686 28
115.04414 23
115.05589 62
115.9897 29
116.05933 44
116.06993 30
116.94156 33
117.52476 42
118.92616 23
118.93626 21
118.99776 36
119.0427 23
119.05352 116
120.04525 1107
120.96082 24
121.04394 21
121.08128 23
122.06075 27
122.98736 38
123.00951 36
123.05089 24
123.06054 21
123.29964 21
123.9951 22
124.07845 25
125.01912 30
125.02551 50
125.0401 58
125.06351 20
125.96992 22
125.97813 20
126.03828 20
126.95261 50
127.00708 22
127.03031 24
127.11575 33
128.04477 21
128.96677 24
128.98907 20
129.02843 47
130.05305 31
130.06418 68
130.07587 136
130.15451 22
131.07747 31
131.97214 32
132.061 27
133.0119 109
133.06183 33
133.07967 30
133.09145 99
133.96295 23
133.98839 25
134.01222 21
134.05795 174
135.04921 48
135.05574 26
136.07124 22
136.09134 20
137.06927 256
137.08412 28
137.10556 45
137.12303 21
Name: "Benzenamine, 2,4-dimethyl"
PrecursorMZ: 122.0966
PrecursorType: [M+H]+
IonMode: Positive
Formula: C8H11N
SMILES: CC1=CC(=C(C=C1)N)C
InChI: 
InChIKey: CZZZABOKJQXEBO-UHFFFAOYSA-N
RetentionTime: 0.8702806
CCS: 
CollisionEnergy: 20-40 eV
InstrumentType: UPLC-QTOF-MS
Comment: PI: Cristina Nerin; Data collector: QiZhi Su, GUIA, University of Zaragoza, Spain; Collision energy: 20-40 V; Instrument: Waters HPLC-QTOF-MS (Xevo G2 QTof); Ionization: ESI; Deconvoluted by MS-DIAL; Column: Waters AtlantisTM premier BEH C18 AX column (2.1 × 100mm x 1.7μm); Flow rate: 0.3mL/min; Mobile phase A and B are water and methnaol, respectively, both with 0.1% formic acid; Gradient elution: from A/B (95/5) to A/B (100/0) in 7min, kept for 4 min, then back to A/B (95/5) in 0.1 min, and maintained for additional 1.9 min (13min in total).; Injection volume: 10 μL
Num peaks: 24
65.04409 67
77.02392 2556
77.03781 2740
77.04437 2736
78.04318 205
79.05501 2393
79.06451 2396
80.06068 230
91.05418 86
103.05576 1300
104.05492 74
105.07038 3131
106.06258 1248
106.06837 1247
107.07322 5408
108.07569 330
108.08756 330
120.07899 371
120.08952 356
121.06345 116
121.0903 320
122.05042 58
122.06408 74
122.09866 3719
Name: 1-Vinylimidazole
PrecursorMZ: 95.06039
PrecursorType: [M+H]+
IonMode: Positive
Formula: C5H6N2
SMILES: C=CN1C=CN=C1
InChI: 
InChIKey: OSSNTDFYBPYIEC-UHFFFAOYSA-N
RetentionTime: 0.5739667
CCS: 
CollisionEnergy: 20-40 eV
InstrumentType: UPLC-QTOF-MS
Comment: PI: Cristina Nerin; Data collector: QiZhi Su, GUIA, University of Zaragoza, Spain; Collision energy: 20-40 V; Instrument: Waters HPLC-QTOF-MS (Xevo G2 QTof); Ionization: ESI; Deconvoluted by MS-DIAL; Column: Waters AtlantisTM premier BEH C18 AX column (2.1 × 100mm x 1.7μm); Flow rate: 0.3mL/min; Mobile phase A and B are water and methnaol, respectively, both with 0.1% formic acid; Gradient elution: from A/B (95/5) to A/B (100/0) in 7min, kept for 4 min, then back to A/B (95/5) in 0.1 min, and maintained for additional 1.9 min (13min in total).; Injection volume: 10 μL
Num peaks: 16
60.05861 23
68.05577 23
69.0421 146
69.0465 276
69.92288 24
70.05081 24
70.98228 40
73.05186 25
77.01662 24
77.96832 27
84.96263 29
86.10399 33
89.05577 25
90.97581 217
93.9665 25
95.06026 1217
Name: "Diphenyl(2,4,6-trimethylbenzoyl)phosphine oxide"
PrecursorMZ: 387.0941
PrecursorType: [M+K]+
IonMode: Positive
Formula: C22H21O2P
SMILES: CC1=CC(=C(C(=C1)C)C(=O)P(=O)(C2=CC=CC=C2)C3=CC=CC=C3)C
InChI: 
InChIKey: VFHVQBAGLAREND-UHFFFAOYSA-N
RetentionTime: 7.208483
CCS: 
CollisionEnergy: 20-40 eV
InstrumentType: UPLC-QTOF-MS
Comment: PI: Cristina Nerin; Data collector: QiZhi Su, GUIA, University of Zaragoza, Spain; Collision energy: 20-40 V; Instrument: Waters HPLC-QTOF-MS (Xevo G2 QTof); Ionization: ESI; Deconvoluted by MS-DIAL; Column: Waters AtlantisTM premier BEH C18 AX column (2.1 × 100mm x 1.7μm); Flow rate: 0.3mL/min; Mobile phase A and B are water and methnaol, respectively, both with 0.1% formic acid; Gradient elution: from A/B (95/5) to A/B (100/0) in 7min, kept for 4 min, then back to A/B (95/5) in 0.1 min, and maintained for additional 1.9 min (13min in total).; Injection volume: 10 μL
Num peaks: 7
91.05386 38616
119.08505 84871
147.08041 843375
148.08345 84700
349.13412 11379
371.11661 211859
372.12094 44669
Name: "Diphenyl(2,4,6-trimethylbenzoyl)phosphine oxide"
PrecursorMZ: 349.1361
PrecursorType: [M+H]+
IonMode: Positive
Formula: C22H21O2P
SMILES: CC1=CC(=C(C(=C1)C)C(=O)P(=O)(C2=CC=CC=C2)C3=CC=CC=C3)C
InChI: 
InChIKey: VFHVQBAGLAREND-UHFFFAOYSA-N
RetentionTime: 7.212283
CCS: 
CollisionEnergy: 20-40 eV
InstrumentType: UPLC-QTOF-MS
Comment: PI: Cristina Nerin; Data collector: QiZhi Su, GUIA, University of Zaragoza, Spain; Collision energy: 20-40 V; Instrument: Waters HPLC-QTOF-MS (Xevo G2 QTof); Ionization: ESI; Deconvoluted by MS-DIAL; Column: Waters AtlantisTM premier BEH C18 AX column (2.1 × 100mm x 1.7μm); Flow rate: 0.3mL/min; Mobile phase A and B are water and methnaol, respectively, both with 0.1% formic acid; Gradient elution: from A/B (95/5) to A/B (100/0) in 7min, kept for 4 min, then back to A/B (95/5) in 0.1 min, and maintained for additional 1.9 min (13min in total).; Injection volume: 10 μL
Num peaks: 5
91.05369 38611
119.08516 84871
147.0804 843372
148.08339 84781
349.13397 12955
Name: "Diphenyl(2,4,6-trimethylbenzoyl)phosphine oxide"
PrecursorMZ: 697.2648
PrecursorType: [2M+H]+
IonMode: Positive
Formula: C22H21O2P
SMILES: CC1=CC(=C(C(=C1)C)C(=O)P(=O)(C2=CC=CC=C2)C3=CC=CC=C3)C
InChI: 
InChIKey: VFHVQBAGLAREND-UHFFFAOYSA-N
RetentionTime: 7.212283
CCS: 
CollisionEnergy: 20-40 eV
InstrumentType: UPLC-QTOF-MS
Comment: PI: Cristina Nerin; Data collector: QiZhi Su, GUIA, University of Zaragoza, Spain; Collision energy: 20-40 V; Instrument: Waters HPLC-QTOF-MS (Xevo G2 QTof); Ionization: ESI; Deconvoluted by MS-DIAL; Column: Waters AtlantisTM premier BEH C18 AX column (2.1 × 100mm x 1.7μm); Flow rate: 0.3mL/min; Mobile phase A and B are water and methnaol, respectively, both with 0.1% formic acid; Gradient elution: from A/B (95/5) to A/B (100/0) in 7min, kept for 4 min, then back to A/B (95/5) in 0.1 min, and maintained for additional 1.9 min (13min in total).; Injection volume: 10 μL
Num peaks: 13
91.05369 38611
119.08516 84871
147.0804 843372
148.08339 84781
349.13397 11423
371.11646 211866
372.12054 44669
443.0643 19229
542.172 42056
542.67456 29733
543.17621 10085
589.13782 26339
605.13031 24797
Name: "Diphenyl(2,4,6-trimethylbenzoyl)phosphine oxide"
PrecursorMZ: 719.2465
PrecursorType: [2M+Na]+
IonMode: Positive
Formula: C22H21O2P
SMILES: CC1=CC(=C(C(=C1)C)C(=O)P(=O)(C2=CC=CC=C2)C3=CC=CC=C3)C
InChI: 
InChIKey: VFHVQBAGLAREND-UHFFFAOYSA-N
RetentionTime: 7.212283
CCS: 
CollisionEnergy: 20-40 eV
InstrumentType: UPLC-QTOF-MS
Comment: PI: Cristina Nerin; Data collector: QiZhi Su, GUIA, University of Zaragoza, Spain; Collision energy: 20-40 V; Instrument: Waters HPLC-QTOF-MS (Xevo G2 QTof); Ionization: ESI; Deconvoluted by MS-DIAL; Column: Waters AtlantisTM premier BEH C18 AX column (2.1 × 100mm x 1.7μm); Flow rate: 0.3mL/min; Mobile phase A and B are water and methnaol, respectively, both with 0.1% formic acid; Gradient elution: from A/B (95/5) to A/B (100/0) in 7min, kept for 4 min, then back to A/B (95/5) in 0.1 min, and maintained for additional 1.9 min (13min in total).; Injection volume: 10 μL
Num peaks: 13
91.05369 38623
119.08516 84871
147.0804 843427
148.08339 84783
349.13397 11422
371.11646 211877
372.12054 44669
443.0643 19231
542.172 42056
542.67456 29733
543.17621 10085
589.13782 26339
605.13031 24797
Name: "Diphenyl(2,4,6-trimethylbenzoyl)phosphine oxide"
PrecursorMZ: 735.2226
PrecursorType: [2M+K]+
IonMode: Positive
Formula: C22H21O2P
SMILES: CC1=CC(=C(C(=C1)C)C(=O)P(=O)(C2=CC=CC=C2)C3=CC=CC=C3)C
InChI: 
InChIKey: VFHVQBAGLAREND-UHFFFAOYSA-N
RetentionTime: 7.212283
CCS: 
CollisionEnergy: 20-40 eV
InstrumentType: UPLC-QTOF-MS
Comment: PI: Cristina Nerin; Data collector: QiZhi Su, GUIA, University of Zaragoza, Spain; Collision energy: 20-40 V; Instrument: Waters HPLC-QTOF-MS (Xevo G2 QTof); Ionization: ESI; Deconvoluted by MS-DIAL; Column: Waters AtlantisTM premier BEH C18 AX column (2.1 × 100mm x 1.7μm); Flow rate: 0.3mL/min; Mobile phase A and B are water and methnaol, respectively, both with 0.1% formic acid; Gradient elution: from A/B (95/5) to A/B (100/0) in 7min, kept for 4 min, then back to A/B (95/5) in 0.1 min, and maintained for additional 1.9 min (13min in total).; Injection volume: 10 μL
Num peaks: 13
91.05369 38611
119.08516 84871
147.0804 843372
148.08339 84781
349.13397 11423
371.11646 211866
372.12054 44669
443.0643 19229
542.172 42056
542.67456 29733
543.17621 10085
589.13782 26339
605.13031 24797
Name: "Diphenyl(2,4,6-trimethylbenzoyl)phosphine oxide"
PrecursorMZ: 371.1167
PrecursorType: [M+Na]+
IonMode: Positive
Formula: C22H21O2P
SMILES: CC1=CC(=C(C(=C1)C)C(=O)P(=O)(C2=CC=CC=C2)C3=CC=CC=C3)C
InChI: 
InChIKey: VFHVQBAGLAREND-UHFFFAOYSA-N
RetentionTime: 7.231317
CCS: 
CollisionEnergy: 20-40 eV
InstrumentType: UPLC-QTOF-MS
Comment: PI: Cristina Nerin; Data collector: QiZhi Su, GUIA, University of Zaragoza, Spain; Collision energy: 20-40 V; Instrument: Waters HPLC-QTOF-MS (Xevo G2 QTof); Ionization: ESI; Deconvoluted by MS-DIAL; Column: Waters AtlantisTM premier BEH C18 AX column (2.1 × 100mm x 1.7μm); Flow rate: 0.3mL/min; Mobile phase A and B are water and methnaol, respectively, both with 0.1% formic acid; Gradient elution: from A/B (95/5) to A/B (100/0) in 7min, kept for 4 min, then back to A/B (95/5) in 0.1 min, and maintained for additional 1.9 min (13min in total).; Injection volume: 10 μL
Num peaks: 7
91.0539 18321
119.08491 33711
147.07997 259279
148.08342 24965
241.00876 6684
349.13541 2798
371.11642 131916
Name: Diethyl phthalate
PrecursorMZ: 223.098
PrecursorType: [M+H]+
IonMode: Positive
Formula: C12H14O4
SMILES: CCOC(=O)C1=CC=CC=C1C(=O)OCC
InChI: 
InChIKey: FLKPEMZONWLCSK-UHFFFAOYSA-N
RetentionTime: 5.988733
CCS: 
CollisionEnergy: 20-40 eV
InstrumentType: UPLC-QTOF-MS
Comment: PI: Cristina Nerin; Data collector: QiZhi Su, GUIA, University of Zaragoza, Spain; Collision energy: 20-40 V; Instrument: Waters HPLC-QTOF-MS (Xevo G2 QTof); Ionization: ESI; Deconvoluted by MS-DIAL; Column: Waters AtlantisTM premier BEH C18 AX column (2.1 × 100mm x 1.7μm); Flow rate: 0.3mL/min; Mobile phase A and B are water and methnaol, respectively, both with 0.1% formic acid; Gradient elution: from A/B (95/5) to A/B (100/0) in 7min, kept for 4 min, then back to A/B (95/5) in 0.1 min, and maintained for additional 1.9 min (13min in total).; Injection volume: 10 μL
Num peaks: 40
65.0384 29348
66.04015 1119
66.04412 1125
77.03896 1616
93.03309 35011
93.05314 16936
93.98805 6408
94.03583 1521
94.04197 1523
102.99373 6555
111.99981 3373
112.01871 2806
121.02848 37858
121.04433 37877
122.03319 1821
122.0505 1627
149.02338 84960
150.02774 5555
153.99971 1577
154.00784 1577
160.00713 2052
160.02171 2054
160.99113 929
161.00041 955
167.99699 63162
168.49893 9241
168.98209 1654
169.00177 2105
169.99104 981
177.00252 6968
177.50456 1161
177.52139 1087
189.02359 5215
191.01758 3649
191.02805 3648
204.98108 1018
204.99271 1035
205.03459 9198
205.53604 1892
205.54398 1925
Name: Diethyl phthalate
PrecursorMZ: 245.08
PrecursorType: [M+Na]+
IonMode: Positive
Formula: C12H14O4
SMILES: CCOC(=O)C1=CC=CC=C1C(=O)OCC
InChI: 
InChIKey: FLKPEMZONWLCSK-UHFFFAOYSA-N
RetentionTime: 5.988733
CCS: 
CollisionEnergy: 20-40 eV
InstrumentType: UPLC-QTOF-MS
Comment: PI: Cristina Nerin; Data collector: QiZhi Su, GUIA, University of Zaragoza, Spain; Collision energy: 20-40 V; Instrument: Waters HPLC-QTOF-MS (Xevo G2 QTof); Ionization: ESI; Deconvoluted by MS-DIAL; Column: Waters AtlantisTM premier BEH C18 AX column (2.1 × 100mm x 1.7μm); Flow rate: 0.3mL/min; Mobile phase A and B are water and methnaol, respectively, both with 0.1% formic acid; Gradient elution: from A/B (95/5) to A/B (100/0) in 7min, kept for 4 min, then back to A/B (95/5) in 0.1 min, and maintained for additional 1.9 min (13min in total).; Injection volume: 10 μL
Num peaks: 42
65.0384 29348
66.04015 1119
66.04412 1125
77.03896 1616
93.03309 35011
93.05314 16936
93.98805 6408
94.03583 1521
94.04197 1523
102.99373 6555
111.99981 3373
112.01871 2806
121.02848 37858
121.04433 37877
122.03319 1821
122.0505 1627
149.02338 84960
150.02774 5555
153.99971 1577
154.00784 1577
160.00713 2052
160.02171 2054
160.99113 929
161.00041 955
167.99699 63162
168.49893 9241
168.98209 1654
169.00177 2105
169.99104 981
177.00252 6968
177.50456 1161
177.52139 1087
189.02359 5215
191.01758 3649
191.02805 3648
204.98108 1018
204.99271 1035
205.03459 9198
205.53604 1892
205.54398 1925
233.01424 5116
245.08052 2148
Name: Diethyl phthalate
PrecursorMZ: 261.0558
PrecursorType: [M+K]+
IonMode: Positive
Formula: C12H14O4
SMILES: CCOC(=O)C1=CC=CC=C1C(=O)OCC
InChI: 
InChIKey: FLKPEMZONWLCSK-UHFFFAOYSA-N
RetentionTime: 5.988733
CCS: 
CollisionEnergy: 20-40 eV
InstrumentType: UPLC-QTOF-MS
Comment: PI: Cristina Nerin; Data collector: QiZhi Su, GUIA, University of Zaragoza, Spain; Collision energy: 20-40 V; Instrument: Waters HPLC-QTOF-MS (Xevo G2 QTof); Ionization: ESI; Deconvoluted by MS-DIAL; Column: Waters AtlantisTM premier BEH C18 AX column (2.1 × 100mm x 1.7μm); Flow rate: 0.3mL/min; Mobile phase A and B are water and methnaol, respectively, both with 0.1% formic acid; Gradient elution: from A/B (95/5) to A/B (100/0) in 7min, kept for 4 min, then back to A/B (95/5) in 0.1 min, and maintained for additional 1.9 min (13min in total).; Injection volume: 10 μL
Num peaks: 42
65.0384 29348
66.04015 1119
66.04412 1125
77.03896 1616
93.03309 35011
93.05314 16936
93.98805 6408
94.03583 1521
94.04197 1523
102.99373 6555
111.99981 3373
112.01871 2806
121.02848 37858
121.04433 37877
122.03319 1821
122.0505 1627
149.02338 84960
150.02774 5555
153.99971 1577
154.00784 1577
160.00713 2052
160.02171 2054
160.99113 929
161.00041 955
167.99699 63162
168.49893 9241
168.98209 1654
169.00177 2105
169.99104 981
177.00252 6968
177.50456 1161
177.52139 1087
189.02359 5215
191.01758 3649
191.02805 3648
204.98108 1018
204.99271 1035
205.03459 9198
205.53604 1892
205.54398 1925
233.01424 5116
245.08052 2000
Name: Diethyl phthalate
PrecursorMZ: 467.1724
PrecursorType: [2M+Na]+
IonMode: Positive
Formula: C12H14O4
SMILES: CCOC(=O)C1=CC=CC=C1C(=O)OCC
InChI: 
InChIKey: FLKPEMZONWLCSK-UHFFFAOYSA-N
RetentionTime: 5.988733
CCS: 
CollisionEnergy: 20-40 eV
InstrumentType: UPLC-QTOF-MS
Comment: PI: Cristina Nerin; Data collector: QiZhi Su, GUIA, University of Zaragoza, Spain; Collision energy: 20-40 V; Instrument: Waters HPLC-QTOF-MS (Xevo G2 QTof); Ionization: ESI; Deconvoluted by MS-DIAL; Column: Waters AtlantisTM premier BEH C18 AX column (2.1 × 100mm x 1.7μm); Flow rate: 0.3mL/min; Mobile phase A and B are water and methnaol, respectively, both with 0.1% formic acid; Gradient elution: from A/B (95/5) to A/B (100/0) in 7min, kept for 4 min, then back to A/B (95/5) in 0.1 min, and maintained for additional 1.9 min (13min in total).; Injection volume: 10 μL
Num peaks: 43
65.0384 29348
66.04015 1119
66.04412 1125
77.03896 1616
93.03309 35011
93.05314 16936
93.98805 6408
94.03583 1521
94.04197 1523
102.99373 6555
111.99981 3373
112.01871 2806
121.02848 37858
121.04433 37877
122.03319 1821
122.0505 1627
149.02338 84960
150.02774 5555
153.99971 1577
154.00784 1577
160.00713 2052
160.02171 2054
160.99113 929
161.00041 955
167.99699 63162
168.49893 9241
168.98209 1654
169.00177 2105
169.99104 981
177.00252 6968
177.50456 1161
177.52139 1087
189.02359 5215
191.01758 3649
191.02805 3648
204.98108 1018
204.99271 1035
205.03459 9198
205.53604 1892
205.54398 1925
233.01424 5116
245.08052 2000
307.05197 2524
Name: "Benzenamine, 2,4-dimethyl"
PrecursorMZ: 122.0963
PrecursorType: [M+H]+
IonMode: Positive
Formula: C8H11N
SMILES: CC1=CC(=C(C=C1)N)C
InChI: 
InChIKey: CZZZABOKJQXEBO-UHFFFAOYSA-N
RetentionTime: 1.8237
CCS: 
CollisionEnergy: 20-40 eV
InstrumentType: UPLC-QTOF-MS
Comment: PI: Cristina Nerin; Data collector: QiZhi Su, GUIA, University of Zaragoza, Spain; Collision energy: 20-40 V; Instrument: Waters HPLC-QTOF-MS (Xevo G2 QTof); Ionization: ESI; Deconvoluted by MS-DIAL; Column: Waters AtlantisTM premier BEH C18 AX column (2.1 × 100mm x 1.7μm); Flow rate: 0.3mL/min; Mobile phase A and B are water and methnaol, respectively, both with 0.1% formic acid; Gradient elution: from A/B (95/5) to A/B (100/0) in 7min, kept for 4 min, then back to A/B (95/5) in 0.1 min, and maintained for additional 1.9 min (13min in total).; Injection volume: 10 μL
Num peaks: 62
56.59044 21
58.06742 28
70.01202 23
72.9808 26
73.04117 22
73.04532 81
73.04995 98
77.03745 994
78.0406 55
78.96581 26
78.98474 36
79.05292 183
79.05762 247
80.05923 21
80.94988 20
81.029 23
81.07182 24
82.90873 39
83.08262 35
83.08733 44
84.95702 27
84.9625 71
85.06387 38
86.03627 48
87.04166 20
88.95942 24
89.04291 80
89.0787 20
91.04985 21
91.05953 25
94.07098 28
96.93938 22
96.96354 24
98.96362 22
100.9185 24
102.05195 27
102.09032 26
103.0515 264
103.05985 312
104.0673 34
105.05889 63
105.06702 397
105.07414 608
106.03796 45
106.06508 324
106.07014 163
107.0732 1617
107.08851 74
108.07686 20
108.93962 44
109.18414 28
109.98229 26
110.03242 21
110.19321 20
110.96371 20
110.97464 38
116.96976 20
120.07642 24
121.09119 55
121.0985 24
122.09111 265
122.09789 641
Name: Tributyl acetylcitrate
PrecursorMZ: 403.2334
PrecursorType: [M+H]+
IonMode: Positive
Formula: C20H34O8
SMILES: CCCCOC(=O)CC(CC(=O)OCCCC)(C(=O)OCCCC)OC(=O)C
InChI: 
InChIKey: QZCLKYGREBVARF-UHFFFAOYSA-N
RetentionTime: 7.5777
CCS: 
CollisionEnergy: 20-40 eV
InstrumentType: UPLC-QTOF-MS
Comment: PI: Cristina Nerin; Data collector: QiZhi Su, GUIA, University of Zaragoza, Spain; Collision energy: 20-40 V; Instrument: Waters HPLC-QTOF-MS (Xevo G2 QTof); Ionization: ESI; Deconvoluted by MS-DIAL; Column: Waters AtlantisTM premier BEH C18 AX column (2.1 × 100mm x 1.7μm); Flow rate: 0.3mL/min; Mobile phase A and B are water and methnaol, respectively, both with 0.1% formic acid; Gradient elution: from A/B (95/5) to A/B (100/0) in 7min, kept for 4 min, then back to A/B (95/5) in 0.1 min, and maintained for additional 1.9 min (13min in total).; Injection volume: 10 μL
Num peaks: 54
57.06934 1283
68.99639 7300
87.008 1591
111.00687 27325
112.01118 1008
112.02547 995
113.01007 966
113.01892 1072
113.02383 1076
113.03077 1019
129.01764 94160
130.01898 3032
130.02826 3052
130.03905 2529
139.00195 45465
140.00542 1703
157.01294 12155
185.08047 35049
186.08661 2090
213.07339 963
213.08466 951
217.0354 1603
223.02905 2935
225.04468 1867
236.06253 1211
240.03828 1065
259.14545 2399
259.1557 2373
264.09564 1765
268.0546 1754
268.07227 1897
273.09332 1046
281.13876 1524
283.0881 2641
296.08307 1756
296.10251 2779
297.10141 1935
313.11569 1274
313.13138 1526
324.13281 3673
345.12881 1376
345.14352 1400
352.16074 2665
352.17599 2676
357.14886 1787
357.16306 1653
365.19431 9026
366.19986 1280
373.1684 3907
373.66052 1008
373.68512 1184
401.2027 3720
401.69571 1407
401.7121 1353
Name: Tributyl acetylcitrate
PrecursorMZ: 425.2151
PrecursorType: [M+Na]+
IonMode: Positive
Formula: C20H34O8
SMILES: CCCCOC(=O)CC(CC(=O)OCCCC)(C(=O)OCCCC)OC(=O)C
InChI: 
InChIKey: QZCLKYGREBVARF-UHFFFAOYSA-N
RetentionTime: 7.577064
CCS: 
CollisionEnergy: 20-40 eV
InstrumentType: UPLC-QTOF-MS
Comment: PI: Cristina Nerin; Data collector: QiZhi Su, GUIA, University of Zaragoza, Spain; Collision energy: 20-40 V; Instrument: Waters HPLC-QTOF-MS (Xevo G2 QTof); Ionization: ESI; Deconvoluted by MS-DIAL; Column: Waters AtlantisTM premier BEH C18 AX column (2.1 × 100mm x 1.7μm); Flow rate: 0.3mL/min; Mobile phase A and B are water and methnaol, respectively, both with 0.1% formic acid; Gradient elution: from A/B (95/5) to A/B (100/0) in 7min, kept for 4 min, then back to A/B (95/5) in 0.1 min, and maintained for additional 1.9 min (13min in total).; Injection volume: 10 μL
Num peaks: 251
55.05442 103
56.96564 103
57.06806 237
57.07357 90
59.05072 97
60.08347 108
67.05007 194
67.05565 296
68.99754 559
69.06902 537
69.07601 160
70.97928 91
70.98589 113
71.04948 161
71.08318 114
71.09257 121
73.04638 3591
74.04758 141
75.04676 149
77.04465 101
79.05362 280
81.07003 1187
82.07617 140
83.0808 116
83.08918 361
84.96018 811
84.96755 110
85.06769 186
85.1011 187
87.0456 180
89.06028 272
91.05351 721
92.99747 96
93.06901 523
93.07492 239
95.0502 140
95.08709 1004
97.0601 118
97.07091 98
97.10421 143
98.97395 219
98.9808 284
99.08485 119
105.06606 156
105.07072 205
105.07598 138
107.05403 91
107.0855 437
109.06836 213
109.10278 618
110.98268 131
111.00759 1616
111.04363 309
111.07941 178
113.0265 134
113.06002 92
114.07038 124
115.03696 99
119.08504 268
121.06619 175
121.09991 649
122.10843 92
122.97781 143
123.04264 91
123.07622 173
125.05482 95
125.09753 103
126.09971 99
129.01866 5039
130.02228 387
130.15794 108
131.08783 232
133.01379 142
133.05112 235
133.0609 97
133.09138 441
133.10301 345
135.0869 150
135.11964 87
139.00424 2358
140.98215 91
144.99847 120
147.06943 197
147.12187 225
149.04556 327
150.96838 113
151.04668 112
151.12523 93
151.14995 111
153.02463 100
153.09253 141
157.00108 194
157.01482 826
157.09177 112
159.11699 208
163.05331 101
163.06874 243
165.06027 106
165.13336 137
166.99748 93
173.0562 92
173.13553 90
175.01279 94
177.12361 155
179.11087 105
185.08087 2351
186.07867 148
189.11981 241
190.99646 118
191.00409 206
191.10313 197
193.11841 91
197.12529 88
197.88539 90
203.03789 97
205.04776 125
205.09642 113
206.03764 93
206.51767 128
207.03201 1177
207.04738 204
207.06491 104
207.07339 128
208.03078 185
208.04166 98
209.03227 107
209.08289 233
209.117 107
213.08322 140
214.02722 243
214.03731 157
217.03841 120
217.15056 86
219.02214 212
221.0367 552
221.04721 560
221.08763 100
221.09593 98
221.12393 87
221.5383 289
221.54613 91
222.03951 133
223.01654 112
223.03577 301
223.0733 284
229.10338 92
229.12 98
230.099 171
233.08644 155
235.10086 86
237.08125 235
237.09114 150
237.10431 116
237.12367 128
238.07489 106
238.09048 167
240.23697 86
243.61072 110
248.69588 137
248.9859 413
248.99815 218
249.10007 89
250.95959 177
250.97002 274
250.99782 104
252.96083 113
255.1041 134
259.15875 166
263.15353 117
263.24344 106
265.01929 433
265.03751 127
265.14215 108
265.17764 96
266.02716 228
267.00049 1454
267.01743 362
268.00427 193
268.06601 165
268.99908 194
269.01233 108
277.21698 111
278.08438 101
279.01782 94
279.1329 192
281.05441 1340
281.12677 264
281.14365 154
282.05609 271
283.05481 251
283.07724 172
283.09332 294
283.16354 123
292.86292 100
293.04886 359
293.21252 95
294.04736 105
294.10928 93
295.20203 116
297.09839 133
297.12711 116
297.15637 190
298.09607 109
309.14169 135
309.16214 139
309.18167 94
309.21008 107
311.13638 102
313.23257 180
319.19992 200
320.18936 124
324.12912 139
325.17871 99
327.13834 131
327.96664 95
329.17261 116
329.27792 94
333.19113 93
341.01746 111
341.15231 212
343.12442 88
343.16202 124
345.14331 102
349.24054 140
350.27734 123
351.17834 124
351.20132 95
352.75476 118
353.20825 108
357.16986 186
357.25311 124
359.26013 104
365.1951 553
365.21097 415
365.23035 170
366.19525 148
366.23923 116
367.18225 200
367.21042 113
369.16394 100
382.25299 128
387.16714 96
399.14023 153
401.28848 194
409.26532 92
411.08466 100
411.09662 157
412.10562 88
425.10858 337
425.18161 187
425.21609 8566
Name: Tributyl acetylcitrate
PrecursorMZ: 441.1895
PrecursorType: [M+K]+
IonMode: Positive
Formula: C20H34O8
SMILES: CCCCOC(=O)CC(CC(=O)OCCCC)(C(=O)OCCCC)OC(=O)C
InChI: 
InChIKey: QZCLKYGREBVARF-UHFFFAOYSA-N
RetentionTime: 7.57845
CCS: 
CollisionEnergy: 20-40 eV
InstrumentType: UPLC-QTOF-MS
Comment: PI: Cristina Nerin; Data collector: QiZhi Su, GUIA, University of Zaragoza, Spain; Collision energy: 20-40 V; Instrument: Waters HPLC-QTOF-MS (Xevo G2 QTof); Ionization: ESI; Deconvoluted by MS-DIAL; Column: Waters AtlantisTM premier BEH C18 AX column (2.1 × 100mm x 1.7μm); Flow rate: 0.3mL/min; Mobile phase A and B are water and methnaol, respectively, both with 0.1% formic acid; Gradient elution: from A/B (95/5) to A/B (100/0) in 7min, kept for 4 min, then back to A/B (95/5) in 0.1 min, and maintained for additional 1.9 min (13min in total).; Injection volume: 10 μL
Num peaks: 35
68.99639 7142
111.00687 26737
129.01764 92247
130.01898 2976
130.02826 2991
130.03905 2529
139.00195 44524
140.00542 1703
157.01294 11901
185.08047 34320
186.08661 2052
223.02905 2935
225.04468 1867
259.14545 2335
259.1557 2307
264.09564 1728
268.0546 1708
268.07227 1849
283.0881 2642
296.08307 1710
296.10251 2712
297.10141 1935
324.13281 3576
352.16074 2597
352.17599 2611
357.14886 1760
365.19431 9026
373.1684 3798
401.2027 3620
422.20636 10189
422.70642 3856
425.21362 166890
426.21744 30570
427.22031 3622
441.18771 3685
Name: Diphenyl sulfone
PrecursorMZ: 219.0476
PrecursorType: [M+H]+
IonMode: Positive
Formula: C12H10O2S
SMILES: C1=CC=C(C=C1)S(=O)(=O)C2=CC=CC=C2
InChI: 
InChIKey: KZTYYGOKRVBIMI-UHFFFAOYSA-N
RetentionTime: 5.432317
CCS: 
CollisionEnergy: 20-40 eV
InstrumentType: UPLC-QTOF-MS
Comment: PI: Cristina Nerin; Data collector: QiZhi Su, GUIA, University of Zaragoza, Spain; Collision energy: 20-40 V; Instrument: Waters HPLC-QTOF-MS (Xevo G2 QTof); Ionization: ESI; Deconvoluted by MS-DIAL; Column: Waters AtlantisTM premier BEH C18 AX column (2.1 × 100mm x 1.7μm); Flow rate: 0.3mL/min; Mobile phase A and B are water and methnaol, respectively, both with 0.1% formic acid; Gradient elution: from A/B (95/5) to A/B (100/0) in 7min, kept for 4 min, then back to A/B (95/5) in 0.1 min, and maintained for additional 1.9 min (13min in total).; Injection volume: 10 μL
Num peaks: 5
77.03776 105050
78.04264 6364
141.00063 7283
180.9632 9623
219.04407 1067
Name: Diphenyl sulfone
PrecursorMZ: 219.0477
PrecursorType: [M+H]+
IonMode: Positive
Formula: C12H10O2S
SMILES: C1=CC=C(C=C1)S(=O)(=O)C2=CC=CC=C2
InChI: 
InChIKey: KZTYYGOKRVBIMI-UHFFFAOYSA-N
RetentionTime: 5.48794
CCS: 
CollisionEnergy: 20-40 eV
InstrumentType: UPLC-QTOF-MS
Comment: PI: Cristina Nerin; Data collector: QiZhi Su, GUIA, University of Zaragoza, Spain; Collision energy: 20-40 V; Instrument: Waters HPLC-QTOF-MS (Xevo G2 QTof); Ionization: ESI; Deconvoluted by MS-DIAL; Column: Waters AtlantisTM premier BEH C18 AX column (2.1 × 100mm x 1.7μm); Flow rate: 0.3mL/min; Mobile phase A and B are water and methnaol, respectively, both with 0.1% formic acid; Gradient elution: from A/B (95/5) to A/B (100/0) in 7min, kept for 4 min, then back to A/B (95/5) in 0.1 min, and maintained for additional 1.9 min (13min in total).; Injection volume: 10 μL
Num peaks: 22
67.05421 147
77.03804 12339
78.04064 546
78.0465 482
79.0549 215
81.07034 141
84.95666 260
84.96188 724
91.05965 126
93.07164 187
95.08852 141
97.01111 179
117.00114 573
128.99922 163
132.99487 147
138.00438 131
140.99658 625
141.00456 392
149.09866 138
151.51103 129
180.95522 221
180.96463 961
Name: Hexadecanamide
PrecursorMZ: 511.5199
PrecursorType: [2M+H]+
IonMode: Positive
Formula: C16H33NO
SMILES: CCCCCCCCCCCCCCCC(=O)N
InChI: 
InChIKey: HSEMFIZWXHQJAE-UHFFFAOYSA-N
RetentionTime: 8.164917
CCS: 
CollisionEnergy: 20-40 eV
InstrumentType: UPLC-QTOF-MS
Comment: PI: Cristina Nerin; Data collector: QiZhi Su, GUIA, University of Zaragoza, Spain; Collision energy: 20-40 V; Instrument: Waters HPLC-QTOF-MS (Xevo G2 QTof); Ionization: ESI; Deconvoluted by MS-DIAL; Column: Waters AtlantisTM premier BEH C18 AX column (2.1 × 100mm x 1.7μm); Flow rate: 0.3mL/min; Mobile phase A and B are water and methnaol, respectively, both with 0.1% formic acid; Gradient elution: from A/B (95/5) to A/B (100/0) in 7min, kept for 4 min, then back to A/B (95/5) in 0.1 min, and maintained for additional 1.9 min (13min in total).; Injection volume: 10 μL
Num peaks: 13
74.04824 5003
74.0592 5010
74.07356 5455
88.07475 29248
102.0908 15306
256.26282 398590
257.26611 65922
275.23618 29273
275.73822 9576
278.24527 7950
355.06866 10662
402.86307 22479
403.36478 11232
Name: Hexadecanamide
PrecursorMZ: 533.5014
PrecursorType: [2M+Na]+
IonMode: Positive
Formula: C16H33NO
SMILES: CCCCCCCCCCCCCCCC(=O)N
InChI: 
InChIKey: HSEMFIZWXHQJAE-UHFFFAOYSA-N
RetentionTime: 8.164858
CCS: 
CollisionEnergy: 20-40 eV
InstrumentType: UPLC-QTOF-MS
Comment: PI: Cristina Nerin; Data collector: QiZhi Su, GUIA, University of Zaragoza, Spain; Collision energy: 20-40 V; Instrument: Waters HPLC-QTOF-MS (Xevo G2 QTof); Ionization: ESI; Deconvoluted by MS-DIAL; Column: Waters AtlantisTM premier BEH C18 AX column (2.1 × 100mm x 1.7μm); Flow rate: 0.3mL/min; Mobile phase A and B are water and methnaol, respectively, both with 0.1% formic acid; Gradient elution: from A/B (95/5) to A/B (100/0) in 7min, kept for 4 min, then back to A/B (95/5) in 0.1 min, and maintained for additional 1.9 min (13min in total).; Injection volume: 10 μL
Num peaks: 13
74.04824 4987
74.0592 4996
74.07356 5460
88.07475 29182
102.0908 15260
256.26282 398425
257.26611 65915
275.23618 29295
275.73822 9582
278.24527 7958
355.06866 11468
402.86307 22494
403.36478 11239
Name: o-Anisidine
PrecursorMZ: 124.0753
PrecursorType: [M+H]+
IonMode: Positive
Formula: C7H9NO
SMILES: COC1=CC=CC=C1N
InChI: 
InChIKey: VMPITZXILSNTON-UHFFFAOYSA-N
RetentionTime: 1.319372
CCS: 
CollisionEnergy: 20-40 eV
InstrumentType: UPLC-QTOF-MS
Comment: PI: Cristina Nerin; Data collector: QiZhi Su, GUIA, University of Zaragoza, Spain; Collision energy: 20-40 V; Instrument: Waters HPLC-QTOF-MS (Xevo G2 QTof); Ionization: ESI; Deconvoluted by MS-DIAL; Column: Waters AtlantisTM premier BEH C18 AX column (2.1 × 100mm x 1.7μm); Flow rate: 0.3mL/min; Mobile phase A and B are water and methnaol, respectively, both with 0.1% formic acid; Gradient elution: from A/B (95/5) to A/B (100/0) in 7min, kept for 4 min, then back to A/B (95/5) in 0.1 min, and maintained for additional 1.9 min (13min in total).; Injection volume: 10 μL
Num peaks: 26
65.03913 325
66.03878 79
70.00978 52
70.01735 60
80.05119 565
81.03203 54
82.06627 77
84.07889 44
84.9586 65
89.06873 52
90.04004 59
92.04461 67
92.05046 87
94.96257 95
96.95836 44
100.92831 74
107.98183 235
108.04252 50
108.05161 76
109.05187 4218
110.0451 56
110.05274 96
112.11692 69
114.96423 43
124.07025 227
124.07662 344
Name: Irganox 1076
PrecursorMZ: 553.4599
PrecursorType: [M+Na]+
IonMode: Positive
Formula: C35H62O3
SMILES: CCCCCCCCCCCCCCCCCCOC(=O)CCC1=CC(=C(C(=C1)C(C)(C)C)O)C(C)(C)C
InChI: 
InChIKey: SSDSCDGVMJFTEQ-UHFFFAOYSA-N
RetentionTime: 11.67597
CCS: 
CollisionEnergy: 20-40 eV
InstrumentType: UPLC-QTOF-MS
Comment: PI: Cristina Nerin; Data collector: QiZhi Su, GUIA, University of Zaragoza, Spain; Collision energy: 20-40 V; Instrument: Waters HPLC-QTOF-MS (Xevo G2 QTof); Ionization: ESI; Deconvoluted by MS-DIAL; Column: Waters AtlantisTM premier BEH C18 AX column (2.1 × 100mm x 1.7μm); Flow rate: 0.3mL/min; Mobile phase A and B are water and methnaol, respectively, both with 0.1% formic acid; Gradient elution: from A/B (95/5) to A/B (100/0) in 7min, kept for 4 min, then back to A/B (95/5) in 0.1 min, and maintained for additional 1.9 min (13min in total).; Injection volume: 10 μL
Num peaks: 39
73.07064 294
107.04833 6818
108.05993 205
149.04074 2848
149.05951 4029
150.04926 138
168.06947 201
168.0882 185
205.11366 301
205.1216 310
205.13094 299
223.05223 197
238.05673 186
251.11258 171
281.29538 185
283.27811 219
283.29202 160
283.30978 190
299.30621 361
309.32697 735
310.31131 289
312.30621 146
313.07324 147
327.33618 2187
328.33081 396
328.34668 416
371.14474 212
373.10864 215
419.3504 1494
419.36588 1503
420.35434 377
427.6012 1421
428.08557 1151
476.41339 184
551.40332 142
551.93683 265
552.47174 255
553.45801 13277
553.50616 214
Name: Ethylene dioleamide
PrecursorMZ: 589.5669
PrecursorType: [M+H]+
IonMode: Positive
Formula: C38H72N2O2
SMILES: CCCCCCCCC=CCCCCCCCC(=O)NCCNC(=O)CCCCCCCC=CCCCCCCCC
InChI: 
InChIKey: OXDXXMDEEFOVHR-CLFAGFIQSA-N
RetentionTime: 11.09782
CCS: 
CollisionEnergy: 20-40 eV
InstrumentType: UPLC-QTOF-MS
Comment: PI: Cristina Nerin; Data collector: QiZhi Su, GUIA, University of Zaragoza, Spain; Collision energy: 20-40 V; Instrument: Waters HPLC-QTOF-MS (Xevo G2 QTof); Ionization: ESI; Deconvoluted by MS-DIAL; Column: Waters AtlantisTM premier BEH C18 AX column (2.1 × 100mm x 1.7μm); Flow rate: 0.3mL/min; Mobile phase A and B are water and methnaol, respectively, both with 0.1% formic acid; Gradient elution: from A/B (95/5) to A/B (100/0) in 7min, kept for 4 min, then back to A/B (95/5) in 0.1 min, and maintained for additional 1.9 min (13min in total).; Injection volume: 10 μL
Num peaks: 10
307.311 40719
308.29581 124399
309.29932 22609
310.30472 1422
314.26047 5387
314.75128 2160
314.76624 2199
325.32132 31954
326.32587 4871
589.56641 122839
Name: Ethylene dioleamide
PrecursorMZ: 611.5513
PrecursorType: [M+Na]+
IonMode: Positive
Formula: C38H72N2O2
SMILES: CCCCCCCCC=CCCCCCCCC(=O)NCCNC(=O)CCCCCCCC=CCCCCCCCC
InChI: 
InChIKey: OXDXXMDEEFOVHR-CLFAGFIQSA-N
RetentionTime: 11.0872
CCS: 
CollisionEnergy: 20-40 eV
InstrumentType: UPLC-QTOF-MS
Comment: PI: Cristina Nerin; Data collector: QiZhi Su, GUIA, University of Zaragoza, Spain; Collision energy: 20-40 V; Instrument: Waters HPLC-QTOF-MS (Xevo G2 QTof); Ionization: ESI; Deconvoluted by MS-DIAL; Column: Waters AtlantisTM premier BEH C18 AX column (2.1 × 100mm x 1.7μm); Flow rate: 0.3mL/min; Mobile phase A and B are water and methnaol, respectively, both with 0.1% formic acid; Gradient elution: from A/B (95/5) to A/B (100/0) in 7min, kept for 4 min, then back to A/B (95/5) in 0.1 min, and maintained for additional 1.9 min (13min in total).; Injection volume: 10 μL
Num peaks: 16
307.31113 22307
308.29596 78162
309.29974 13088
314.2619 2650
314.75851 1068
314.77408 1051
325.32266 17746
326.32632 2726
589.56628 44646
590.57245 14958
591.57715 1898
608.53967 8040
609.04449 6761
609.52435 1638
609.54871 2556
611.54962 28299
Name: o-Anisidine
PrecursorMZ: 124.076
PrecursorType: [M+H]+
IonMode: Positive
Formula: C7H9NO
SMILES: COC1=CC=CC=C1N
InChI: 
InChIKey: VMPITZXILSNTON-UHFFFAOYSA-N
RetentionTime: 0.86788
CCS: 
CollisionEnergy: 20-40 eV
InstrumentType: UPLC-QTOF-MS
Comment: PI: Cristina Nerin; Data collector: QiZhi Su, GUIA, University of Zaragoza, Spain; Collision energy: 20-40 V; Instrument: Waters HPLC-QTOF-MS (Xevo G2 QTof); Ionization: ESI; Deconvoluted by MS-DIAL; Column: Waters AtlantisTM premier BEH C18 AX column (2.1 × 100mm x 1.7μm); Flow rate: 0.3mL/min; Mobile phase A and B are water and methnaol, respectively, both with 0.1% formic acid; Gradient elution: from A/B (95/5) to A/B (100/0) in 7min, kept for 4 min, then back to A/B (95/5) in 0.1 min, and maintained for additional 1.9 min (13min in total).; Injection volume: 10 μL
Num peaks: 37
65.03539 294
65.04168 297
80.04296 88
80.05003 441
80.0557 84
81.05427 168
81.07268 78
83.08727 108
84.04851 129
84.96535 160
85.02926 81
86.09058 70
86.10642 113
87.04459 66
91.05424 70
91.05856 197
92.0449 93
92.05227 360
94.06422 68
95.08489 72
98.09704 198
100.11677 76
105.07474 80
108.04065 160
108.97763 67
109.05171 6177
110.05029 87
110.05698 149
110.06287 95
112.10899 270
112.11822 265
115.08066 107
119.08231 66
120.05236 83
120.08975 85
124.07272 310
124.08073 292
Name: Tributyl acetylcitrate
PrecursorMZ: 827.4419
PrecursorType: [2M+Na]+
IonMode: Positive
Formula: C20H34O8
SMILES: CCCCOC(=O)CC(CC(=O)OCCCC)(C(=O)OCCCC)OC(=O)C
InChI: 
InChIKey: QZCLKYGREBVARF-UHFFFAOYSA-N
RetentionTime: 7.57769
CCS: 
CollisionEnergy: 20-40 eV
InstrumentType: UPLC-QTOF-MS
Comment: PI: Cristina Nerin; Data collector: QiZhi Su, GUIA, University of Zaragoza, Spain; Collision energy: 20-40 V; Instrument: Waters HPLC-QTOF-MS (Xevo G2 QTof); Ionization: ESI; Deconvoluted by MS-DIAL; Column: Waters AtlantisTM premier BEH C18 AX column (2.1 × 100mm x 1.7μm); Flow rate: 0.3mL/min; Mobile phase A and B are water and methnaol, respectively, both with 0.1% formic acid; Gradient elution: from A/B (95/5) to A/B (100/0) in 7min, kept for 4 min, then back to A/B (95/5) in 0.1 min, and maintained for additional 1.9 min (13min in total).; Injection volume: 10 μL
Num peaks: 38
68.99639 7142
111.00687 26737
129.01764 92245
130.01898 2976
130.02826 2991
130.03905 2529
139.00195 44523
140.00542 1703
157.01294 11901
185.08047 34319
186.08661 2052
223.02905 2936
225.04468 1867
259.14545 2335
259.1557 2308
264.09564 1727
268.0546 1708
268.07227 1849
283.0881 2641
296.08307 1710
296.10251 2712
297.10141 1935
324.13281 3577
352.16074 2598
352.17599 2611
357.14886 1760
365.19431 9026
373.1684 3799
401.2027 3621
422.20636 10189
422.70642 3857
425.21362 166891
426.21744 30570
427.22031 3622
441.18771 3315
459.18964 1799
487.18256 2234
487.20596 1724
Name: Tributyl acetylcitrate
PrecursorMZ: 843.4158
PrecursorType: [2M+K]+
IonMode: Positive
Formula: C20H34O8
SMILES: CCCCOC(=O)CC(CC(=O)OCCCC)(C(=O)OCCCC)OC(=O)C
InChI: 
InChIKey: QZCLKYGREBVARF-UHFFFAOYSA-N
RetentionTime: 7.577617
CCS: 
CollisionEnergy: 20-40 eV
InstrumentType: UPLC-QTOF-MS
Comment: PI: Cristina Nerin; Data collector: QiZhi Su, GUIA, University of Zaragoza, Spain; Collision energy: 20-40 V; Instrument: Waters HPLC-QTOF-MS (Xevo G2 QTof); Ionization: ESI; Deconvoluted by MS-DIAL; Column: Waters AtlantisTM premier BEH C18 AX column (2.1 × 100mm x 1.7μm); Flow rate: 0.3mL/min; Mobile phase A and B are water and methnaol, respectively, both with 0.1% formic acid; Gradient elution: from A/B (95/5) to A/B (100/0) in 7min, kept for 4 min, then back to A/B (95/5) in 0.1 min, and maintained for additional 1.9 min (13min in total).; Injection volume: 10 μL
Num peaks: 38
57.06946 3756
68.99604 42689
69.01355 42733
87.00681 7436
111.00677 122746
112.01028 4505
129.0174 361578
130.00131 14681
130.02107 15043
139.00175 178072
139.0211 178111
140.00533 8207
140.02145 8234
157.01245 45763
185.0802 124835
186.08369 9571
217.03432 6218
259.1543 7600
268.07043 4828
268.08047 4817
296.10144 7030
313.09738 9214
324.13129 8794
345.12521 4407
345.13919 4391
352.16278 7563
365.19272 15204
373.16833 12637
373.67004 4050
401.19858 11653
401.69974 4584
422.20355 34337
422.70685 14799
423.20514 3776
425.21283 344387
426.2164 68158
427.21921 7966
441.18808 7255
Name: Diphenyl sulfone
PrecursorMZ: 241.0297
PrecursorType: [M+Na]+
IonMode: Positive
Formula: C12H10O2S
SMILES: C1=CC=C(C=C1)S(=O)(=O)C2=CC=CC=C2
InChI: 
InChIKey: KZTYYGOKRVBIMI-UHFFFAOYSA-N
RetentionTime: 5.487558
CCS: 
CollisionEnergy: 20-40 eV
InstrumentType: UPLC-QTOF-MS
Comment: PI: Cristina Nerin; Data collector: QiZhi Su, GUIA, University of Zaragoza, Spain; Collision energy: 20-40 V; Instrument: Waters HPLC-QTOF-MS (Xevo G2 QTof); Ionization: ESI; Deconvoluted by MS-DIAL; Column: Waters AtlantisTM premier BEH C18 AX column (2.1 × 100mm x 1.7μm); Flow rate: 0.3mL/min; Mobile phase A and B are water and methnaol, respectively, both with 0.1% formic acid; Gradient elution: from A/B (95/5) to A/B (100/0) in 7min, kept for 4 min, then back to A/B (95/5) in 0.1 min, and maintained for additional 1.9 min (13min in total).; Injection volume: 10 μL
Num peaks: 21
77.03817 21338
78.04297 1102
78.04997 1097
117.00033 440
117.00964 449
117.02094 253
125.00318 243
125.01035 242
128.99376 261
129.00157 267
132.99635 214
141.00104 1162
141.02005 1329
180.94327 1083
180.96304 1981
238.02251 1880
238.50406 349
238.52287 507
238.53467 499
239.01677 217
239.02812 218
Name: Ethylene dioleamide
PrecursorMZ: 1178.129
PrecursorType: [2M+H]+
IonMode: Positive
Formula: C38H72N2O2
SMILES: CCCCCCCCC=CCCCCCCCC(=O)NCCNC(=O)CCCCCCCC=CCCCCCCCC
InChI: 
InChIKey: OXDXXMDEEFOVHR-CLFAGFIQSA-N
RetentionTime: 11.09852
CCS: 
CollisionEnergy: 20-40 eV
InstrumentType: UPLC-QTOF-MS
Comment: PI: Cristina Nerin; Data collector: QiZhi Su, GUIA, University of Zaragoza, Spain; Collision energy: 20-40 V; Instrument: Waters HPLC-QTOF-MS (Xevo G2 QTof); Ionization: ESI; Deconvoluted by MS-DIAL; Column: Waters AtlantisTM premier BEH C18 AX column (2.1 × 100mm x 1.7μm); Flow rate: 0.3mL/min; Mobile phase A and B are water and methnaol, respectively, both with 0.1% formic acid; Gradient elution: from A/B (95/5) to A/B (100/0) in 7min, kept for 4 min, then back to A/B (95/5) in 0.1 min, and maintained for additional 1.9 min (13min in total).; Injection volume: 10 μL
Num peaks: 23
307.311 39176
308.29581 118311
309.29932 21608
310.30472 1322
314.26047 5360
314.75128 2256
314.76624 2186
325.32132 30642
326.32587 4651
589.56641 124136
590.56982 38193
591.57605 4689
608.54047 24033
609.04272 19796
609.54254 7788
610.03784 1974
610.05731 1747
611.54834 66735
612.55182 23787
613.55853 3039
627.52002 3969
903.3197 56127
904.32208 13254
Name: Hexadecanamide
PrecursorMZ: 256.2641
PrecursorType: [M+H]+
IonMode: Positive
Formula: C16H33NO
SMILES: CCCCCCCCCCCCCCCC(=O)N
InChI: 
InChIKey: HSEMFIZWXHQJAE-UHFFFAOYSA-N
RetentionTime: 8.1662
CCS: 
CollisionEnergy: 20-40 eV
InstrumentType: UPLC-QTOF-MS
Comment: PI: Cristina Nerin; Data collector: QiZhi Su, GUIA, University of Zaragoza, Spain; Collision energy: 20-40 V; Instrument: Waters HPLC-QTOF-MS (Xevo G2 QTof); Ionization: ESI; Deconvoluted by MS-DIAL; Column: Waters AtlantisTM premier BEH C18 AX column (2.1 × 100mm x 1.7μm); Flow rate: 0.3mL/min; Mobile phase A and B are water and methnaol, respectively, both with 0.1% formic acid; Gradient elution: from A/B (95/5) to A/B (100/0) in 7min, kept for 4 min, then back to A/B (95/5) in 0.1 min, and maintained for additional 1.9 min (13min in total).; Injection volume: 10 μL
Num peaks: 16
57.07043 724
57.0777 725
69.05919 510
69.06992 512
71.08681 557
74.04766 1154
74.06159 1196
74.06989 1567
74.0751 1150
88.05878 5809
88.07548 5814
102.091 2933
116.10706 865
147.0652 1376
237.10085 475
256.26382 44511
Name: Hexadecanamide
PrecursorMZ: 278.2455
PrecursorType: [M+Na]+
IonMode: Positive
Formula: C16H33NO
SMILES: CCCCCCCCCCCCCCCC(=O)N
InChI: 
InChIKey: HSEMFIZWXHQJAE-UHFFFAOYSA-N
RetentionTime: 8.164894
CCS: 
CollisionEnergy: 20-40 eV
InstrumentType: UPLC-QTOF-MS
Comment: PI: Cristina Nerin; Data collector: QiZhi Su, GUIA, University of Zaragoza, Spain; Collision energy: 20-40 V; Instrument: Waters HPLC-QTOF-MS (Xevo G2 QTof); Ionization: ESI; Deconvoluted by MS-DIAL; Column: Waters AtlantisTM premier BEH C18 AX column (2.1 × 100mm x 1.7μm); Flow rate: 0.3mL/min; Mobile phase A and B are water and methnaol, respectively, both with 0.1% formic acid; Gradient elution: from A/B (95/5) to A/B (100/0) in 7min, kept for 4 min, then back to A/B (95/5) in 0.1 min, and maintained for additional 1.9 min (13min in total).; Injection volume: 10 μL
Num peaks: 10
74.04824 4977
74.0592 4987
74.07356 5455
88.07475 29261
102.0908 15316
256.26282 398549
257.26611 65979
275.23618 29367
275.73822 9603
278.24527 10187
Name: Diallyl phthalate
PrecursorMZ: 285.0533
PrecursorType: [M+K]+
IonMode: Positive
Formula: C14H14O4
SMILES: C=CCOC(=O)C1=CC=CC=C1C(=O)OCC=C
InChI: 
InChIKey: QUDWYFHPNIMBFC-UHFFFAOYSA-N
RetentionTime: 6.373667
CCS: 
CollisionEnergy: 20-40 eV
InstrumentType: UPLC-QTOF-MS
Comment: PI: Cristina Nerin; Data collector: QiZhi Su, GUIA, University of Zaragoza, Spain; Collision energy: 20-40 V; Instrument: Waters HPLC-QTOF-MS (Xevo G2 QTof); Ionization: ESI; Deconvoluted by MS-DIAL; Column: Waters AtlantisTM premier BEH C18 AX column (2.1 × 100mm x 1.7μm); Flow rate: 0.3mL/min; Mobile phase A and B are water and methnaol, respectively, both with 0.1% formic acid; Gradient elution: from A/B (95/5) to A/B (100/0) in 7min, kept for 4 min, then back to A/B (95/5) in 0.1 min, and maintained for additional 1.9 min (13min in total).; Injection volume: 10 μL
Num peaks: 29
96.99553 6580
98.97788 338
98.9892 365
144.99092 773
145.00224 780
155.01471 629
155.02443 680
155.0397 305
160.9882 1264
160.99585 1264
161.00961 955
170.99927 451
171.01108 442
185.03757 403
185.05171 344
188.98 483
188.98944 501
188.99817 514
201.02278 19518
202.02461 1216
202.03409 1230
245.01273 27497
246.01817 1969
247.01132 324
247.02716 312
249.00761 350
249.02435 307
269.07956 5117
270.08655 547
Name: Octicizer
PrecursorMZ: 363.1732
PrecursorType: [M+H]+
IonMode: Positive
Formula: C20H27O4P
SMILES: CCCCC(CC)COP(=O)(OC1=CC=CC=C1)OC2=CC=CC=C2
InChI: 
InChIKey: CGSLYBDCEGBZCG-UHFFFAOYSA-N
RetentionTime: 7.82108
CCS: 
CollisionEnergy: 20-40 eV
InstrumentType: UPLC-QTOF-MS
Comment: PI: Cristina Nerin; Data collector: QiZhi Su, GUIA, University of Zaragoza, Spain; Collision energy: 20-40 V; Instrument: Waters HPLC-QTOF-MS (Xevo G2 QTof); Ionization: ESI; Deconvoluted by MS-DIAL; Column: Waters AtlantisTM premier BEH C18 AX column (2.1 × 100mm x 1.7μm); Flow rate: 0.3mL/min; Mobile phase A and B are water and methnaol, respectively, both with 0.1% formic acid; Gradient elution: from A/B (95/5) to A/B (100/0) in 7min, kept for 4 min, then back to A/B (95/5) in 0.1 min, and maintained for additional 1.9 min (13min in total).; Injection volume: 10 μL
Num peaks: 13
77.0377 45591
95.04912 8521
152.06184 20258
153.06865 18515
175.01529 6229
194.951 3626
215.02484 9242
233.0361 4248
251.04643 238926
252.04984 25830
273.02835 69184
274.03113 6110
288.99362 8828
Name: Octicizer
PrecursorMZ: 380.2015
PrecursorType: [M+NH4]+
IonMode: Positive
Formula: C20H27O4P
SMILES: CCCCC(CC)COP(=O)(OC1=CC=CC=C1)OC2=CC=CC=C2
InChI: 
InChIKey: CGSLYBDCEGBZCG-UHFFFAOYSA-N
RetentionTime: 7.820867
CCS: 
CollisionEnergy: 20-40 eV
InstrumentType: UPLC-QTOF-MS
Comment: PI: Cristina Nerin; Data collector: QiZhi Su, GUIA, University of Zaragoza, Spain; Collision energy: 20-40 V; Instrument: Waters HPLC-QTOF-MS (Xevo G2 QTof); Ionization: ESI; Deconvoluted by MS-DIAL; Column: Waters AtlantisTM premier BEH C18 AX column (2.1 × 100mm x 1.7μm); Flow rate: 0.3mL/min; Mobile phase A and B are water and methnaol, respectively, both with 0.1% formic acid; Gradient elution: from A/B (95/5) to A/B (100/0) in 7min, kept for 4 min, then back to A/B (95/5) in 0.1 min, and maintained for additional 1.9 min (13min in total).; Injection volume: 10 μL
Num peaks: 14
77.0379 45591
77.05739 45655
95.04884 8521
152.06187 20258
153.06929 18515
175.01556 6229
194.95183 3636
215.02626 9242
233.03719 4245
251.04704 238926
252.05011 25828
273.02917 69185
274.03296 6112
288.99478 8826
Name: Octicizer
PrecursorMZ: 385.154
PrecursorType: [M+Na]+
IonMode: Positive
Formula: C20H27O4P
SMILES: CCCCC(CC)COP(=O)(OC1=CC=CC=C1)OC2=CC=CC=C2
InChI: 
InChIKey: CGSLYBDCEGBZCG-UHFFFAOYSA-N
RetentionTime: 7.812986
CCS: 
CollisionEnergy: 20-40 eV
InstrumentType: UPLC-QTOF-MS
Comment: PI: Cristina Nerin; Data collector: QiZhi Su, GUIA, University of Zaragoza, Spain; Collision energy: 20-40 V; Instrument: Waters HPLC-QTOF-MS (Xevo G2 QTof); Ionization: ESI; Deconvoluted by MS-DIAL; Column: Waters AtlantisTM premier BEH C18 AX column (2.1 × 100mm x 1.7μm); Flow rate: 0.3mL/min; Mobile phase A and B are water and methnaol, respectively, both with 0.1% formic acid; Gradient elution: from A/B (95/5) to A/B (100/0) in 7min, kept for 4 min, then back to A/B (95/5) in 0.1 min, and maintained for additional 1.9 min (13min in total).; Injection volume: 10 μL
Num peaks: 15
77.0379 45591
77.05739 45655
95.04884 8521
152.06187 20258
153.06929 18515
175.01556 6229
194.95183 3636
215.02626 9242
233.03719 4245
251.04704 238926
252.05011 25828
273.02917 69185
274.03296 6112
288.99478 8826
385.15311 110446
Name: Octicizer
PrecursorMZ: 401.1296
PrecursorType: [M+K]+
IonMode: Positive
Formula: C20H27O4P
SMILES: CCCCC(CC)COP(=O)(OC1=CC=CC=C1)OC2=CC=CC=C2
InChI: 
InChIKey: CGSLYBDCEGBZCG-UHFFFAOYSA-N
RetentionTime: 7.82108
CCS: 
CollisionEnergy: 20-40 eV
InstrumentType: UPLC-QTOF-MS
Comment: PI: Cristina Nerin; Data collector: QiZhi Su, GUIA, University of Zaragoza, Spain; Collision energy: 20-40 V; Instrument: Waters HPLC-QTOF-MS (Xevo G2 QTof); Ionization: ESI; Deconvoluted by MS-DIAL; Column: Waters AtlantisTM premier BEH C18 AX column (2.1 × 100mm x 1.7μm); Flow rate: 0.3mL/min; Mobile phase A and B are water and methnaol, respectively, both with 0.1% formic acid; Gradient elution: from A/B (95/5) to A/B (100/0) in 7min, kept for 4 min, then back to A/B (95/5) in 0.1 min, and maintained for additional 1.9 min (13min in total).; Injection volume: 10 μL
Num peaks: 15
77.03788 74100
95.04857 14513
152.06158 35530
153.06891 33704
175.01585 12868
215.02602 17161
233.03679 8052
251.04695 600685
252.0504 72634
253.05345 6374
273.0289 117692
274.03259 11058
385.15326 173128
386.15674 30875
395.03912 15843
Name: "5-Amino-1,3,3-trimethylcyclohexanemethylamine"
PrecursorMZ: 171.1861
PrecursorType: [M+H]+
IonMode: Positive
Formula: C10H22N2
SMILES: CC1(CC(CC(C1)(C)CN)N)C
InChI: 
InChIKey: RNLHGQLZWXBQNY-UHFFFAOYSA-N
RetentionTime: 0.5125722
CCS: 
CollisionEnergy: 20-40 eV
InstrumentType: UPLC-QTOF-MS
Comment: PI: Cristina Nerin; Data collector: QiZhi Su, GUIA, University of Zaragoza, Spain; Collision energy: 20-40 V; Instrument: Waters HPLC-QTOF-MS (Xevo G2 QTof); Ionization: ESI; Deconvoluted by MS-DIAL; Column: Waters AtlantisTM premier BEH C18 AX column (2.1 × 100mm x 1.7μm); Flow rate: 0.3mL/min; Mobile phase A and B are water and methnaol, respectively, both with 0.1% formic acid; Gradient elution: from A/B (95/5) to A/B (100/0) in 7min, kept for 4 min, then back to A/B (95/5) in 0.1 min, and maintained for additional 1.9 min (13min in total).; Injection volume: 10 μL
Num peaks: 49
67.05264 234
67.05733 234
69.07069 133
77.0338 188
77.03923 193
77.04431 193
79.05089 390
79.05798 392
81.0526 745
81.06882 954
81.07354 954
82.06864 110
82.07539 99
83.04997 113
86.09393 83
86.09903 83
91.05333 103
91.06322 106
93.0644 139
93.07079 138
95.08414 1058
95.0924 1043
96.07643 138
96.08511 134
96.09199 123
103.05323 324
103.06357 323
104.06249 165
105.06998 7015
106.06165 473
106.07541 478
109.0831 87
109.10112 80
112.07486 97
112.08371 92
120.07965 864
132.08133 499
132.09164 499
137.13159 539
137.13815 537
137.14789 493
148.1031 73
148.11238 76
154.1554 797
154.16344 797
155.1682 89
161.10869 122
161.11887 124
166.15698 264
Name: Diallyl phthalate
PrecursorMZ: 515.171
PrecursorType: [2M+Na]+
IonMode: Positive
Formula: C14H14O4
SMILES: C=CCOC(=O)C1=CC=CC=C1C(=O)OCC=C
InChI: 
InChIKey: QUDWYFHPNIMBFC-UHFFFAOYSA-N
RetentionTime: 6.372372
CCS: 
CollisionEnergy: 20-40 eV
InstrumentType: UPLC-QTOF-MS
Comment: PI: Cristina Nerin; Data collector: QiZhi Su, GUIA, University of Zaragoza, Spain; Collision energy: 20-40 V; Instrument: Waters HPLC-QTOF-MS (Xevo G2 QTof); Ionization: ESI; Deconvoluted by MS-DIAL; Column: Waters AtlantisTM premier BEH C18 AX column (2.1 × 100mm x 1.7μm); Flow rate: 0.3mL/min; Mobile phase A and B are water and methnaol, respectively, both with 0.1% formic acid; Gradient elution: from A/B (95/5) to A/B (100/0) in 7min, kept for 4 min, then back to A/B (95/5) in 0.1 min, and maintained for additional 1.9 min (13min in total).; Injection volume: 10 μL
Num peaks: 40
96.99642 5604
98.97106 342
98.9786 369
98.98711 386
99.00323 397
144.99658 754
155.01001 599
155.01793 611
157.03351 276
157.04326 286
160.97313 582
160.99187 984
161.00116 971
161.01244 445
171.01305 420
171.03191 226
185.03319 314
185.04611 339
185.05901 288
188.9805 392
188.9897 393
201.02237 15704
202.02747 1253
227.00638 206
245.01271 20370
246.01357 1681
246.02588 1691
247.00909 248
249.00452 324
249.01535 317
269.07922 3234
270.06863 347
270.08243 365
270.09903 332
331.03812 483
331.0499 558
331.0625 531
343.08536 1356
343.10324 1050
491.10437 736
Name: Octicizer
PrecursorMZ: 725.3401
PrecursorType: [2M+H]+
IonMode: Positive
Formula: C20H27O4P
SMILES: CCCCC(CC)COP(=O)(OC1=CC=CC=C1)OC2=CC=CC=C2
InChI: 
InChIKey: CGSLYBDCEGBZCG-UHFFFAOYSA-N
RetentionTime: 7.82108
CCS: 
CollisionEnergy: 20-40 eV
InstrumentType: UPLC-QTOF-MS
Comment: PI: Cristina Nerin; Data collector: QiZhi Su, GUIA, University of Zaragoza, Spain; Collision energy: 20-40 V; Instrument: Waters HPLC-QTOF-MS (Xevo G2 QTof); Ionization: ESI; Deconvoluted by MS-DIAL; Column: Waters AtlantisTM premier BEH C18 AX column (2.1 × 100mm x 1.7μm); Flow rate: 0.3mL/min; Mobile phase A and B are water and methnaol, respectively, both with 0.1% formic acid; Gradient elution: from A/B (95/5) to A/B (100/0) in 7min, kept for 4 min, then back to A/B (95/5) in 0.1 min, and maintained for additional 1.9 min (13min in total).; Injection volume: 10 μL
Num peaks: 18
77.03788 74100
95.04857 14513
152.06158 35530
153.06891 33704
175.01585 12868
215.02602 17161
233.03679 8052
251.04695 600712
252.0504 72634
253.05345 6345
273.0289 117692
274.03259 11058
385.15326 173128
386.15674 30875
395.03912 15843
444.99176 7410
539.03271 75563
540.03748 14439
Name: Octicizer
PrecursorMZ: 742.3693
PrecursorType: [2M+NH4]+
IonMode: Positive
Formula: C20H27O4P
SMILES: CCCCC(CC)COP(=O)(OC1=CC=CC=C1)OC2=CC=CC=C2
InChI: 
InChIKey: CGSLYBDCEGBZCG-UHFFFAOYSA-N
RetentionTime: 7.820863
CCS: 
CollisionEnergy: 20-40 eV
InstrumentType: UPLC-QTOF-MS
Comment: PI: Cristina Nerin; Data collector: QiZhi Su, GUIA, University of Zaragoza, Spain; Collision energy: 20-40 V; Instrument: Waters HPLC-QTOF-MS (Xevo G2 QTof); Ionization: ESI; Deconvoluted by MS-DIAL; Column: Waters AtlantisTM premier BEH C18 AX column (2.1 × 100mm x 1.7μm); Flow rate: 0.3mL/min; Mobile phase A and B are water and methnaol, respectively, both with 0.1% formic acid; Gradient elution: from A/B (95/5) to A/B (100/0) in 7min, kept for 4 min, then back to A/B (95/5) in 0.1 min, and maintained for additional 1.9 min (13min in total).; Injection volume: 10 μL
Num peaks: 20
77.02335 74099
77.03783 74054
95.04876 14482
152.06128 35465
153.06892 33666
175.01532 12846
215.02588 17104
233.03654 8046
251.0468 600828
252.04974 72618
253.0535 6351
273.02863 117678
274.03207 11059
385.15298 173133
386.15634 30874
395.03864 15843
444.99127 7406
539.03223 75563
540.03595 14435
651.15747 6543
Name: Octicizer
PrecursorMZ: 747.3207
PrecursorType: [2M+Na]+
IonMode: Positive
Formula: C20H27O4P
SMILES: CCCCC(CC)COP(=O)(OC1=CC=CC=C1)OC2=CC=CC=C2
InChI: 
InChIKey: CGSLYBDCEGBZCG-UHFFFAOYSA-N
RetentionTime: 7.820317
CCS: 
CollisionEnergy: 20-40 eV
InstrumentType: UPLC-QTOF-MS
Comment: PI: Cristina Nerin; Data collector: QiZhi Su, GUIA, University of Zaragoza, Spain; Collision energy: 20-40 V; Instrument: Waters HPLC-QTOF-MS (Xevo G2 QTof); Ionization: ESI; Deconvoluted by MS-DIAL; Column: Waters AtlantisTM premier BEH C18 AX column (2.1 × 100mm x 1.7μm); Flow rate: 0.3mL/min; Mobile phase A and B are water and methnaol, respectively, both with 0.1% formic acid; Gradient elution: from A/B (95/5) to A/B (100/0) in 7min, kept for 4 min, then back to A/B (95/5) in 0.1 min, and maintained for additional 1.9 min (13min in total).; Injection volume: 10 μL
Num peaks: 26
73.02608 2220
77.03789 26028
78.0396 1080
78.04518 1077
95.04871 4881
152.06187 10518
153.06944 9703
168.05833 1225
168.07352 1132
175.01587 3743
194.95262 2842
215.0266 4769
233.03976 2139
251.0464 103990
252.04974 9521
273.0285 32735
274.03284 2632
288.99475 7687
334.99161 1237
335.00574 1227
385.15292 46576
386.15689 6898
395.04007 1523
444.99017 1376
539.03064 8141
540.03815 1490
Name: Octicizer
PrecursorMZ: 763.2978
PrecursorType: [2M+K]+
IonMode: Positive
Formula: C20H27O4P
SMILES: CCCCC(CC)COP(=O)(OC1=CC=CC=C1)OC2=CC=CC=C2
InChI: 
InChIKey: CGSLYBDCEGBZCG-UHFFFAOYSA-N
RetentionTime: 7.820533
CCS: 
CollisionEnergy: 20-40 eV
InstrumentType: UPLC-QTOF-MS
Comment: PI: Cristina Nerin; Data collector: QiZhi Su, GUIA, University of Zaragoza, Spain; Collision energy: 20-40 V; Instrument: Waters HPLC-QTOF-MS (Xevo G2 QTof); Ionization: ESI; Deconvoluted by MS-DIAL; Column: Waters AtlantisTM premier BEH C18 AX column (2.1 × 100mm x 1.7μm); Flow rate: 0.3mL/min; Mobile phase A and B are water and methnaol, respectively, both with 0.1% formic acid; Gradient elution: from A/B (95/5) to A/B (100/0) in 7min, kept for 4 min, then back to A/B (95/5) in 0.1 min, and maintained for additional 1.9 min (13min in total).; Injection volume: 10 μL
Num peaks: 18
77.03788 74100
95.04857 14513
152.06158 35530
153.06891 33704
175.01585 12868
215.02602 17161
233.03679 8052
251.04695 600712
252.0504 72634
253.05345 6345
273.0289 117692
274.03259 11058
385.15326 173128
386.15674 30875
395.03912 15843
444.99176 7410
539.03271 75563
540.03748 14439
Name: Diallyl phthalate
PrecursorMZ: 247.0973
PrecursorType: [M+H]+
IonMode: Positive
Formula: C14H14O4
SMILES: C=CCOC(=O)C1=CC=CC=C1C(=O)OCC=C
InChI: 
InChIKey: QUDWYFHPNIMBFC-UHFFFAOYSA-N
RetentionTime: 6.373667
CCS: 
CollisionEnergy: 20-40 eV
InstrumentType: UPLC-QTOF-MS
Comment: PI: Cristina Nerin; Data collector: QiZhi Su, GUIA, University of Zaragoza, Spain; Collision energy: 20-40 V; Instrument: Waters HPLC-QTOF-MS (Xevo G2 QTof); Ionization: ESI; Deconvoluted by MS-DIAL; Column: Waters AtlantisTM premier BEH C18 AX column (2.1 × 100mm x 1.7μm); Flow rate: 0.3mL/min; Mobile phase A and B are water and methnaol, respectively, both with 0.1% formic acid; Gradient elution: from A/B (95/5) to A/B (100/0) in 7min, kept for 4 min, then back to A/B (95/5) in 0.1 min, and maintained for additional 1.9 min (13min in total).; Injection volume: 10 μL
Num peaks: 28
96.99642 5604
98.97106 342
98.9786 369
98.98711 386
99.00323 397
144.99658 754
155.01001 599
155.01793 611
157.03351 276
157.04326 286
160.97313 582
160.99187 984
161.00116 971
161.01244 445
171.01305 420
171.03191 226
185.03319 314
185.04611 339
185.05901 288
188.9805 392
188.9897 393
201.02237 15704
202.02747 1253
227.00638 206
245.01271 20370
246.01357 1681
246.02588 1691
247.00909 248
Name: Diallyl phthalate
PrecursorMZ: 269.0797
PrecursorType: [M+Na]+
IonMode: Positive
Formula: C14H14O4
SMILES: C=CCOC(=O)C1=CC=CC=C1C(=O)OCC=C
InChI: 
InChIKey: QUDWYFHPNIMBFC-UHFFFAOYSA-N
RetentionTime: 6.373719
CCS: 
CollisionEnergy: 20-40 eV
InstrumentType: UPLC-QTOF-MS
Comment: PI: Cristina Nerin; Data collector: QiZhi Su, GUIA, University of Zaragoza, Spain; Collision energy: 20-40 V; Instrument: Waters HPLC-QTOF-MS (Xevo G2 QTof); Ionization: ESI; Deconvoluted by MS-DIAL; Column: Waters AtlantisTM premier BEH C18 AX column (2.1 × 100mm x 1.7μm); Flow rate: 0.3mL/min; Mobile phase A and B are water and methnaol, respectively, both with 0.1% formic acid; Gradient elution: from A/B (95/5) to A/B (100/0) in 7min, kept for 4 min, then back to A/B (95/5) in 0.1 min, and maintained for additional 1.9 min (13min in total).; Injection volume: 10 μL
Num peaks: 415
52.03192 27
54.51943 34
55.01542 67
55.05023 51
56.96802 59
56.97276 35
57.06867 42
58.06934 38
58.38086 31
59.41711 46
62.4084 76
64.97015 25
65.04014 33
67.05058 89
67.0563 141
67.2592 35
68.97988 42
68.98503 34
69.00375 26
69.03362 25
69.06894 175
70.003 25
70.97937 61
71.00745 25
71.04814 66
72.13293 139
73.04258 27
73.05015 102
73.06732 27
74.09959 77
75.18566 26
77.03905 129
78.98926 34
79.05135 98
79.05755 312
80.05272 43
80.97464 52
81.02763 32
81.03373 28
81.06866 319
82.98127 43
83.04759 27
83.05457 136
83.08081 53
83.08861 26
84.08939 42
84.77116 34
84.95428 95
84.96058 543
85.02941 36
85.41513 27
86.08629 34
86.45415 47
86.96532 27
88.94537 28
90.09216 35
90.18747 41
91.05281 120
91.05872 177
92.5183 33
93.03426 30
93.068 81
93.07244 86
93.99993 32
95.02114 34
95.04736 121
95.08411 128
95.09069 45
95.22511 47
96.09714 28
96.99603 1819
97.10197 48
97.1563 65
98.10499 27
98.98392 791
99.04151 62
99.07993 49
100.00075 36
101.00365 28
103.05632 29
104.96217 43
105.06747 67
105.07458 49
105.96759 36
107.01408 26
107.08406 104
107.08927 61
108.05203 36
108.08614 25
109.04594 25
109.0587 36
109.07124 78
109.09691 58
109.10498 146
110.06612 28
111.04954 64
111.08072 44
112.70387 29
113.02677 176
114.07602 36
114.38775 73
114.95412 92
115.00776 52
115.05345 89
115.07446 33
115.10091 27
116.05898 53
117.07391 52
117.08169 46
117.50825 52
118.00871 26
118.05289 25
118.08266 27
118.92805 61
119.08199 37
119.08918 129
120.08611 36
121.02972 25
121.10072 111
123.06001 25
123.08958 35
123.11899 40
124.00008 47
124.05408 31
125.01375 44
125.02426 25
125.08192 28
126.06087 55
128.06456 28
129.05418 35
130.97955 45
131.01323 28
131.0248 28
131.09012 73
132.99995 39
133.09193 119
133.10001 78
133.10806 25
134.01938 30
134.06339 47
134.99516 28
135.02133 52
135.0419 29
135.08224 56
135.08665 29
135.93288 41
135.99338 55
136.10825 111
136.12753 55
136.92914 25
137.0665 76
137.07417 25
137.09346 69
137.09959 50
137.13681 46
139.00731 26
139.10707 29
139.11618 42
140.06642 26
141.1073 27
142.27606 28
142.97742 39
143.00214 25
143.0137 69
143.09244 30
144.99454 113
145.05763 40
145.0972 55
145.12419 45
147.08208 81
149.03369 89
149.04541 50
149.06557 85
149.13229 66
151.01341 51
151.0499 45
151.07553 52
151.98322 25
152.06393 38
153.12071 28
153.13052 77
154.17903 37
155.00912 88
155.01927 159
155.14258 29
156.01675 27
156.02711 57
156.9229 49
157.02849 59
157.03699 57
158.11241 47
158.99818 28
159.01962 42
159.0737 28
159.0919 31
160.94247 31
160.98665 153
161.00117 71
161.02444 90
161.04709 28
161.09283 69
161.1347 48
161.81847 29
163.03699 131
163.0654 43
163.56667 27
164.06529 49
164.07478 37
164.12465 27
165.05693 26
165.13382 27
166.01065 28
167.02551 78
167.06262 25
167.10863 52
167.12257 36
167.59372 29
168.06413 33
168.07701 92
169.00182 47
169.01732 32
169.99965 25
170.98691 26
171.01384 34
171.02199 33
171.06111 25
171.06972 56
171.07939 26
171.09625 27
172.02158 55
174.01927 43
175.04266 49
175.07996 54
176.01392 82
176.05948 25
176.99672 50
177.0833 40
177.09174 95
178.14049 57
179.03271 27
181.01752 30
181.05942 25
182.59621 27
182.96701 28
183.00795 59
183.0218 27
183.11404 122
184.07878 28
185.04286 30
185.53615 27
186.81711 25
187.15407 30
188.97635 115
188.98622 71
188.99832 73
189.01385 33
189.02412 47
189.03851 51
189.05608 122
189.067 59
190.04814 27
190.09508 30
190.13452 77
190.95125 26
190.96768 45
190.98949 101
190.9984 332
191.00623 315
191.10173 34
192.00082 142
192.01289 72
192.98511 25
193.0461 79
193.08405 25
194.03067 28
194.03885 32
194.06758 30
194.17143 53
194.50188 25
194.9684 28
195.07433 99
195.09549 45
195.10881 26
197.08 30
198.95549 26
199.12343 25
200.09714 25
200.61908 27
201.02333 2458
201.05505 59
201.07091 68
202.02673 140
202.03534 100
202.12616 32
203.03123 28
203.08215 45
203.19522 26
203.25699 29
204.08791 51
205.0239 33
205.06868 30
207.0322 875
207.07196 27
207.0995 67
207.1097 35
207.17564 54
208.01651 38
208.03069 106
208.04376 64
209.01529 34
209.03638 57
209.08688 27
209.1288 25
210.1263 53
210.98276 27
211.08249 28
212.23241 28
213.01854 33
213.04807 59
213.07341 34
213.13382 30
214.04155 26
215.06146 51
215.07945 28
215.18446 32
216.9942 45
217.0027 29
217.1711 47
217.96333 26
221.02814 42
221.05499 56
221.09186 82
221.13359 30
223.07782 56
225.02385 35
225.0396 50
225.0748 41
225.10902 68
225.14984 192
225.15802 110
226.04617 26
226.08057 34
226.15248 67
227.02792 26
227.06262 29
227.1628 32
228.06361 28
228.93169 28
232.05336 28
232.98315 27
233.03822 28
234.03043 32
234.12627 26
235.03781 27
235.11224 27
235.13165 37
235.21071 25
237.0701 51
237.08594 48
237.12195 29
239.04231 88
239.10297 27
239.13188 33
240.27115 26
241.07661 43
241.1393 39
241.42717 38
242.52708 31
242.65182 25
243.04005 58
244.05856 27
245.01439 1604
246.00117 27
246.01231 28
246.02443 54
247.01624 77
248.97845 33
249.11884 50
249.12909 27
249.99846 27
251.09822 102
251.1371 27
252.10666 41
252.12648 29
252.99374 28
253.0817 29
253.12094 25
253.16696 28
253.19698 25
255.0891 192
256.09622 63
257.04095 60
257.05832 45
257.07141 32
258.13925 27
259.09732 48
261.05859 37
261.08221 374
261.10818 28
261.15591 40
262.97983 47
263.15173 33
264.11099 36
264.13818 29
265.07034 29
265.14862 29
266.06024 57
267.03058 38
267.09607 33
268.06903 33
268.11304 25
268.18655 30
269.06967 240
269.0798 718
269.09485 109
Name: Dimethyl isophthalate
PrecursorMZ: 195.065
PrecursorType: [M+H]+
IonMode: Positive
Formula: C10H10O4
SMILES: COC(=O)C1=CC(=CC=C1)C(=O)OC
InChI: 
InChIKey: VNGOYPQMJFJDLV-UHFFFAOYSA-N
RetentionTime: 5.863067
CCS: 
CollisionEnergy: 20-40 eV
InstrumentType: UPLC-QTOF-MS
Comment: PI: Cristina Nerin; Data collector: QiZhi Su, GUIA, University of Zaragoza, Spain; Collision energy: 20-40 V; Instrument: Waters HPLC-QTOF-MS (Xevo G2 QTof); Ionization: ESI; Deconvoluted by MS-DIAL; Column: Waters AtlantisTM premier BEH C18 AX column (2.1 × 100mm x 1.7μm); Flow rate: 0.3mL/min; Mobile phase A and B are water and methnaol, respectively, both with 0.1% formic acid; Gradient elution: from A/B (95/5) to A/B (100/0) in 7min, kept for 4 min, then back to A/B (95/5) in 0.1 min, and maintained for additional 1.9 min (13min in total).; Injection volume: 10 μL
Num peaks: 48
59.01306 506
59.02416 510
65.03806 176
70.97937 175
75.01962 650
75.02435 637
77.03909 3074
78.03665 156
78.04491 156
79.03514 321
79.05305 302
91.05387 1957
92.0176 232
92.02171 232
92.02961 242
103.01752 1758
104.01534 198
104.02027 198
104.02647 198
104.03363 192
105.03319 3525
105.071 329
106.03959 167
107.04843 268
107.05682 287
119.0104 870
119.01775 872
119.04981 127
119.05939 136
120.02107 1043
133.02374 162
133.03378 159
135.02466 9696
135.04442 8194
136.04739 433
144.97858 135
144.99515 358
145.00336 348
151.05676 315
151.07603 355
151.08701 358
163.03856 10839
164.02933 506
164.04294 512
164.05272 505
172.9915 1678
195.05733 232
195.06918 323
Name: C20 ceramide
PrecursorMZ: 594.583
PrecursorType: [M+H]+
IonMode: Positive
Formula: C38H75NO3
SMILES: CCCCCCCCCCCCCCCCCCCC(=O)NC(CO)C(C=CCCCCCCCCCCCCC)O
InChI: 
InChIKey: XWBWIAOWSABHFI-NUKVNZTCSA-N
RetentionTime: 11.68953
CCS: 
CollisionEnergy: 20-40 eV
InstrumentType: UPLC-QTOF-MS
Comment: PI: Cristina Nerin; Data collector: QiZhi Su, GUIA, University of Zaragoza, Spain; Collision energy: 20-40 V; Instrument: Waters HPLC-QTOF-MS (Xevo G2 QTof); Ionization: ESI; Deconvoluted by MS-DIAL; Column: Waters AtlantisTM premier BEH C18 AX column (2.1 × 100mm x 1.7μm); Flow rate: 0.3mL/min; Mobile phase A and B are water and methnaol, respectively, both with 0.1% formic acid; Gradient elution: from A/B (95/5) to A/B (100/0) in 7min, kept for 4 min, then back to A/B (95/5) in 0.1 min, and maintained for additional 1.9 min (13min in total).; Injection volume: 10 μL
Num peaks: 12
252.27008 8060
264.26935 120540
265.27252 19511
282.27963 11306
283.27426 1227
283.28876 1246
558.54395 1480
558.56842 2736
576.57166 61482
577.57471 20892
578.5788 2682
594.58594 5946
Name: C20 ceramide
PrecursorMZ: 1188.161
PrecursorType: [2M+H]+
IonMode: Positive
Formula: C38H75NO3
SMILES: CCCCCCCCCCCCCCCCCCCC(=O)NC(CO)C(C=CCCCCCCCCCCCCC)O
InChI: 
InChIKey: XWBWIAOWSABHFI-NUKVNZTCSA-N
RetentionTime: 11.69335
CCS: 
CollisionEnergy: 20-40 eV
InstrumentType: UPLC-QTOF-MS
Comment: PI: Cristina Nerin; Data collector: QiZhi Su, GUIA, University of Zaragoza, Spain; Collision energy: 20-40 V; Instrument: Waters HPLC-QTOF-MS (Xevo G2 QTof); Ionization: ESI; Deconvoluted by MS-DIAL; Column: Waters AtlantisTM premier BEH C18 AX column (2.1 × 100mm x 1.7μm); Flow rate: 0.3mL/min; Mobile phase A and B are water and methnaol, respectively, both with 0.1% formic acid; Gradient elution: from A/B (95/5) to A/B (100/0) in 7min, kept for 4 min, then back to A/B (95/5) in 0.1 min, and maintained for additional 1.9 min (13min in total).; Injection volume: 10 μL
Num peaks: 17
252.26996 8060
264.26904 120540
265.27203 19511
282.27963 11374
283.27881 1233
558.55438 2147
558.57379 2417
576.57135 47983
577.57477 16262
578.57941 2226
594.58295 5920
595.59082 1826
613.55725 6450
614.05725 4506
614.54926 2682
616.56415 5438
617.57043 1749
Name: C20 ceramide
PrecursorMZ: 616.564
PrecursorType: [M+Na]+
IonMode: Positive
Formula: C38H75NO3
SMILES: CCCCCCCCCCCCCCCCCCCC(=O)NC(CO)C(C=CCCCCCCCCCCCCC)O
InChI: 
InChIKey: XWBWIAOWSABHFI-NUKVNZTCSA-N
RetentionTime: 11.70097
CCS: 
CollisionEnergy: 20-40 eV
InstrumentType: UPLC-QTOF-MS
Comment: PI: Cristina Nerin; Data collector: QiZhi Su, GUIA, University of Zaragoza, Spain; Collision energy: 20-40 V; Instrument: Waters HPLC-QTOF-MS (Xevo G2 QTof); Ionization: ESI; Deconvoluted by MS-DIAL; Column: Waters AtlantisTM premier BEH C18 AX column (2.1 × 100mm x 1.7μm); Flow rate: 0.3mL/min; Mobile phase A and B are water and methnaol, respectively, both with 0.1% formic acid; Gradient elution: from A/B (95/5) to A/B (100/0) in 7min, kept for 4 min, then back to A/B (95/5) in 0.1 min, and maintained for additional 1.9 min (13min in total).; Injection volume: 10 μL
Num peaks: 13
252.2695 8067
264.2684 120594
265.27179 19511
282.27994 11374
558.55988 2384
576.57007 49761
577.57526 18406
578.56592 1847
578.58948 2503
594.58325 5612
595.58368 1735
614.55817 1930
616.56305 14280
Name: C20 ceramide
PrecursorMZ: 632.5419
PrecursorType: [M+K]+
IonMode: Positive
Formula: C38H75NO3
SMILES: CCCCCCCCCCCCCCCCCCCC(=O)NC(CO)C(C=CCCCCCCCCCCCCC)O
InChI: 
InChIKey: XWBWIAOWSABHFI-NUKVNZTCSA-N
RetentionTime: 11.75425
CCS: 
CollisionEnergy: 20-40 eV
InstrumentType: UPLC-QTOF-MS
Comment: PI: Cristina Nerin; Data collector: QiZhi Su, GUIA, University of Zaragoza, Spain; Collision energy: 20-40 V; Instrument: Waters HPLC-QTOF-MS (Xevo G2 QTof); Ionization: ESI; Deconvoluted by MS-DIAL; Column: Waters AtlantisTM premier BEH C18 AX column (2.1 × 100mm x 1.7μm); Flow rate: 0.3mL/min; Mobile phase A and B are water and methnaol, respectively, both with 0.1% formic acid; Gradient elution: from A/B (95/5) to A/B (100/0) in 7min, kept for 4 min, then back to A/B (95/5) in 0.1 min, and maintained for additional 1.9 min (13min in total).; Injection volume: 10 μL
Num peaks: 522
50.00678 33
50.12227 21
50.1697 19
50.17547 32
50.29247 19
52.36466 28
52.38169 19
52.51601 18
52.52222 21
52.59881 30
52.75986 15
52.78305 17
53.02388 17
53.34269 25
53.55569 19
55.36565 17
55.68979 27
55.69459 15
56.29684 18
59.04763 16
60.08082 354
60.08924 362
60.75182 14
60.9861 15
61.01318 20
61.02034 17
61.02687 18
61.20393 14
61.43929 14
61.49562 26
61.80807 18
61.82751 34
62.06629 15
62.16518 19
64.18372 34
64.54196 20
64.85272 23
65.35113 22
67.04755 64
67.05142 61
67.05923 64
68.85189 21
68.87167 15
69.03694 18
69.24812 15
69.26392 14
69.48856 15
70.06544 35
71.06593 49
71.0855 17
71.43745 14
73.02498 50
74.03964 33
74.04496 24
74.05014 37
74.05923 40
74.29574 17
74.69064 25
74.82693 22
74.83527 23
74.84667 43
74.85844 29
75.04555 24
76.3697 20
79.03481 52
79.20085 23
80.06451 14
81.95351 21
81.96116 21
82.98309 14
83.06338 45
83.22803 14
84.70534 14
85.1008 30
85.10554 30
88.04073 14
89.04144 59
98.84955 18
98.95129 48
99.08447 23
101.07245 16
102.04193 17
105.00312 26
106.08217 16
109.02876 22
109.03489 14
109.05984 19
109.06546 14
111.11626 22
111.13086 22
119.07046 30
121.00441 32
121.05871 16
121.06772 18
123.5379 24
124.01091 18
125.05257 23
127.11272 18
129.07655 20
129.0927 18
130.15288 32
130.16101 31
131.01131 23
132.10478 14
133.06693 35
135.02016 25
135.04201 50
135.04768 41
135.1033 39
135.11771 32
139.00922 32
139.08151 18
141.07475 18
143.07298 24
143.08983 14
145.01445 45
145.02763 49
145.09895 15
145.61034 34
147.1203 36
148.08356 129
149.02376 60
149.09135 30
150.06209 22
155.08136 14
155.1454 19
156.07114 22
156.07954 32
156.90231 16
157.06705 24
158.16446 15
159.09215 20
160.12143 21
163.14919 15
166.09261 15
166.10097 18
166.17235 19
168.10004 17
173.07736 18
173.98911 26
174.09734 17
175.63519 111
175.64493 120
177.06354 19
177.13182 37
177.13977 29
181.07602 25
181.09302 16
182.09702 21
183.1752 22
184.06828 14
184.08145 21
185.01848 26
189.03285 28
193.09827 25
193.1272 23
193.14162 15
194.6555 68
199.03682 30
201.0506 17
202.09001 17
202.10144 26
202.87195 20
202.88602 16
205.08897 18
205.10303 17
207.05167 20
207.06903 63
207.10399 30
207.11308 17
208.07442 15
210.11743 18
211.147 37
215.14487 21
219.0237 15
221.16341 26
223.01671 17
223.14536 32
223.15627 41
223.96738 15
225.15077 16
226.05016 15
226.07188 32
227.05911 29
227.10652 17
231.13882 14
231.15196 18
235.07211 16
236.07112 17
236.09912 17
236.13225 25
237.11504 22
238.04794 16
238.13869 19
239.05196 18
242.02625 20
242.04158 23
244.1904 16
244.20749 26
250.10199 31
250.71568 17
251.08553 27
251.09702 21
251.12418 85
251.13654 16
253.19061 15
254.25214 24
254.26804 26
254.29031 19
255.09103 30
256.62518 15
258.06979 21
261.17407 24
262.63696 18
262.64719 18
262.90665 18
265.00421 35
267.02628 61
267.13126 22
267.14554 40
269.00336 22
277.04068 23
277.09042 48
277.10547 39
279.03558 15
281.14667 20
281.20541 16
284.03677 19
291.16251 27
291.17609 17
291.21069 17
292.75772 649
293.75638 65
294.23969 20
294.76392 26
295.16486 19
297.2048 19
297.73575 19
298.16824 25
298.75018 409
298.76404 353
299.26227 99
299.75391 25
303.17282 15
305.21307 21
307.2334 20
307.76297 50
307.7836 24
311.077 15
313.14713 15
313.17334 20
313.30945 22
314.32339 19
317.04547 22
317.26392 16
318.064 17
319.17871 31
319.20441 27
325.15762 20
325.17221 21
325.19449 20
325.21957 21
327.20242 14
327.97357 16
331.17416 14
335.21317 34
335.22446 45
335.2381 31
335.26254 16
335.27444 36
337.00699 34
337.02655 39
337.18384 27
338.15259 14
338.18146 31
338.19583 26
339.14536 23
339.17673 24
341.04181 76
341.74057 16
342.00888 30
344.02463 23
345.01819 25
346.22272 23
346.241 26
347.18149 22
347.19647 28
347.27634 16
348.24393 14
349.19647 14
350.24539 18
350.27509 196
351.05042 23
351.07907 17
351.14148 22
351.2565 20
353.15759 38
353.17981 27
357.14621 16
357.16226 25
359.04025 34
359.05475 28
363.22314 25
363.23907 29
363.30142 26
367.23706 16
370.73956 14
370.75308 14
372.10947 39
372.12039 52
375.29578 25
376.26901 666
376.2923 1354
377.27454 186
377.30127 259
377.74377 14
378.28134 22
378.29865 57
378.31635 29
379.20346 25
380.2901 22
381.19653 20
385.18567 16
391.23901 15
392.24255 35
392.26825 42
392.28802 48
393.22449 15
393.26382 53
393.51898 15
395.25351 17
399.19623 17
399.24033 17
401.32153 16
401.983 35
402.35077 42
403.34912 16
407.23468 14
407.28503 31
407.30612 48
408.23615 21
408.25055 14
409.20566 15
409.2532 28
413.01709 43
413.0332 33
413.26389 29
415.07159 32
421.28638 23
422.15625 15
422.31589 22
425.79587 19
426.20639 20
426.23111 18
427.0853 22
427.61832 18
428.06631 33
429.28699 19
429.86414 20
431.35034 22
433.31302 14
434.25159 18
434.39697 19
435.26559 16
435.29388 19
441.05905 15
443.14951 16
444.16956 15
444.87708 15
446.13995 25
446.83597 17
450.22803 17
457.05624 15
457.07425 20
457.09137 18
457.85565 21
458.39026 17
459.38788 39
459.87451 22
461.86896 23
465.33136 23
469.33273 16
469.36115 14
473.34064 19
473.87598 15
475.01364 15
485.03568 17
485.05389 38
487.42465 28
488.02832 22
489.0885 29
490.06091 34
491.30457 27
491.33551 22
492.86133 17
493.40073 20
494.06845 29
494.57733 72
494.59326 81
495.08084 26
496.0759 18
499.87927 18
501.41653 24
501.60526 17
502.09918 28
502.26727 14
503.3811 21
505.07919 116
507.34155 28
508.11218 16
508.75305 14
509.30688 23
515.08582 24
515.40332 16
515.93152 17
519.20459 14
522.40625 14
522.89618 16
523.32709 16
525.12061 16
526.42224 19
528.46527 29
529.45947 53
529.55988 43
530.43176 26
534.42505 15
535.37909 24
535.88342 14
536.32397 14
536.41956 20
538.11346 216
538.4494 26
538.61505 463
539.11078 445
539.14563 23
539.5415 15
539.57538 25
539.61072 90
540.1087 41
540.60858 67
541.10974 75
541.23181 17
541.60114 48
541.61932 33
542.46887 17
543.60999 20
544.00739 23
549.36707 16
549.51813 14
550.37964 14
550.96185 15
553.34473 14
554.31519 22
555.31299 18
558.50159 20
558.58978 235
559.09491 58
559.44818 24
560.04388 21
560.08777 89
562.3512 19
563.32739 18
564.74017 18
565.46606 16
566.09979 16
568.64594 16
569.0896 16
570.06018 23
571.58746 37
571.96954 19
572.02686 21
572.55536 47
575.48651 20
576.11688 22
578.02142 55
578.14862 32
578.51874 45
580.50537 18
581.54675 14
581.80945 14
585.06079 25
585.52332 27
585.54993 59
588.21515 19
589.50873 56
592.48865 18
594.62091 130
595.53735 71
596.03546 33
599.02631 37
599.04779 37
604.08954 34
605.01825 39
605.07019 24
605.51807 24
607.0155 22
607.04767 19
608.474 19
610.50104 14
611.02338 16
613.02197 14
613.08783 24
614.59912 60
615.08917 54
615.52063 26
616.04688 62
618.53931 68
618.60657 57
619.45013 20
620.49377 24
622.37347 19
622.52881 61
623.03058 37
623.05219 40
624.52234 22
625.49182 15
629.53436 17
630.48163 43
632.54755 436
632.59521 60
632.78906 25
633.01758 48
Name: "1,5-Diaminonaphtalene"
PrecursorMZ: 159.0917
PrecursorType: [M+H]+
IonMode: Positive
Formula: C10H10N2
SMILES: C1=CC2=C(C=CC=C2N)C(=C1)N
InChI: 
InChIKey: KQSABULTKYLFEV-UHFFFAOYSA-N
RetentionTime: 0.8671
CCS: 
CollisionEnergy: 20-40 eV
InstrumentType: UPLC-QTOF-MS
Comment: PI: Cristina Nerin; Data collector: QiZhi Su, GUIA, University of Zaragoza, Spain; Collision energy: 20-40 V; Instrument: Waters HPLC-QTOF-MS (Xevo G2 QTof); Ionization: ESI; Deconvoluted by MS-DIAL; Column: Waters AtlantisTM premier BEH C18 AX column (2.1 × 100mm x 1.7μm); Flow rate: 0.3mL/min; Mobile phase A and B are water and methnaol, respectively, both with 0.1% formic acid; Gradient elution: from A/B (95/5) to A/B (100/0) in 7min, kept for 4 min, then back to A/B (95/5) in 0.1 min, and maintained for additional 1.9 min (13min in total).; Injection volume: 10 μL
Num peaks: 46
65.03597 410
65.04266 415
71.04856 327
71.05371 313
85.06529 350
91.04198 2698
91.05402 2693
92.04555 222
92.05199 237
92.05756 237
93.05776 1104
93.07084 1100
108.06517 1315
108.0808 1271
109.06418 247
115.05458 4954
116.05555 841
116.0608 856
116.07314 773
117.04301 1241
117.05779 1366
117.06454 1356
121.06464 326
121.0746 315
121.08212 321
130.06615 1100
131.06604 642
131.07336 639
131.08305 623
132.07159 974
132.07944 947
141.03944 399
141.05441 594
141.06038 594
141.06911 570
142.0472 5397
142.06519 5468
143.07225 5917
144.06915 7000
146.06561 292
146.08478 206
146.10283 277
157.07748 949
157.09021 919
158.08403 5652
159.09117 19537
Name: o-Toluidine
PrecursorMZ: 108.0805
PrecursorType: [M+H]+
IonMode: Positive
Formula: C7H9N
SMILES: CC1=CC=CC=C1N
InChI: 
InChIKey: RNVCVTLRINQCPJ-UHFFFAOYSA-N
RetentionTime: 0.8709167
CCS: 
CollisionEnergy: 20-40 eV
InstrumentType: UPLC-QTOF-MS
Comment: PI: Cristina Nerin; Data collector: QiZhi Su, GUIA, University of Zaragoza, Spain; Collision energy: 20-40 V; Instrument: Waters HPLC-QTOF-MS (Xevo G2 QTof); Ionization: ESI; Deconvoluted by MS-DIAL; Column: Waters AtlantisTM premier BEH C18 AX column (2.1 × 100mm x 1.7μm); Flow rate: 0.3mL/min; Mobile phase A and B are water and methnaol, respectively, both with 0.1% formic acid; Gradient elution: from A/B (95/5) to A/B (100/0) in 7min, kept for 4 min, then back to A/B (95/5) in 0.1 min, and maintained for additional 1.9 min (13min in total).; Injection volume: 10 μL
Num peaks: 43
57.03366 55
65.03912 377
65.04817 377
65.05741 337
71.05009 108
71.0638 121
77.03777 54
81.03775 28
81.07299 29
83.04278 34
84.0405 51
84.04604 51
84.05539 45
85.06242 351
85.06763 351
89.0428 140
91.05444 2690
92.04592 216
92.05421 195
92.06212 195
93.05427 745
93.06006 746
94.05999 80
94.0696 80
101.03854 36
101.05901 54
101.07206 31
102.03341 29
102.04227 38
102.04848 38
104.04987 85
104.05483 85
105.05072 67
106.06459 119
106.07532 126
107.05351 89
107.06947 106
107.08121 82
108.03799 307
108.04537 319
108.07103 150
108.08139 1356
108.08807 353
Name: "2,4-Toluenediamine"
PrecursorMZ: 123.0918
PrecursorType: [M+H]+
IonMode: Positive
Formula: C7H10N2
SMILES: CC1=C(C=C(C=C1)N)N
InChI: 
InChIKey: VOZKAJLKRJDJLL-UHFFFAOYSA-N
RetentionTime: 0.6044167
CCS: 
CollisionEnergy: 20-40 eV
InstrumentType: UPLC-QTOF-MS
Comment: PI: Cristina Nerin; Data collector: QiZhi Su, GUIA, University of Zaragoza, Spain; Collision energy: 20-40 V; Instrument: Waters HPLC-QTOF-MS (Xevo G2 QTof); Ionization: ESI; Deconvoluted by MS-DIAL; Column: Waters AtlantisTM premier BEH C18 AX column (2.1 × 100mm x 1.7μm); Flow rate: 0.3mL/min; Mobile phase A and B are water and methnaol, respectively, both with 0.1% formic acid; Gradient elution: from A/B (95/5) to A/B (100/0) in 7min, kept for 4 min, then back to A/B (95/5) in 0.1 min, and maintained for additional 1.9 min (13min in total).; Injection volume: 10 μL
Num peaks: 28
77.04327 170
79.05148 60
79.05769 60
81.05978 15
81.06829 36
82.02745 16
84.96234 12
87.48146 14
92.05437 19
93.05862 426
94.06377 88
96.07054 10
104.0507 9
106.06643 137
106.08115 61
107.06649 18
107.07893 17
108.07253 286
109.03365 121
110.03898 13
116.06213 20
117.05853 23
117.07183 23
121.07919 132
121.09603 122
122.05756 60
122.07568 97
122.08693 44
Name: "4,4-Diaminodiphenylether"
PrecursorMZ: 201.1024
PrecursorType: [M+H]+
IonMode: Positive
Formula: C12H12N2O
SMILES: C1=CC(=CC=C1N)OC2=CC=C(C=C2)N
InChI: 
InChIKey: HLBLWEWZXPIGSM-UHFFFAOYSA-N
RetentionTime: 0.6272666
CCS: 
CollisionEnergy: 20-40 eV
InstrumentType: UPLC-QTOF-MS
Comment: PI: Cristina Nerin; Data collector: QiZhi Su, GUIA, University of Zaragoza, Spain; Collision energy: 20-40 V; Instrument: Waters HPLC-QTOF-MS (Xevo G2 QTof); Ionization: ESI; Deconvoluted by MS-DIAL; Column: Waters AtlantisTM premier BEH C18 AX column (2.1 × 100mm x 1.7μm); Flow rate: 0.3mL/min; Mobile phase A and B are water and methnaol, respectively, both with 0.1% formic acid; Gradient elution: from A/B (95/5) to A/B (100/0) in 7min, kept for 4 min, then back to A/B (95/5) in 0.1 min, and maintained for additional 1.9 min (13min in total).; Injection volume: 10 μL
Num peaks: 21
80.04877 7128
81.05476 412
81.06231 401
93.05849 1077
94.06543 430
108.04407 31657
109.04863 1732
109.05752 1737
128.04753 466
128.0569 563
128.06459 542
129.06422 677
129.07253 677
129.08342 638
130.06857 352
139.05107 326
156.08105 1151
156.09912 852
184.0777 1055
200.0995 654
201.1031 3995
Name: Benzidine
PrecursorMZ: 185.1073
PrecursorType: [M+H]+
IonMode: Positive
Formula: C12H12N2
SMILES: C1=CC(=CC=C1C2=CC=C(C=C2)N)N
InChI: 
InChIKey: HFACYLZERDEVSX-UHFFFAOYSA-N
RetentionTime: 0.7757334
CCS: 
CollisionEnergy: 20-40 eV
InstrumentType: UPLC-QTOF-MS
Comment: PI: Cristina Nerin; Data collector: QiZhi Su, GUIA, University of Zaragoza, Spain; Collision energy: 20-40 V; Instrument: Waters HPLC-QTOF-MS (Xevo G2 QTof); Ionization: ESI; Deconvoluted by MS-DIAL; Column: Waters AtlantisTM premier BEH C18 AX column (2.1 × 100mm x 1.7μm); Flow rate: 0.3mL/min; Mobile phase A and B are water and methnaol, respectively, both with 0.1% formic acid; Gradient elution: from A/B (95/5) to A/B (100/0) in 7min, kept for 4 min, then back to A/B (95/5) in 0.1 min, and maintained for additional 1.9 min (13min in total).; Injection volume: 10 μL
Num peaks: 45
92.04879 224
93.05672 1714
115.05505 900
127.0471 201
127.05804 204
128.05901 460
128.06978 454
130.0583 322
130.06831 319
130.07578 323
139.0462 543
139.05757 505
139.06375 513
140.04414 274
140.05627 343
140.06281 334
140.06985 340
141.07085 2612
142.0545 202
143.07091 446
143.08696 354
144.0956 264
150.03613 310
150.04655 356
151.05545 2695
152.04622 1024
152.0634 952
152.08287 639
153.05719 661
156.08023 470
157.07895 225
157.09138 228
158.08714 223
158.10065 228
166.06743 1280
167.0726 19840
168.08028 17307
169.08731 3538
170.07625 249
170.08308 229
182.07112 201
183.09383 311
183.11349 544
184.09958 6306
185.10696 6066
Name: "2,5-Bis(5-tert-butyl-benzoxazol-2-yl)thiophene"
PrecursorMZ: 469.1413
PrecursorType: [M+K]+
IonMode: Positive
Formula: C26H26N2O2S
SMILES: CC(C)(C)C1=CC2=C(C=C1)OC(=N2)C3=CC=C(S3)C4=NC5=C(O4)C=CC(=C5)C(C)(C)C
InChI: 
InChIKey: AIXZBGVLNVRQSS-UHFFFAOYSA-N
RetentionTime: 9.448717
CCS: 
CollisionEnergy: 20-40 eV
InstrumentType: UPLC-QTOF-MS
Comment: PI: Cristina Nerin; Data collector: QiZhi Su, GUIA, University of Zaragoza, Spain; Collision energy: 20-40 V; Instrument: Waters HPLC-QTOF-MS (Xevo G2 QTof); Ionization: ESI; Deconvoluted by MS-DIAL; Column: Waters AtlantisTM premier BEH C18 AX column (2.1 × 100mm x 1.7μm); Flow rate: 0.3mL/min; Mobile phase A and B are water and methnaol, respectively, both with 0.1% formic acid; Gradient elution: from A/B (95/5) to A/B (100/0) in 7min, kept for 4 min, then back to A/B (95/5) in 0.1 min, and maintained for additional 1.9 min (13min in total).; Injection volume: 10 μL
Num peaks: 62
61.07972 53
61.08587 50
67.0528 58
67.05731 58
84.95457 55
84.96127 72
84.9665 63
85.0956 51
133.06522 69
133.08817 54
133.10037 49
134.09282 111
139.02791 52
145.01445 58
147.04413 145
221.11482 78
238.06059 89
240.10222 46
283.02921 336
283.07208 288
283.09 82
335.26913 68
356.09323 687
376.13797 70
388.12256 354
399.11792 59
401.01221 70
401.13156 276
405.285 65
419.16425 162
423.24533 54
427.05771 208
431.24106 103
431.36575 446
431.38623 982
432.18079 3245
432.24231 60
432.3804 77
432.40805 73
433.17871 3652
434.18109 558
435.1358 67
435.15488 110
435.18851 51
436.18246 50
445.15085 67
450.14709 543
450.64984 244
451.1272 67
451.14661 129
451.64963 82
453.15955 4574
453.3093 46
454.1358 103
454.15878 907
454.17569 838
455.15973 192
455.18054 210
456.14413 50
469.12805 48
469.14313 73
469.24268 64
Name: "2,5-Bis(5-tert-butyl-benzoxazol-2-yl)thiophene"
PrecursorMZ: 453.1555
PrecursorType: [M+Na]+
IonMode: Positive
Formula: C26H26N2O2S
SMILES: CC(C)(C)C1=CC2=C(C=C1)OC(=N2)C3=CC=C(S3)C4=NC5=C(O4)C=CC(=C5)C(C)(C)C
InChI: 
InChIKey: AIXZBGVLNVRQSS-UHFFFAOYSA-N
RetentionTime: 9.452534
CCS: 
CollisionEnergy: 20-40 eV
InstrumentType: UPLC-QTOF-MS
Comment: PI: Cristina Nerin; Data collector: QiZhi Su, GUIA, University of Zaragoza, Spain; Collision energy: 20-40 V; Instrument: Waters HPLC-QTOF-MS (Xevo G2 QTof); Ionization: ESI; Deconvoluted by MS-DIAL; Column: Waters AtlantisTM premier BEH C18 AX column (2.1 × 100mm x 1.7μm); Flow rate: 0.3mL/min; Mobile phase A and B are water and methnaol, respectively, both with 0.1% formic acid; Gradient elution: from A/B (95/5) to A/B (100/0) in 7min, kept for 4 min, then back to A/B (95/5) in 0.1 min, and maintained for additional 1.9 min (13min in total).; Injection volume: 10 μL
Num peaks: 6
415.14713 20337
416.15265 17859
431.17764 587647
432.18045 159041
433.17859 40391
453.16156 6782
Name: "2,5-Bis(5-tert-butyl-benzoxazol-2-yl)thiophene"
PrecursorMZ: 861.3502
PrecursorType: [2M+H]+
IonMode: Positive
Formula: C26H26N2O2S
SMILES: CC(C)(C)C1=CC2=C(C=C1)OC(=N2)C3=CC=C(S3)C4=NC5=C(O4)C=CC(=C5)C(C)(C)C
InChI: 
InChIKey: AIXZBGVLNVRQSS-UHFFFAOYSA-N
RetentionTime: 9.46775
CCS: 
CollisionEnergy: 20-40 eV
InstrumentType: UPLC-QTOF-MS
Comment: PI: Cristina Nerin; Data collector: QiZhi Su, GUIA, University of Zaragoza, Spain; Collision energy: 20-40 V; Instrument: Waters HPLC-QTOF-MS (Xevo G2 QTof); Ionization: ESI; Deconvoluted by MS-DIAL; Column: Waters AtlantisTM premier BEH C18 AX column (2.1 × 100mm x 1.7μm); Flow rate: 0.3mL/min; Mobile phase A and B are water and methnaol, respectively, both with 0.1% formic acid; Gradient elution: from A/B (95/5) to A/B (100/0) in 7min, kept for 4 min, then back to A/B (95/5) in 0.1 min, and maintained for additional 1.9 min (13min in total).; Injection volume: 10 μL
Num peaks: 58
73.07062 112
222.05861 77
251.09537 533
372.07809 244
373.13263 108
376.12125 148
401.13171 489
402.12952 278
402.14664 303
415.14679 330
416.15271 1215
417.15509 637
418.14059 231
418.16101 75
431.29019 284
431.38208 1325
431.41223 101
433.17932 5102
434.18109 1852
435.17935 259
435.19803 311
446.09674 98
450.13986 762
450.17459 442
450.63632 250
450.66006 383
451.15015 265
451.16534 229
451.65161 90
453.16119 5814
454.14194 111
454.16492 930
455.15015 274
455.16666 300
469.12906 78
504.08038 99
515.1225 2647
516.15277 355
518.09106 160
649.63586 696
649.65576 274
657.77728 88
665.2395 7211
665.73828 6163
665.7608 2607
666.24011 3592
666.72308 822
666.7478 1391
667.21777 223
667.24878 587
667.72943 153
667.75726 95
674.25104 114
674.72827 129
755.23114 84
761.69086 85
861.32825 893
861.3681 1695
Name: "2,5-Bis(5-tert-butyl-benzoxazol-2-yl)thiophene"
PrecursorMZ: 431.1781
PrecursorType: [M+H]+
IonMode: Positive
Formula: C26H26N2O2S
SMILES: CC(C)(C)C1=CC2=C(C=C1)OC(=N2)C3=CC=C(S3)C4=NC5=C(O4)C=CC(=C5)C(C)(C)C
InChI: 
InChIKey: AIXZBGVLNVRQSS-UHFFFAOYSA-N
RetentionTime: 9.479183
CCS: 
CollisionEnergy: 20-40 eV
InstrumentType: UPLC-QTOF-MS
Comment: PI: Cristina Nerin; Data collector: QiZhi Su, GUIA, University of Zaragoza, Spain; Collision energy: 20-40 V; Instrument: Waters HPLC-QTOF-MS (Xevo G2 QTof); Ionization: ESI; Deconvoluted by MS-DIAL; Column: Waters AtlantisTM premier BEH C18 AX column (2.1 × 100mm x 1.7μm); Flow rate: 0.3mL/min; Mobile phase A and B are water and methnaol, respectively, both with 0.1% formic acid; Gradient elution: from A/B (95/5) to A/B (100/0) in 7min, kept for 4 min, then back to A/B (95/5) in 0.1 min, and maintained for additional 1.9 min (13min in total).; Injection volume: 10 μL
Num peaks: 1
431.17813 559236
Name: Diisopropyl phthalate
PrecursorMZ: 273.1114
PrecursorType: [M+Na]+
IonMode: Positive
Formula: C14H18O4
SMILES: CC(C)OC(=O)C1=CC=CC=C1C(=O)OC(C)C
InChI: 
InChIKey: QWDBCIAVABMJPP-UHFFFAOYSA-N
RetentionTime: 6.67557
CCS: 
CollisionEnergy: 20-40 eV
InstrumentType: UPLC-QTOF-MS
Comment: PI: Cristina Nerin; Data collector: QiZhi Su, GUIA, University of Zaragoza, Spain; Collision energy: 20-40 V; Instrument: Waters HPLC-QTOF-MS (Xevo G2 QTof); Ionization: ESI; Deconvoluted by MS-DIAL; Column: Waters AtlantisTM premier BEH C18 AX column (2.1 × 100mm x 1.7μm); Flow rate: 0.3mL/min; Mobile phase A and B are water and methnaol, respectively, both with 0.1% formic acid; Gradient elution: from A/B (95/5) to A/B (100/0) in 7min, kept for 4 min, then back to A/B (95/5) in 0.1 min, and maintained for additional 1.9 min (13min in total).; Injection volume: 10 μL
Num peaks: 41
65.0267 7537
65.0388 7537
77.03568 1097
77.0404 1096
92.02269 607
92.03296 603
93.03311 7546
93.98614 1259
93.99173 1266
94.00144 1259
102.98851 1534
102.99504 1534
111.99514 873
111.99985 864
121.02808 8350
149.02301 48671
150.02821 2521
160.00386 647
160.01231 650
160.02155 644
160.98383 1659
160.99171 1694
161.00949 1671
167.99652 10556
168.49619 1627
168.50533 1627
169.00668 554
176.99945 4951
177.00803 4943
177.50183 873
177.51335 854
186.00703 3523
186.50984 558
203.02397 649
203.04057 675
204.98132 3088
207.03093 592
231.05692 1057
231.0679 1075
247.02803 4609
273.11017 10039
Name: Triethyl citrate
PrecursorMZ: 277.1292
PrecursorType: [M+H]+
IonMode: Positive
Formula: C12H20O7
SMILES: CCOC(=O)CC(CC(=O)OCC)(C(=O)OCC)O
InChI: 
InChIKey: DOOTYTYQINUNNV-UHFFFAOYSA-N
RetentionTime: 5.258753
CCS: 
CollisionEnergy: 20-40 eV
InstrumentType: UPLC-QTOF-MS
Comment: PI: Cristina Nerin; Data collector: QiZhi Su, GUIA, University of Zaragoza, Spain; Collision energy: 20-40 V; Instrument: Waters HPLC-QTOF-MS (Xevo G2 QTof); Ionization: ESI; Deconvoluted by MS-DIAL; Column: Waters AtlantisTM premier BEH C18 AX column (2.1 × 100mm x 1.7μm); Flow rate: 0.3mL/min; Mobile phase A and B are water and methnaol, respectively, both with 0.1% formic acid; Gradient elution: from A/B (95/5) to A/B (100/0) in 7min, kept for 4 min, then back to A/B (95/5) in 0.1 min, and maintained for additional 1.9 min (13min in total).; Injection volume: 10 μL
Num peaks: 260
68.99643 11220
70.00072 303
83.98001 235
83.9864 231
87.00082 936
87.00818 930
92.99138 514
96.99294 155
97.99846 212
98.00597 202
101.01476 149
101.02391 146
101.02851 128
101.98846 532
101.99803 517
103.00629 155
103.01246 147
106.98903 931
107.00162 856
107.00813 765
107.01389 583
109.00433 466
111.00719 4305
113.00125 141
113.01021 190
113.0198 199
113.02848 175
115.03849 12540
115.98385 543
115.99408 884
116.0126 965
116.04453 463
116.05143 466
118.00591 163
119.00616 189
120.99303 258
121.00147 457
121.00964 529
121.02414 349
121.03409 250
122.00168 174
122.01021 210
122.0201 235
122.02629 233
122.97453 186
123.0018 684
123.01995 760
124.98064 448
124.99001 508
124.9984 562
125.01505 413
125.02213 167
126.97035 301
126.98347 280
126.99366 228
127.02122 149
127.98976 219
127.99924 250
128.0139 272
129.01749 1612
129.02324 1626
130.00317 1444
130.00963 1482
130.0168 1637
130.03317 587
131.01665 143
132.01224 256
132.02664 257
132.03699 246
133.9944 184
134.0094 190
134.01471 155
135.00067 717
135.00928 751
135.0204 677
135.02876 237
136.02359 144
136.03204 129
136.98596 141
136.99733 195
137.00673 138
137.03409 703
137.04491 699
139.00429 3184
139.01985 3366
139.03709 229
139.99559 320
140.0052 351
140.01866 256
140.97878 646
140.9902 826
141.00023 775
141.00769 268
141.02408 153
141.99196 292
142.00949 300
142.02962 149
144.00003 316
144.01054 2423
144.02576 2466
144.03864 2202
144.52711 221
145.03151 126
145.04466 126
146.02206 222
146.0394 205
146.0463 175
147.99527 650
149.00655 679
149.0183 628
149.99188 213
150.00981 163
150.96655 151
150.9769 161
151.00742 296
151.01607 289
151.03252 273
153.02292 754
153.03314 734
153.04269 720
154.99757 570
155.00819 641
156.01376 247
156.02805 247
156.99219 151
157.00037 295
157.0128 231
157.0197 170
157.0493 10601
158.0164 307
158.04129 5186
158.52686 551
158.54373 671
159.04216 253
159.05232 258
159.06519 163
160.03932 136
162.00578 1293
162.50775 163
163.00768 158
163.02438 503
163.03381 454
163.0408 478
163.05156 371
163.98665 387
164.00429 533
165.02151 310
165.03075 292
166.94986 325
166.96373 401
166.97449 408
167.04022 1106
167.04791 1134
167.06104 950
167.07181 214
168.03297 128
169.00443 717
169.01639 705
170.99266 353
171.01184 561
171.0208 535
171.02878 486
172.01698 151
172.03381 257
172.04268 226
173.00699 160
175.99951 157
176.02173 1474
176.52263 245
177.02405 208
177.03491 183
178.01797 908
178.03653 910
178.51929 143
178.53259 130
179.00598 128
179.02274 159
179.03976 236
179.04976 210
181.05904 174
181.07239 136
185.00867 321
185.03017 828
186.03047 204
186.05684 174
186.06288 148
186.99066 165
187.00121 243
187.01561 320
187.03146 214
187.04575 138
192.03712 594
194.0159 263
194.03442 214
197.01009 320
197.02393 329
198.98158 169
198.99405 187
199.02444 208
199.03488 513
199.04744 398
200.04089 128
200.05319 134
201.01018 217
201.03004 582
201.04228 559
202.04228 215
202.05153 191
208.02681 681
208.03584 668
208.52885 135
208.539 142
209.05795 217
210.02835 127
211.0379 188
211.05197 204
211.06595 150
215.01961 483
215.03635 1049
215.05197 1144
215.06242 309
215.53705 209
215.54956 212
222.04739 2277
222.53464 333
222.54803 432
222.56123 378
223.04112 139
223.05605 349
223.07506 400
224.02771 153
224.04903 273
227.04694 349
229.05363 1006
229.06322 996
229.55101 276
229.55923 280
236.05124 4238
236.06316 4214
236.55798 737
236.56784 715
237.05235 177
237.06586 189
238.04178 546
238.05986 645
238.07701 452
245.05832 296
245.07304 272
252.06615 534
252.07561 677
252.08716 594
252.57062 176
252.58507 171
259.07657 191
259.09164 177
268.06015 159
268.0697 224
268.08374 205
273.07596 240
273.095 289
Name: Mono(2-ethylhexyl) phthalate
PrecursorMZ: 279.1601
PrecursorType: [M+H]+
IonMode: Positive
Formula: C16H22O4
SMILES: CCCCC(CC)COC(=O)C1=CC=CC=C1C(=O)O
InChI: 
InChIKey: DJDSLBVSSOQSLW-UHFFFAOYSA-N
RetentionTime: 8.482195
CCS: 
CollisionEnergy: 20-40 eV
InstrumentType: UPLC-QTOF-MS
Comment: PI: Cristina Nerin; Data collector: QiZhi Su, GUIA, University of Zaragoza, Spain; Collision energy: 20-40 V; Instrument: Waters HPLC-QTOF-MS (Xevo G2 QTof); Ionization: ESI; Deconvoluted by MS-DIAL; Column: Waters AtlantisTM premier BEH C18 AX column (2.1 × 100mm x 1.7μm); Flow rate: 0.3mL/min; Mobile phase A and B are water and methnaol, respectively, both with 0.1% formic acid; Gradient elution: from A/B (95/5) to A/B (100/0) in 7min, kept for 4 min, then back to A/B (95/5) in 0.1 min, and maintained for additional 1.9 min (13min in total).; Injection volume: 10 μL
Num peaks: 46
65.03884 4362
71.08454 497
71.09089 499
73.04592 6889
73.06284 6864
74.04884 665
74.0574 679
74.06429 757
77.03857 323
89.04134 385
89.05043 365
93.0331 3805
121.01284 3549
121.02832 3484
133.04297 352
149.02324 29749
150.0224 1400
150.03201 1424
160.9921 400
160.9985 425
163.0602 6777
164.06032 746
164.07137 749
167.03539 576
167.04694 542
170.99208 769
171.00497 810
189.01735 1041
189.03551 740
204.97977 425
204.98953 340
207.06207 1353
207.0737 1352
208.06462 310
221.08415 2569
223.09348 704
237.07913 9533
238.08218 1581
239.07724 416
250.96132 1038
250.97142 881
266.99942 7489
268.0015 1148
268.99887 517
273.11383 299
279.54999 374
Name: Diisopropyl phthalate
PrecursorMZ: 289.0852
PrecursorType: [M+K]+
IonMode: Positive
Formula: C14H18O4
SMILES: CC(C)OC(=O)C1=CC=CC=C1C(=O)OC(C)C
InChI: 
InChIKey: QWDBCIAVABMJPP-UHFFFAOYSA-N
RetentionTime: 6.674937
CCS: 
CollisionEnergy: 20-40 eV
InstrumentType: UPLC-QTOF-MS
Comment: PI: Cristina Nerin; Data collector: QiZhi Su, GUIA, University of Zaragoza, Spain; Collision energy: 20-40 V; Instrument: Waters HPLC-QTOF-MS (Xevo G2 QTof); Ionization: ESI; Deconvoluted by MS-DIAL; Column: Waters AtlantisTM premier BEH C18 AX column (2.1 × 100mm x 1.7μm); Flow rate: 0.3mL/min; Mobile phase A and B are water and methnaol, respectively, both with 0.1% formic acid; Gradient elution: from A/B (95/5) to A/B (100/0) in 7min, kept for 4 min, then back to A/B (95/5) in 0.1 min, and maintained for additional 1.9 min (13min in total).; Injection volume: 10 μL
Num peaks: 46
65.03854 3973
77.03841 496
92.01368 466
92.02201 462
92.02982 466
93.03389 3978
93.98498 695
93.99168 690
94.03209 272
94.03809 269
94.04546 267
102.9912 813
102.99976 812
111.99643 429
112.00289 429
112.0117 425
117.00045 327
117.00951 313
121.01083 4506
121.02805 4313
149.02309 25922
150.02554 1510
150.03264 1504
160.00804 300
160.01482 298
160.97363 800
160.99124 1187
161.00145 1194
161.01352 451
167.99832 3601
168.49681 673
168.507 662
176.98216 300
177.00233 1438
177.02054 1373
177.50398 287
186.00755 1296
203.04137 689
204.98138 1940
231.05524 670
231.06659 690
231.0787 537
247.03133 2230
273.11096 4608
274.11411 478
274.13293 325
Name: Triethyl citrate
PrecursorMZ: 299.111
PrecursorType: [M+Na]+
IonMode: Positive
Formula: C12H20O7
SMILES: CCOC(=O)CC(CC(=O)OCC)(C(=O)OCC)O
InChI: 
InChIKey: DOOTYTYQINUNNV-UHFFFAOYSA-N
RetentionTime: 5.258489
CCS: 
CollisionEnergy: 20-40 eV
InstrumentType: UPLC-QTOF-MS
Comment: PI: Cristina Nerin; Data collector: QiZhi Su, GUIA, University of Zaragoza, Spain; Collision energy: 20-40 V; Instrument: Waters HPLC-QTOF-MS (Xevo G2 QTof); Ionization: ESI; Deconvoluted by MS-DIAL; Column: Waters AtlantisTM premier BEH C18 AX column (2.1 × 100mm x 1.7μm); Flow rate: 0.3mL/min; Mobile phase A and B are water and methnaol, respectively, both with 0.1% formic acid; Gradient elution: from A/B (95/5) to A/B (100/0) in 7min, kept for 4 min, then back to A/B (95/5) in 0.1 min, and maintained for additional 1.9 min (13min in total).; Injection volume: 10 μL
Num peaks: 138
68.99643 11220
70.00072 303
87.00082 936
87.00818 930
92.99138 514
101.98846 532
101.99803 517
106.98903 931
107.00162 856
107.00813 765
107.01389 583
109.00433 466
111.00719 4305
115.03849 12540
115.98385 543
115.99408 884
116.0126 965
116.04453 463
116.05143 466
121.00147 457
121.00964 529
121.02414 349
123.0018 684
123.01995 760
124.98064 448
124.99001 508
124.9984 562
125.01505 413
126.97035 301
126.98347 280
129.01749 1612
129.02324 1626
130.00317 1444
130.00963 1482
130.0168 1637
130.03317 587
135.00067 717
135.00928 751
135.0204 677
137.03409 703
137.04491 699
139.00429 3184
139.01985 3366
139.99559 320
140.0052 351
140.97878 646
140.9902 826
141.00023 775
141.99196 292
142.00949 300
144.00003 316
144.01054 2423
144.02576 2466
144.03864 2202
147.99527 650
149.00655 679
149.0183 628
151.00742 296
151.01607 289
153.02292 754
153.03314 734
153.04269 720
154.99757 570
155.00819 641
157.00037 295
157.0493 10601
158.0164 307
158.04129 5186
158.52686 551
158.54373 671
162.00578 1293
163.02438 503
163.03381 454
163.0408 478
163.05156 371
163.98665 387
164.00429 533
165.02151 310
165.03075 292
166.94986 325
166.96373 401
166.97449 408
167.04022 1106
167.04791 1134
167.06104 950
169.00443 717
169.01639 705
170.99266 353
171.01184 561
171.0208 535
171.02878 486
176.02173 1474
178.01797 908
178.03653 910
185.00867 321
185.03017 828
187.01561 320
192.03712 594
197.01009 320
197.02393 329
199.03488 513
199.04744 398
201.03004 582
201.04228 559
208.02681 681
208.03584 668
215.01961 483
215.03635 1049
215.05197 1144
215.06242 309
222.04739 2277
222.53464 333
222.54803 432
222.56123 378
223.05605 349
223.07506 400
227.04694 349
229.05363 1006
229.06322 996
229.55101 276
229.55923 280
236.05124 4238
236.06316 4214
236.55798 737
236.56784 715
238.04178 546
238.05986 645
238.07701 452
245.05832 296
252.06615 534
252.07561 677
252.08716 594
273.095 289
282.08463 730
296.10153 2350
296.59195 560
296.60831 582
299.11029 27352
Name: Mono(2-ethylhexyl) phthalate
PrecursorMZ: 301.1414
PrecursorType: [M+Na]+
IonMode: Positive
Formula: C16H22O4
SMILES: CCCCC(CC)COC(=O)C1=CC=CC=C1C(=O)O
InChI: 
InChIKey: DJDSLBVSSOQSLW-UHFFFAOYSA-N
RetentionTime: 8.483987
CCS: 
CollisionEnergy: 20-40 eV
InstrumentType: UPLC-QTOF-MS
Comment: PI: Cristina Nerin; Data collector: QiZhi Su, GUIA, University of Zaragoza, Spain; Collision energy: 20-40 V; Instrument: Waters HPLC-QTOF-MS (Xevo G2 QTof); Ionization: ESI; Deconvoluted by MS-DIAL; Column: Waters AtlantisTM premier BEH C18 AX column (2.1 × 100mm x 1.7μm); Flow rate: 0.3mL/min; Mobile phase A and B are water and methnaol, respectively, both with 0.1% formic acid; Gradient elution: from A/B (95/5) to A/B (100/0) in 7min, kept for 4 min, then back to A/B (95/5) in 0.1 min, and maintained for additional 1.9 min (13min in total).; Injection volume: 10 μL
Num peaks: 69
58.44873 159
65.03783 907
73.04623 13798
73.06588 13798
74.04729 802
74.05487 816
74.06429 873
75.05102 141
88.07087 188
88.07561 189
89.03783 150
93.028 863
93.03483 855
121.01268 631
121.02934 688
133.01036 162
133.0188 171
133.03004 187
147.06526 2423
148.04416 209
148.06123 180
148.06937 209
149.02321 6621
149.06091 284
150.01961 392
150.02554 394
160.9765 282
160.98997 308
163.06093 1888
164.04492 305
164.06155 294
165.07483 188
169.09041 174
169.10535 170
189.00757 250
189.02191 223
191.0016 335
201.17216 210
205.00816 151
207.03218 2184
207.06993 634
208.0336 216
208.0696 209
208.07942 221
209.01717 266
209.02818 212
209.03679 237
223.06471 143
224.07478 143
237.0799 8427
239.07837 632
248.989 168
250.96255 535
250.97606 680
265.01892 434
265.03476 269
266.99957 7341
267.9834 1545
268.00238 1451
268.99939 616
284.05487 263
284.29706 1313
284.30884 1172
285.29187 193
285.3075 170
293.03738 227
293.05576 367
297.06094 201
301.14096 3215
Name: Triethyl citrate
PrecursorMZ: 315.0848
PrecursorType: [M+K]+
IonMode: Positive
Formula: C12H20O7
SMILES: CCOC(=O)CC(CC(=O)OCC)(C(=O)OCC)O
InChI: 
InChIKey: DOOTYTYQINUNNV-UHFFFAOYSA-N
RetentionTime: 5.257233
CCS: 
CollisionEnergy: 20-40 eV
InstrumentType: UPLC-QTOF-MS
Comment: PI: Cristina Nerin; Data collector: QiZhi Su, GUIA, University of Zaragoza, Spain; Collision energy: 20-40 V; Instrument: Waters HPLC-QTOF-MS (Xevo G2 QTof); Ionization: ESI; Deconvoluted by MS-DIAL; Column: Waters AtlantisTM premier BEH C18 AX column (2.1 × 100mm x 1.7μm); Flow rate: 0.3mL/min; Mobile phase A and B are water and methnaol, respectively, both with 0.1% formic acid; Gradient elution: from A/B (95/5) to A/B (100/0) in 7min, kept for 4 min, then back to A/B (95/5) in 0.1 min, and maintained for additional 1.9 min (13min in total).; Injection volume: 10 μL
Num peaks: 195
68.99685 5727
83.9859 214
83.99141 214
84.98337 250
84.99473 258
85.00771 295
85.01518 159
86.9959 591
87.00333 578
87.00811 584
92.99067 488
96.99506 172
97.00617 181
98.00313 281
101.99252 555
101.99722 555
106.97527 177
106.98524 172
107.00916 546
108.98479 240
108.9997 367
109.00499 383
109.0134 369
111.00876 2679
114.00168 183
114.01153 180
115.03892 8092
115.99087 762
115.99754 925
116.00876 989
116.02099 500
116.0334 433
116.04423 308
116.05141 314
116.06321 285
118.99033 145
121.00486 317
121.02135 382
121.02742 252
123.0199 527
123.03174 468
124.97158 175
124.97728 302
124.99013 429
125.00031 517
125.01693 293
126.97221 275
126.98705 309
127.98431 190
127.99252 306
127.99791 337
128.0094 341
129.01881 1016
129.99388 806
130.00807 1053
130.01564 1152
130.02611 1164
130.04106 193
132.0172 232
132.02708 228
132.03632 228
135.00414 464
135.01791 365
137.03842 489
138.99968 1945
139.00876 2063
139.02563 341
139.99332 262
140.00647 291
140.01674 287
140.98055 606
140.9893 655
140.99648 669
141.9996 158
142.0097 146
144.01213 1947
144.02582 1955
144.52023 220
144.52794 219
146.03949 181
147.9913 540
148.99686 199
149.01907 617
149.03407 591
150.96696 200
150.97496 204
151.00333 195
151.01396 191
151.02782 169
152.9705 171
152.99049 166
153.00192 235
153.02022 661
153.02975 650
153.03694 669
154.98323 513
155.00049 618
155.01849 573
157.01633 168
157.0491 6241
158.03719 3303
158.04648 3309
158.54448 365
161.99646 1113
162.01112 1072
162.49789 158
162.50797 175
162.51424 180
163.01993 440
163.03027 484
163.03957 473
164.00011 405
164.00836 414
165.02798 149
166.95026 197
166.95973 272
166.96887 279
166.97925 289
167.04137 648
167.0493 629
168.9933 241
169.01331 701
169.02321 717
170.99855 204
171.01408 225
172.0262 180
176.02271 1454
176.04312 854
176.50786 145
176.52718 168
178.02005 748
178.03929 661
185.03067 505
185.04478 555
187.00934 222
187.02618 187
192.03535 530
192.04491 511
194.98376 277
194.99741 177
196.99397 180
197.0081 270
197.01865 268
198.98102 171
198.99323 231
199.00719 241
199.05029 192
201.02208 286
201.03915 340
201.05008 283
208.02969 545
208.04443 402
215.03493 559
215.05818 204
222.02155 256
222.04126 1379
222.05382 1388
222.53999 250
222.54803 260
222.56024 206
223.06383 296
223.07739 268
224.04016 178
224.05597 189
227.01614 362
227.02727 371
229.04153 555
229.056 617
229.07724 390
236.06256 2295
236.56401 420
238.04411 196
238.05807 275
238.07231 262
241.03934 159
245.06374 177
245.07671 173
252.06213 263
252.07491 391
252.08531 369
271.08197 149
273.05475 334
273.06998 396
282.06891 208
282.08527 300
282.09589 258
296.0867 1176
296.10507 1334
296.60745 293
299.1106 14467
300.11325 1131
300.12793 1040
301.12448 163
315.07098 208
315.08978 230
Name: Mono(2-ethylhexyl) phthalate
PrecursorMZ: 317.1155
PrecursorType: [M+K]+
IonMode: Positive
Formula: C16H22O4
SMILES: CCCCC(CC)COC(=O)C1=CC=CC=C1C(=O)O
InChI: 
InChIKey: DJDSLBVSSOQSLW-UHFFFAOYSA-N
RetentionTime: 8.480925
CCS: 
CollisionEnergy: 20-40 eV
InstrumentType: UPLC-QTOF-MS
Comment: PI: Cristina Nerin; Data collector: QiZhi Su, GUIA, University of Zaragoza, Spain; Collision energy: 20-40 V; Instrument: Waters HPLC-QTOF-MS (Xevo G2 QTof); Ionization: ESI; Deconvoluted by MS-DIAL; Column: Waters AtlantisTM premier BEH C18 AX column (2.1 × 100mm x 1.7μm); Flow rate: 0.3mL/min; Mobile phase A and B are water and methnaol, respectively, both with 0.1% formic acid; Gradient elution: from A/B (95/5) to A/B (100/0) in 7min, kept for 4 min, then back to A/B (95/5) in 0.1 min, and maintained for additional 1.9 min (13min in total).; Injection volume: 10 μL
Num peaks: 51
65.03884 5066
71.08454 321
71.09089 322
73.04592 11688
73.06284 11686
74.04884 949
74.0574 967
74.06429 1051
77.03857 501
89.04134 289
93.0331 4888
121.01284 5016
121.02832 4938
122.02758 301
122.03419 297
133.01128 338
133.02211 354
133.04297 331
149.02324 28584
150.0224 1309
150.03201 1258
160.9921 292
160.9985 301
163.0602 2762
164.06032 415
164.07137 394
167.03539 406
167.04694 375
170.99208 1169
171.00497 1218
189.01735 1554
189.03551 1314
191.00307 641
204.97977 795
204.98953 769
207.06207 908
207.0737 918
223.09348 449
248.9678 309
250.96132 1240
250.97142 1101
266.99942 10473
268.0015 1880
268.99887 871
284.28534 502
284.29425 553
284.30685 495
301.14069 26110
302.14496 2660
311.09937 580
317.10684 21544
Name: Dioctyl phthalate
PrecursorMZ: 391.2842
PrecursorType: [M+H]+
IonMode: Positive
Formula: C24H38O4
SMILES: CCCCCCCCOC(=O)C1=CC=CC=C1C(=O)OCCCCCCCC
InChI: 
InChIKey: MQIUGAXCHLFZKX-UHFFFAOYSA-N
RetentionTime: 8.611628
CCS: 
CollisionEnergy: 20-40 eV
InstrumentType: UPLC-QTOF-MS
Comment: PI: Cristina Nerin; Data collector: QiZhi Su, GUIA, University of Zaragoza, Spain; Collision energy: 20-40 V; Instrument: Waters HPLC-QTOF-MS (Xevo G2 QTof); Ionization: ESI; Deconvoluted by MS-DIAL; Column: Waters AtlantisTM premier BEH C18 AX column (2.1 × 100mm x 1.7μm); Flow rate: 0.3mL/min; Mobile phase A and B are water and methnaol, respectively, both with 0.1% formic acid; Gradient elution: from A/B (95/5) to A/B (100/0) in 7min, kept for 4 min, then back to A/B (95/5) in 0.1 min, and maintained for additional 1.9 min (13min in total).; Injection volume: 10 μL
Num peaks: 12
65.03784 7250
71.08463 18758
73.04572 4417
73.05937 4388
93.0329 8400
121.02797 10635
149.02238 361060
150.02611 26452
167.0334 11064
266.99875 5570
301.1395 5422
317.10522 12434
Name: "Bisphenol A (3-chloro-2-hydroxypropyl) (2,3-dihydroxypropyl) ether"
PrecursorMZ: 395.1624
PrecursorType: [M+H]+
IonMode: Positive
Formula: C21H27ClO5
SMILES: CC(C)(C1=CC=C(C=C1)OCC(CO)O)C2=CC=C(C=C2)OCC(CCl)O
InChI: 
InChIKey: HDTYUHNZRYZEEB-UHFFFAOYSA-N
RetentionTime: 6.674937
CCS: 
CollisionEnergy: 20-40 eV
InstrumentType: UPLC-QTOF-MS
Comment: PI: Cristina Nerin; Data collector: QiZhi Su, GUIA, University of Zaragoza, Spain; Collision energy: 20-40 V; Instrument: Waters HPLC-QTOF-MS (Xevo G2 QTof); Ionization: ESI; Deconvoluted by MS-DIAL; Column: Waters AtlantisTM premier BEH C18 AX column (2.1 × 100mm x 1.7μm); Flow rate: 0.3mL/min; Mobile phase A and B are water and methnaol, respectively, both with 0.1% formic acid; Gradient elution: from A/B (95/5) to A/B (100/0) in 7min, kept for 4 min, then back to A/B (95/5) in 0.1 min, and maintained for additional 1.9 min (13min in total).; Injection volume: 10 μL
Num peaks: 35
65.03793 15629
77.03913 2497
92.0117 987
92.01987 987
92.02721 984
93.03322 16850
93.9845 1919
93.99052 1920
102.99378 1674
111.98229 971
111.99384 1021
112.00116 1021
112.01046 1006
121.02804 17342
149.02324 96617
150.02672 5547
160.00639 1380
160.99342 2454
161.00288 2510
167.99673 28640
168.4995 4219
168.99564 1107
169.01233 1269
177.00246 12936
177.50285 1998
177.522 1833
186.00743 10813
186.51013 1581
204.98288 6019
207.03195 1604
231.06284 1865
247.02991 7039
273.11081 17809
274.11343 1740
274.12814 1604
Name: "Bisphenol A (3-chloro-2-hydroxypropyl) (2,3-dihydroxypropyl) ether"
PrecursorMZ: 395.1637
PrecursorType: [M+H]+
IonMode: Positive
Formula: C21H27ClO5
SMILES: CC(C)(C1=CC=C(C=C1)OCC(CO)O)C2=CC=C(C=C2)OCC(CCl)O
InChI: 
InChIKey: HDTYUHNZRYZEEB-UHFFFAOYSA-N
RetentionTime: 6.501192
CCS: 
CollisionEnergy: 20-40 eV
InstrumentType: UPLC-QTOF-MS
Comment: PI: Cristina Nerin; Data collector: QiZhi Su, GUIA, University of Zaragoza, Spain; Collision energy: 20-40 V; Instrument: Waters HPLC-QTOF-MS (Xevo G2 QTof); Ionization: ESI; Deconvoluted by MS-DIAL; Column: Waters AtlantisTM premier BEH C18 AX column (2.1 × 100mm x 1.7μm); Flow rate: 0.3mL/min; Mobile phase A and B are water and methnaol, respectively, both with 0.1% formic acid; Gradient elution: from A/B (95/5) to A/B (100/0) in 7min, kept for 4 min, then back to A/B (95/5) in 0.1 min, and maintained for additional 1.9 min (13min in total).; Injection volume: 10 μL
Num peaks: 35
95.04994 420
107.04978 3599
108.04613 181
108.0575 190
135.06067 9513
135.08012 11966
136.07858 673
136.08791 667
173.09451 607
173.10701 607
189.02512 177
191.08606 246
191.10832 799
199.06822 221
209.11792 15487
210.1201 1177
210.13409 1124
227.08319 13459
228.06778 272
228.08577 1008
228.09651 956
229.08263 3365
230.08902 317
323.09659 1956
324.08154 172
324.09628 271
378.14981 849
378.17221 926
378.64871 422
378.66547 435
379.12466 487
381.16226 366
381.18295 273
395.16318 700
395.17706 478
Name: "Bisphenol A (3-chloro-2-hydroxypropyl) (2,3-dihydroxypropyl) ether"
PrecursorMZ: 412.1902
PrecursorType: [M+NH4]+
IonMode: Positive
Formula: C21H27ClO5
SMILES: CC(C)(C1=CC=C(C=C1)OCC(CO)O)C2=CC=C(C=C2)OCC(CCl)O
InChI: 
InChIKey: HDTYUHNZRYZEEB-UHFFFAOYSA-N
RetentionTime: 6.50185
CCS: 
CollisionEnergy: 20-40 eV
InstrumentType: UPLC-QTOF-MS
Comment: PI: Cristina Nerin; Data collector: QiZhi Su, GUIA, University of Zaragoza, Spain; Collision energy: 20-40 V; Instrument: Waters HPLC-QTOF-MS (Xevo G2 QTof); Ionization: ESI; Deconvoluted by MS-DIAL; Column: Waters AtlantisTM premier BEH C18 AX column (2.1 × 100mm x 1.7μm); Flow rate: 0.3mL/min; Mobile phase A and B are water and methnaol, respectively, both with 0.1% formic acid; Gradient elution: from A/B (95/5) to A/B (100/0) in 7min, kept for 4 min, then back to A/B (95/5) in 0.1 min, and maintained for additional 1.9 min (13min in total).; Injection volume: 10 μL
Num peaks: 61
95.04816 209
95.05352 211
107.04896 2003
107.0553 1997
108.05318 127
112.98882 134
112.99818 139
113.00676 116
135.08118 7742
135.10263 137
136.07703 407
136.08786 405
161.08942 110
161.10028 109
173.08685 462
173.09479 498
173.10507 497
189.02234 336
189.03598 354
191.10606 590
191.11935 565
192.10648 109
192.11826 111
199.07056 325
199.07916 313
199.5761 95
209.1188 8884
210.10483 717
210.12468 792
227.08435 6114
228.07822 530
228.09619 566
229.05522 216
229.08484 1736
230.08072 142
267.06332 94
279.05774 123
279.077 152
305.09674 123
323.09995 2452
324.10269 274
324.11484 257
341.09677 100
341.11993 113
378.16071 685
378.64484 211
378.6618 303
378.68311 113
379.11795 498
379.1347 490
379.15201 102
381.16473 414
381.18518 147
395.16119 192
396.14035 106
396.15607 124
397.13452 9289
398.14142 1597
399.12592 182
399.15201 193
412.20322 108
Name: Dioctyl phthalate
PrecursorMZ: 413.2666
PrecursorType: [M+Na]+
IonMode: Positive
Formula: C24H38O4
SMILES: CCCCCCCCOC(=O)C1=CC=CC=C1C(=O)OCCCCCCCC
InChI: 
InChIKey: MQIUGAXCHLFZKX-UHFFFAOYSA-N
RetentionTime: 8.606559
CCS: 
CollisionEnergy: 20-40 eV
InstrumentType: UPLC-QTOF-MS
Comment: PI: Cristina Nerin; Data collector: QiZhi Su, GUIA, University of Zaragoza, Spain; Collision energy: 20-40 V; Instrument: Waters HPLC-QTOF-MS (Xevo G2 QTof); Ionization: ESI; Deconvoluted by MS-DIAL; Column: Waters AtlantisTM premier BEH C18 AX column (2.1 × 100mm x 1.7μm); Flow rate: 0.3mL/min; Mobile phase A and B are water and methnaol, respectively, both with 0.1% formic acid; Gradient elution: from A/B (95/5) to A/B (100/0) in 7min, kept for 4 min, then back to A/B (95/5) in 0.1 min, and maintained for additional 1.9 min (13min in total).; Injection volume: 10 μL
Num peaks: 13
65.03811 5361
71.08475 20603
93.03286 5875
121.02768 7692
149.0228 283568
149.04103 283194
150.02618 19456
167.03407 9300
204.98169 5570
266.99915 3931
301.14044 9556
317.10611 30651
413.26514 367117
Name: "Bisphenol A (3-chloro-2-hydroxypropyl) (2,3-dihydroxypropyl) ether"
PrecursorMZ: 417.1458
PrecursorType: [M+Na]+
IonMode: Positive
Formula: C21H27ClO5
SMILES: CC(C)(C1=CC=C(C=C1)OCC(CO)O)C2=CC=C(C=C2)OCC(CCl)O
InChI: 
InChIKey: HDTYUHNZRYZEEB-UHFFFAOYSA-N
RetentionTime: 6.502188
CCS: 
CollisionEnergy: 20-40 eV
InstrumentType: UPLC-QTOF-MS
Comment: PI: Cristina Nerin; Data collector: QiZhi Su, GUIA, University of Zaragoza, Spain; Collision energy: 20-40 V; Instrument: Waters HPLC-QTOF-MS (Xevo G2 QTof); Ionization: ESI; Deconvoluted by MS-DIAL; Column: Waters AtlantisTM premier BEH C18 AX column (2.1 × 100mm x 1.7μm); Flow rate: 0.3mL/min; Mobile phase A and B are water and methnaol, respectively, both with 0.1% formic acid; Gradient elution: from A/B (95/5) to A/B (100/0) in 7min, kept for 4 min, then back to A/B (95/5) in 0.1 min, and maintained for additional 1.9 min (13min in total).; Injection volume: 10 μL
Num peaks: 50
77.03607 234
77.04145 236
107.04898 1592
107.05862 1374
112.98083 143
112.9921 154
135.08072 6571
136.08791 383
161.10007 124
173.08736 688
173.1012 695
189.01929 361
189.03171 364
191.11122 660
199.06633 321
199.08075 281
209.11847 2622
210.11986 639
210.13377 682
228.09029 200
229.08224 3220
230.10007 322
279.07251 174
305.09305 139
323.09735 2598
324.10495 348
341.1062 152
378.15598 314
378.68103 291
379.10736 360
379.13361 518
379.1554 152
381.14487 274
381.16263 462
381.18475 133
396.17419 200
396.65427 131
397.13446 12151
398.11783 449
398.14026 1891
398.16022 680
399.13745 225
399.15631 215
401.12088 144
412.19171 398
412.20724 383
413.10193 223
414.18677 167
415.13422 146
417.14798 1783
Name: Dioctyl phthalate
PrecursorMZ: 429.2415
PrecursorType: [M+K]+
IonMode: Positive
Formula: C24H38O4
SMILES: CCCCCCCCOC(=O)C1=CC=CC=C1C(=O)OCCCCCCCC
InChI: 
InChIKey: MQIUGAXCHLFZKX-UHFFFAOYSA-N
RetentionTime: 8.61037
CCS: 
CollisionEnergy: 20-40 eV
InstrumentType: UPLC-QTOF-MS
Comment: PI: Cristina Nerin; Data collector: QiZhi Su, GUIA, University of Zaragoza, Spain; Collision energy: 20-40 V; Instrument: Waters HPLC-QTOF-MS (Xevo G2 QTof); Ionization: ESI; Deconvoluted by MS-DIAL; Column: Waters AtlantisTM premier BEH C18 AX column (2.1 × 100mm x 1.7μm); Flow rate: 0.3mL/min; Mobile phase A and B are water and methnaol, respectively, both with 0.1% formic acid; Gradient elution: from A/B (95/5) to A/B (100/0) in 7min, kept for 4 min, then back to A/B (95/5) in 0.1 min, and maintained for additional 1.9 min (13min in total).; Injection volume: 10 μL
Num peaks: 17
71.08508 14481
121.02851 4373
149.02274 180209
150.0266 11170
167.03394 5961
204.98161 4827
266.99921 3784
281.05093 9300
301.14093 8190
317.10593 27609
355.06927 21059
356.07019 7176
357.06772 3948
413.26508 325996
414.26813 74959
415.27136 7347
429.24231 3765
Name: "Bisphenol A (3-chloro-2-hydroxypropyl) (2,3-dihydroxypropyl) ether"
PrecursorMZ: 433.1153
PrecursorType: [M+K]+
IonMode: Positive
Formula: C21H27ClO5
SMILES: CC(C)(C1=CC=C(C=C1)OCC(CO)O)C2=CC=C(C=C2)OCC(CCl)O
InChI: 
InChIKey: HDTYUHNZRYZEEB-UHFFFAOYSA-N
RetentionTime: 6.499267
CCS: 
CollisionEnergy: 20-40 eV
InstrumentType: UPLC-QTOF-MS
Comment: PI: Cristina Nerin; Data collector: QiZhi Su, GUIA, University of Zaragoza, Spain; Collision energy: 20-40 V; Instrument: Waters HPLC-QTOF-MS (Xevo G2 QTof); Ionization: ESI; Deconvoluted by MS-DIAL; Column: Waters AtlantisTM premier BEH C18 AX column (2.1 × 100mm x 1.7μm); Flow rate: 0.3mL/min; Mobile phase A and B are water and methnaol, respectively, both with 0.1% formic acid; Gradient elution: from A/B (95/5) to A/B (100/0) in 7min, kept for 4 min, then back to A/B (95/5) in 0.1 min, and maintained for additional 1.9 min (13min in total).; Injection volume: 10 μL
Num peaks: 52
95.04994 420
107.04978 3599
108.04613 181
108.0575 190
135.06067 9513
135.08012 11966
136.07858 673
136.08791 667
173.09451 607
173.10701 607
189.02512 177
191.08606 246
191.10832 799
199.06822 221
209.11792 15487
210.1201 1177
210.13409 1124
227.08319 13459
228.06778 272
228.08577 1008
228.09651 956
229.08263 3365
230.08902 317
323.09659 1956
324.08154 172
324.09628 271
378.14981 849
378.17221 926
378.64871 422
378.66547 435
379.12466 487
381.16226 366
381.18295 273
395.16318 958
395.17706 900
396.15805 286
396.17691 210
397.13391 11197
398.13007 1582
398.14618 1569
399.15173 219
412.18887 387
413.10724 205
414.12149 223
414.14117 191
414.18219 157
417.14304 1527
418.14703 338
419.13022 374
419.15366 465
433.10986 2046
433.14047 180
Name: Diisopropyl phthalate
PrecursorMZ: 523.2322
PrecursorType: [2M+Na]+
IonMode: Positive
Formula: C14H18O4
SMILES: CC(C)OC(=O)C1=CC=CC=C1C(=O)OC(C)C
InChI: 
InChIKey: QWDBCIAVABMJPP-UHFFFAOYSA-N
RetentionTime: 6.6757
CCS: 
CollisionEnergy: 20-40 eV
InstrumentType: UPLC-QTOF-MS
Comment: PI: Cristina Nerin; Data collector: QiZhi Su, GUIA, University of Zaragoza, Spain; Collision energy: 20-40 V; Instrument: Waters HPLC-QTOF-MS (Xevo G2 QTof); Ionization: ESI; Deconvoluted by MS-DIAL; Column: Waters AtlantisTM premier BEH C18 AX column (2.1 × 100mm x 1.7μm); Flow rate: 0.3mL/min; Mobile phase A and B are water and methnaol, respectively, both with 0.1% formic acid; Gradient elution: from A/B (95/5) to A/B (100/0) in 7min, kept for 4 min, then back to A/B (95/5) in 0.1 min, and maintained for additional 1.9 min (13min in total).; Injection volume: 10 μL
Num peaks: 43
65.0267 7537
65.0388 7537
77.03568 1097
77.0404 1096
92.02269 607
92.03296 603
93.03311 7546
93.98614 1259
93.99173 1266
94.00144 1259
102.98851 1534
102.99504 1534
111.99514 873
111.99985 864
121.02808 8350
149.02301 48671
150.02821 2521
160.00386 647
160.01231 650
160.02155 644
160.98383 1659
160.99171 1694
161.00949 1671
167.99652 10556
168.49619 1627
168.50533 1627
169.00668 554
176.99945 4951
177.00803 4943
177.50183 873
177.51335 854
186.00703 3523
186.50984 558
203.02397 649
203.04057 675
204.98132 3088
207.03093 592
231.05692 1057
231.0679 1075
247.02803 4609
273.11017 9087
274.11328 1095
274.12369 1071
Name: Triethyl citrate
PrecursorMZ: 575.2314
PrecursorType: [2M+Na]+
IonMode: Positive
Formula: C12H20O7
SMILES: CCOC(=O)CC(CC(=O)OCC)(C(=O)OCC)O
InChI: 
InChIKey: DOOTYTYQINUNNV-UHFFFAOYSA-N
RetentionTime: 5.257993
CCS: 
CollisionEnergy: 20-40 eV
InstrumentType: UPLC-QTOF-MS
Comment: PI: Cristina Nerin; Data collector: QiZhi Su, GUIA, University of Zaragoza, Spain; Collision energy: 20-40 V; Instrument: Waters HPLC-QTOF-MS (Xevo G2 QTof); Ionization: ESI; Deconvoluted by MS-DIAL; Column: Waters AtlantisTM premier BEH C18 AX column (2.1 × 100mm x 1.7μm); Flow rate: 0.3mL/min; Mobile phase A and B are water and methnaol, respectively, both with 0.1% formic acid; Gradient elution: from A/B (95/5) to A/B (100/0) in 7min, kept for 4 min, then back to A/B (95/5) in 0.1 min, and maintained for additional 1.9 min (13min in total).; Injection volume: 10 μL
Num peaks: 223
68.99643 11220
70.00072 303
83.98001 235
83.9864 231
87.00082 936
87.00818 930
92.99138 514
97.99846 212
98.00597 202
101.98846 532
101.99803 517
106.98903 931
107.00162 856
107.00813 765
107.01389 583
109.00433 466
111.00719 4305
113.01021 190
113.0198 199
113.02848 175
115.03849 12540
115.98385 543
115.99408 884
116.0126 965
116.04453 463
116.05143 466
119.00616 189
120.99303 258
121.00147 457
121.00964 529
121.02414 349
121.03409 250
122.00168 174
122.01021 210
122.0201 235
122.02629 233
122.97453 186
123.0018 684
123.01995 760
124.98064 448
124.99001 508
124.9984 562
125.01505 413
125.02213 167
126.97035 301
126.98347 280
126.99366 228
127.98976 219
127.99924 250
128.0139 272
129.01749 1612
129.02324 1626
130.00317 1444
130.00963 1482
130.0168 1637
130.03317 587
132.01224 256
132.02664 257
132.03699 246
133.9944 184
134.0094 190
135.00067 717
135.00928 751
135.0204 677
135.02876 237
136.99733 195
137.03409 703
137.04491 699
139.00429 3184
139.01985 3366
139.03709 229
139.99559 320
140.0052 351
140.01866 256
140.97878 646
140.9902 826
141.00023 775
141.00769 268
141.99196 292
142.00949 300
144.00003 316
144.01054 2423
144.02576 2466
144.03864 2202
144.52711 221
146.02206 222
146.0394 205
146.0463 175
147.99527 650
149.00655 679
149.0183 628
149.99188 213
151.00742 296
151.01607 289
151.03252 273
153.02292 754
153.03314 734
153.04269 720
154.99757 570
155.00819 641
156.01376 247
156.02805 247
157.00037 295
157.0128 231
157.0197 170
157.0493 10601
158.0164 307
158.04129 5186
158.52686 551
158.54373 671
159.04216 253
159.05232 258
162.00578 1293
163.02438 503
163.03381 454
163.0408 478
163.05156 371
163.98665 387
164.00429 533
165.02151 310
165.03075 292
166.94986 325
166.96373 401
166.97449 408
167.04022 1106
167.04791 1134
167.06104 950
167.07181 214
169.00443 717
169.01639 705
170.99266 353
171.01184 561
171.0208 535
171.02878 486
172.03381 257
172.04268 226
176.02173 1474
176.52263 245
177.02405 208
177.03491 183
178.01797 908
178.03653 910
179.03976 236
179.04976 210
181.05904 174
185.00867 321
185.03017 828
186.03047 204
186.05684 174
187.00121 243
187.01561 320
187.03146 214
192.03712 594
194.0159 263
194.03442 214
197.01009 320
197.02393 329
198.98158 169
198.99405 187
199.02444 208
199.03488 513
199.04744 398
201.01018 217
201.03004 582
201.04228 559
202.04228 215
202.05153 191
208.02681 681
208.03584 668
209.05795 217
211.0379 188
211.05197 204
215.01961 483
215.03635 1049
215.05197 1144
215.06242 309
215.53705 209
215.54956 212
222.04739 2277
222.53464 333
222.54803 432
222.56123 378
223.05605 349
223.07506 400
224.04903 273
227.04694 349
229.05363 1006
229.06322 996
229.55101 276
229.55923 280
236.05124 4238
236.06316 4214
236.55798 737
236.56784 715
237.05235 177
237.06586 189
238.04178 546
238.05986 645
238.07701 452
245.05832 296
245.07304 272
252.06615 534
252.07561 677
252.08716 594
252.57062 176
252.58507 171
259.07657 191
259.09164 177
268.0697 224
268.08374 205
273.07596 240
273.095 289
282.08463 730
282.58115 187
282.59595 174
296.10153 2350
296.59195 560
296.60831 582
299.11029 16569
300.11621 1212
302.06125 185
315.07736 203
369.04697 209
Name: Mono(2-ethylhexyl) phthalate
PrecursorMZ: 579.293
PrecursorType: [2M+Na]+
IonMode: Positive
Formula: C16H22O4
SMILES: CCCCC(CC)COC(=O)C1=CC=CC=C1C(=O)O
InChI: 
InChIKey: DJDSLBVSSOQSLW-UHFFFAOYSA-N
RetentionTime: 8.480927
CCS: 
CollisionEnergy: 20-40 eV
InstrumentType: UPLC-QTOF-MS
Comment: PI: Cristina Nerin; Data collector: QiZhi Su, GUIA, University of Zaragoza, Spain; Collision energy: 20-40 V; Instrument: Waters HPLC-QTOF-MS (Xevo G2 QTof); Ionization: ESI; Deconvoluted by MS-DIAL; Column: Waters AtlantisTM premier BEH C18 AX column (2.1 × 100mm x 1.7μm); Flow rate: 0.3mL/min; Mobile phase A and B are water and methnaol, respectively, both with 0.1% formic acid; Gradient elution: from A/B (95/5) to A/B (100/0) in 7min, kept for 4 min, then back to A/B (95/5) in 0.1 min, and maintained for additional 1.9 min (13min in total).; Injection volume: 10 μL
Num peaks: 66
65.03884 5413
71.08454 445
71.09089 447
73.04592 11459
73.06284 11440
74.04884 702
74.0574 712
74.06429 742
77.03857 563
93.0331 5295
121.01284 5191
121.02832 5177
122.02758 301
122.03419 297
133.01128 396
133.02211 474
133.04297 319
149.02324 29269
150.0224 1398
150.03201 1363
160.9921 625
160.9985 634
163.0602 2762
164.06032 415
164.07137 394
167.03539 565
167.04694 529
170.99208 1000
171.00497 1061
189.01735 1409
189.03551 1098
191.00307 620
204.97977 1549
204.98953 1509
207.06207 944
207.0737 918
223.09348 466
248.9678 471
250.96132 1385
250.97142 1243
266.99942 7442
268.0015 1497
268.99887 416
273.11383 354
273.13034 368
284.28534 639
284.29425 694
284.30685 619
301.14069 23884
302.14496 2391
311.09937 479
317.10684 20838
318.11011 2302
323.12311 4507
324.11673 513
324.13382 565
339.09592 705
371.01151 294
371.10019 805
445.11774 314
447.229 426
447.24866 493
465.11661 3016
466.12964 409
483.13525 1776
484.13913 355
Name: Dimethyl phthalate
PrecursorMZ: 195.0668
PrecursorType: [M+H]+
IonMode: Positive
Formula: C10H10O4
SMILES: COC(=O)C1=CC=CC=C1C(=O)OC
InChI: 
InChIKey: NIQCNGHVCWTJSM-UHFFFAOYSA-N
RetentionTime: 5.070217
CCS: 
CollisionEnergy: 20-40 eV
InstrumentType: UPLC-QTOF-MS
Comment: PI: Cristina Nerin; Data collector: QiZhi Su, GUIA, University of Zaragoza, Spain; Collision energy: 20-40 V; Instrument: Waters HPLC-QTOF-MS (Xevo G2 QTof); Ionization: ESI; Deconvoluted by MS-DIAL; Column: Waters AtlantisTM premier BEH C18 AX column (2.1 × 100mm x 1.7μm); Flow rate: 0.3mL/min; Mobile phase A and B are water and methnaol, respectively, both with 0.1% formic acid; Gradient elution: from A/B (95/5) to A/B (100/0) in 7min, kept for 4 min, then back to A/B (95/5) in 0.1 min, and maintained for additional 1.9 min (13min in total).; Injection volume: 10 μL
Num peaks: 23
70.98081 1889
77.03826 38439
78.04322 1574
78.05511 1590
79.05386 2176
79.07233 2243
92.02556 9760
93.0257 392
93.03257 391
105.03412 3098
120.02107 1055
120.03101 1060
133.02856 10090
134.02605 614
134.03156 621
134.03918 613
135.04437 9680
136.0464 506
136.05423 498
156.99771 785
163.03923 23272
164.03723 1457
164.04611 1452
Name: "Bisphenol A (3-chloro-2-hydroxypropyl) (2,3-dihydroxypropyl) ether"
PrecursorMZ: 789.3215
PrecursorType: [2M+H]+
IonMode: Positive
Formula: C21H27ClO5
SMILES: CC(C)(C1=CC=C(C=C1)OCC(CO)O)C2=CC=C(C=C2)OCC(CCl)O
InChI: 
InChIKey: HDTYUHNZRYZEEB-UHFFFAOYSA-N
RetentionTime: 6.501192
CCS: 
CollisionEnergy: 20-40 eV
InstrumentType: UPLC-QTOF-MS
Comment: PI: Cristina Nerin; Data collector: QiZhi Su, GUIA, University of Zaragoza, Spain; Collision energy: 20-40 V; Instrument: Waters HPLC-QTOF-MS (Xevo G2 QTof); Ionization: ESI; Deconvoluted by MS-DIAL; Column: Waters AtlantisTM premier BEH C18 AX column (2.1 × 100mm x 1.7μm); Flow rate: 0.3mL/min; Mobile phase A and B are water and methnaol, respectively, both with 0.1% formic acid; Gradient elution: from A/B (95/5) to A/B (100/0) in 7min, kept for 4 min, then back to A/B (95/5) in 0.1 min, and maintained for additional 1.9 min (13min in total).; Injection volume: 10 μL
Num peaks: 70
95.04994 420
107.04978 3599
108.04613 181
108.0575 190
135.06067 9513
135.08012 11966
136.07858 673
136.08791 667
173.09451 607
173.10701 607
189.02512 177
191.08606 246
191.10832 799
199.06822 221
209.11792 15487
210.1201 1177
210.13409 1124
227.08319 13459
228.06778 272
228.08577 1008
228.09651 956
229.08263 3365
230.08902 317
323.09659 1956
324.08154 172
324.09628 271
378.14981 849
378.17221 926
378.64871 422
378.66547 435
379.12466 487
381.16226 366
381.18295 273
395.16318 958
395.17706 900
396.15805 286
396.17691 210
397.13391 11197
398.13007 1582
398.14618 1569
399.15173 219
412.18887 387
413.10724 205
414.12149 223
414.14117 191
414.18219 157
417.14304 1527
418.14703 338
419.13022 374
419.15366 465
433.10986 2079
434.11661 413
434.1301 409
435.11118 632
469.09622 398
471.09286 226
505.34393 378
611.20795 2448
611.2373 772
611.68707 386
611.71069 1858
611.74518 446
612.21069 3835
612.69006 394
612.71533 2020
613.20074 1566
613.22284 1483
613.71747 652
614.21021 363
789.31067 459
Name: Dioctyl phthalate
PrecursorMZ: 798.5909
PrecursorType: [2M+NH4]+
IonMode: Positive
Formula: C24H38O4
SMILES: CCCCCCCCOC(=O)C1=CC=CC=C1C(=O)OCCCCCCCC
InChI: 
InChIKey: MQIUGAXCHLFZKX-UHFFFAOYSA-N
RetentionTime: 8.609083
CCS: 
CollisionEnergy: 20-40 eV
InstrumentType: UPLC-QTOF-MS
Comment: PI: Cristina Nerin; Data collector: QiZhi Su, GUIA, University of Zaragoza, Spain; Collision energy: 20-40 V; Instrument: Waters HPLC-QTOF-MS (Xevo G2 QTof); Ionization: ESI; Deconvoluted by MS-DIAL; Column: Waters AtlantisTM premier BEH C18 AX column (2.1 × 100mm x 1.7μm); Flow rate: 0.3mL/min; Mobile phase A and B are water and methnaol, respectively, both with 0.1% formic acid; Gradient elution: from A/B (95/5) to A/B (100/0) in 7min, kept for 4 min, then back to A/B (95/5) in 0.1 min, and maintained for additional 1.9 min (13min in total).; Injection volume: 10 μL
Num peaks: 17
71.08508 15274
93.03412 3490
121.02851 4843
149.02274 190264
150.0266 11922
167.03394 6374
204.98161 4946
301.14093 8185
317.10593 28457
355.06927 3522
413.26508 325997
414.26813 74956
415.27136 7347
429.24231 3397
595.2569 7618
605.39185 3461
707.38159 7061
Name: Dioctyl phthalate
PrecursorMZ: 803.5432
PrecursorType: [2M+Na]+
IonMode: Positive
Formula: C24H38O4
SMILES: CCCCCCCCOC(=O)C1=CC=CC=C1C(=O)OCCCCCCCC
InChI: 
InChIKey: MQIUGAXCHLFZKX-UHFFFAOYSA-N
RetentionTime: 8.61113
CCS: 
CollisionEnergy: 20-40 eV
InstrumentType: UPLC-QTOF-MS
Comment: PI: Cristina Nerin; Data collector: QiZhi Su, GUIA, University of Zaragoza, Spain; Collision energy: 20-40 V; Instrument: Waters HPLC-QTOF-MS (Xevo G2 QTof); Ionization: ESI; Deconvoluted by MS-DIAL; Column: Waters AtlantisTM premier BEH C18 AX column (2.1 × 100mm x 1.7μm); Flow rate: 0.3mL/min; Mobile phase A and B are water and methnaol, respectively, both with 0.1% formic acid; Gradient elution: from A/B (95/5) to A/B (100/0) in 7min, kept for 4 min, then back to A/B (95/5) in 0.1 min, and maintained for additional 1.9 min (13min in total).; Injection volume: 10 μL
Num peaks: 14
65.03784 4543
71.08463 20449
93.0329 5475
121.02797 7701
149.02238 329050
150.02611 24024
167.0334 10515
204.98126 4024
317.10522 18038
413.26364 359648
414.26758 83107
415.26962 7472
429.23871 3730
707.37964 5359
Name: Dioctyl phthalate
PrecursorMZ: 819.5167
PrecursorType: [2M+K]+
IonMode: Positive
Formula: C24H38O4
SMILES: CCCCCCCCOC(=O)C1=CC=CC=C1C(=O)OCCCCCCCC
InChI: 
InChIKey: MQIUGAXCHLFZKX-UHFFFAOYSA-N
RetentionTime: 8.611341
CCS: 
CollisionEnergy: 20-40 eV
InstrumentType: UPLC-QTOF-MS
Comment: PI: Cristina Nerin; Data collector: QiZhi Su, GUIA, University of Zaragoza, Spain; Collision energy: 20-40 V; Instrument: Waters HPLC-QTOF-MS (Xevo G2 QTof); Ionization: ESI; Deconvoluted by MS-DIAL; Column: Waters AtlantisTM premier BEH C18 AX column (2.1 × 100mm x 1.7μm); Flow rate: 0.3mL/min; Mobile phase A and B are water and methnaol, respectively, both with 0.1% formic acid; Gradient elution: from A/B (95/5) to A/B (100/0) in 7min, kept for 4 min, then back to A/B (95/5) in 0.1 min, and maintained for additional 1.9 min (13min in total).; Injection volume: 10 μL
Num peaks: 15
65.03783 4144
71.0847 20466
93.03342 5087
121.02762 7332
149.02238 327980
150.02596 24067
167.03337 10506
204.98074 4045
317.1051 16006
355.06793 5865
413.26431 359742
414.2673 83135
415.27222 7480
429.24139 3727
707.38135 5362
Name: 2-Amino-4-methylbenzophenone
PrecursorMZ: 212.1089
PrecursorType: [M+H]+
IonMode: Positive
Formula: C14H13NO
SMILES: CC1=CC(=C(C=C1)C(=O)C2=CC=CC=C2)N
InChI: 
InChIKey: YINYAGBOKBLJHY-UHFFFAOYSA-N
RetentionTime: 6.599578
CCS: 
CollisionEnergy: 20-40 eV
InstrumentType: UPLC-QTOF-MS
Comment: PI: Cristina Nerin; Data collector: QiZhi Su, GUIA, University of Zaragoza, Spain; Collision energy: 20-40 V; Instrument: Waters HPLC-QTOF-MS (Xevo G2 QTof); Ionization: ESI; Deconvoluted by MS-DIAL; Column: Waters AtlantisTM premier BEH C18 AX column (2.1 × 100mm x 1.7μm); Flow rate: 0.3mL/min; Mobile phase A and B are water and methnaol, respectively, both with 0.1% formic acid; Gradient elution: from A/B (95/5) to A/B (100/0) in 7min, kept for 4 min, then back to A/B (95/5) in 0.1 min, and maintained for additional 1.9 min (13min in total).; Injection volume: 10 μL
Num peaks: 12
77.03809 27585
77.05437 27597
78.04138 1399
79.05396 11074
105.03312 58363
106.03815 2599
106.06451 30129
107.06908 1613
107.07512 1618
134.05949 88366
135.06447 5377
212.10715 2719
Name: Dimethyl phthalate
PrecursorMZ: 217.0477
PrecursorType: [M+Na]+
IonMode: Positive
Formula: C10H10O4
SMILES: COC(=O)C1=CC=CC=C1C(=O)OC
InChI: 
InChIKey: NIQCNGHVCWTJSM-UHFFFAOYSA-N
RetentionTime: 4.980083
CCS: 
CollisionEnergy: 20-40 eV
InstrumentType: UPLC-QTOF-MS
Comment: PI: Cristina Nerin; Data collector: QiZhi Su, GUIA, University of Zaragoza, Spain; Collision energy: 20-40 V; Instrument: Waters HPLC-QTOF-MS (Xevo G2 QTof); Ionization: ESI; Deconvoluted by MS-DIAL; Column: Waters AtlantisTM premier BEH C18 AX column (2.1 × 100mm x 1.7μm); Flow rate: 0.3mL/min; Mobile phase A and B are water and methnaol, respectively, both with 0.1% formic acid; Gradient elution: from A/B (95/5) to A/B (100/0) in 7min, kept for 4 min, then back to A/B (95/5) in 0.1 min, and maintained for additional 1.9 min (13min in total).; Injection volume: 10 μL
Num peaks: 32
64.03053 292
70.98177 917
70.98698 221
77.03827 9016
78.03873 145
78.04292 416
79.05354 893
81.07256 91
84.9612 1061
91.05304 108
92.0253 1870
92.03491 192
105.0321 676
105.04298 152
106.08549 210
120.01736 150
120.02514 231
133.02776 2302
134.03372 160
134.97375 115
135.04509 2628
135.06618 112
136.04703 167
156.99927 215
159.03531 122
163.04057 7195
164.0421 273
175.00104 100
202.99852 144
205.02077 305
214.03757 286
217.05067 96
Name: Dimethyl phthalate
PrecursorMZ: 217.048
PrecursorType: [M+Na]+
IonMode: Positive
Formula: C10H10O4
SMILES: COC(=O)C1=CC=CC=C1C(=O)OC
InChI: 
InChIKey: NIQCNGHVCWTJSM-UHFFFAOYSA-N
RetentionTime: 5.072483
CCS: 
CollisionEnergy: 20-40 eV
InstrumentType: UPLC-QTOF-MS
Comment: PI: Cristina Nerin; Data collector: QiZhi Su, GUIA, University of Zaragoza, Spain; Collision energy: 20-40 V; Instrument: Waters HPLC-QTOF-MS (Xevo G2 QTof); Ionization: ESI; Deconvoluted by MS-DIAL; Column: Waters AtlantisTM premier BEH C18 AX column (2.1 × 100mm x 1.7μm); Flow rate: 0.3mL/min; Mobile phase A and B are water and methnaol, respectively, both with 0.1% formic acid; Gradient elution: from A/B (95/5) to A/B (100/0) in 7min, kept for 4 min, then back to A/B (95/5) in 0.1 min, and maintained for additional 1.9 min (13min in total).; Injection volume: 10 μL
Num peaks: 104
57.07014 64
58.06527 134
63.02369 50
64.03119 193
67.05418 43
70.98149 266
71.08447 43
72.07797 51
72.6767 39
73.04279 41
73.05116 171
75.02856 72
76.4468 42
77.0388 3866
78.04057 263
78.04984 101
78.12135 99
78.98795 196
79.05121 288
79.05604 281
80.05786 70
80.94453 39
82.987 54
84.95937 487
84.96732 84
85.00441 57
88.95763 94
89.05904 46
91.04787 109
91.05654 490
92.02384 862
92.03159 121
92.0577 41
92.99757 55
93.03122 86
93.06461 44
93.07053 54
95.08787 60
96.99831 74
101.06155 59
101.95284 42
105.03065 133
105.03858 108
105.06775 42
107.04523 48
107.05185 78
107.06026 40
107.09258 48
108.05897 71
110.96992 52
110.97706 84
111.04848 43
114.07344 49
115.00988 56
115.03228 48
120.01505 54
120.0227 97
120.03044 54
125.95959 67
127.05017 67
129.07431 41
129.2518 65
131.08563 47
133.02238 160
133.03101 750
135.00233 59
135.04237 833
135.0517 624
136.04761 41
139.01549 45
144.02211 44
145.10596 71
147.02324 54
149.02312 42
159.02615 82
160.02809 59
163.03889 1835
164.03465 91
164.04857 96
167.0488 43
168.07613 69
176.01254 91
176.022 77
181.05885 52
186.99211 50
187.08521 40
190.97992 40
191.015 54
194.03194 40
194.98912 44
197.03 45
201.04279 49
205.00946 50
205.02206 92
206.0341 47
207.02422 41
207.03867 45
207.9205 66
211.07367 111
211.59804 46
212.23894 138
214.0239 47
217.03624 62
217.0578 44
Name: 2-Amino-4-methylbenzophenone
PrecursorMZ: 234.0904
PrecursorType: [M+Na]+
IonMode: Positive
Formula: C14H13NO
SMILES: CC1=CC(=C(C=C1)C(=O)C2=CC=CC=C2)N
InChI: 
InChIKey: YINYAGBOKBLJHY-UHFFFAOYSA-N
RetentionTime: 6.6021
CCS: 
CollisionEnergy: 20-40 eV
InstrumentType: UPLC-QTOF-MS
Comment: PI: Cristina Nerin; Data collector: QiZhi Su, GUIA, University of Zaragoza, Spain; Collision energy: 20-40 V; Instrument: Waters HPLC-QTOF-MS (Xevo G2 QTof); Ionization: ESI; Deconvoluted by MS-DIAL; Column: Waters AtlantisTM premier BEH C18 AX column (2.1 × 100mm x 1.7μm); Flow rate: 0.3mL/min; Mobile phase A and B are water and methnaol, respectively, both with 0.1% formic acid; Gradient elution: from A/B (95/5) to A/B (100/0) in 7min, kept for 4 min, then back to A/B (95/5) in 0.1 min, and maintained for additional 1.9 min (13min in total).; Injection volume: 10 μL
Num peaks: 13
77.01881 140582
77.038 140360
78.04112 6621
79.03799 59766
79.0538 59696
105.03313 278644
106.0361 14869
106.06474 153976
107.05164 8885
107.06853 8220
134.05983 417737
135.06287 31348
212.10777 8901
Name: Diisopropyl phthalate
PrecursorMZ: 251.1292
PrecursorType: [M+H]+
IonMode: Positive
Formula: C14H18O4
SMILES: CC(C)OC(=O)C1=CC=CC=C1C(=O)OC(C)C
InChI: 
InChIKey: QWDBCIAVABMJPP-UHFFFAOYSA-N
RetentionTime: 6.674937
CCS: 
CollisionEnergy: 20-40 eV
InstrumentType: UPLC-QTOF-MS
Comment: PI: Cristina Nerin; Data collector: QiZhi Su, GUIA, University of Zaragoza, Spain; Collision energy: 20-40 V; Instrument: Waters HPLC-QTOF-MS (Xevo G2 QTof); Ionization: ESI; Deconvoluted by MS-DIAL; Column: Waters AtlantisTM premier BEH C18 AX column (2.1 × 100mm x 1.7μm); Flow rate: 0.3mL/min; Mobile phase A and B are water and methnaol, respectively, both with 0.1% formic acid; Gradient elution: from A/B (95/5) to A/B (100/0) in 7min, kept for 4 min, then back to A/B (95/5) in 0.1 min, and maintained for additional 1.9 min (13min in total).; Injection volume: 10 μL
Num peaks: 36
65.03877 7537
65.05178 7537
77.03857 1096
77.04479 1097
92.02491 605
92.03118 609
93.03365 7546
93.9878 1269
93.99317 1266
94.00757 813
102.99425 1534
112.00007 864
121.02876 8345
149.02304 48671
150.02754 2521
160.00333 647
160.01251 650
160.99054 1697
167.99609 10556
168.49707 1627
169.00198 565
169.01268 559
177.00047 4948
177.00749 4941
177.49567 860
177.50412 873
186.00778 3523
186.4977 510
186.51001 558
203.02367 649
203.04004 675
204.98088 3088
207.03502 575
231.05119 1008
231.06596 1072
247.03027 4607
Name: di-n-propylphthalate
PrecursorMZ: 251.1281
PrecursorType: [M+H]+
IonMode: Positive
Formula: C14H18O4
SMILES: CCCOC(=O)C1=CC=CC=C1C(=O)OCCC
InChI: 
InChIKey: MQHNKCZKNAJROC-UHFFFAOYSA-N
RetentionTime: 6.7664
CCS: 
CollisionEnergy: 20-40 eV
InstrumentType: UPLC-QTOF-MS
Comment: PI: Cristina Nerin; Data collector: QiZhi Su, GUIA, University of Zaragoza, Spain; Collision energy: 20-40 V; Instrument: Waters HPLC-QTOF-MS (Xevo G2 QTof); Ionization: ESI; Deconvoluted by MS-DIAL; Column: Waters AtlantisTM premier BEH C18 AX column (2.1 × 100mm x 1.7μm); Flow rate: 0.3mL/min; Mobile phase A and B are water and methnaol, respectively, both with 0.1% formic acid; Gradient elution: from A/B (95/5) to A/B (100/0) in 7min, kept for 4 min, then back to A/B (95/5) in 0.1 min, and maintained for additional 1.9 min (13min in total).; Injection volume: 10 μL
Num peaks: 29
65.03767 45296
66.04061 1314
66.04638 1330
77.03826 4853
92.01652 1242
92.02598 1240
93.03303 44304
94.01923 1377
94.03738 1601
121.02769 39845
122.03378 1499
133.0255 1214
135.04303 1301
135.04982 1297
149.02281 112002
150.02637 7280
163.04004 1355
167.99599 17845
168.49905 2271
177.00246 7851
177.49834 1199
177.50758 1222
198.02589 4486
204.98193 6162
207.02946 1208
207.04649 1284
219.04906 4111
228.05392 1288
247.02689 4349
Name: di-n-propylphthalate
PrecursorMZ: 273.1107
PrecursorType: [M+Na]+
IonMode: Positive
Formula: C14H18O4
SMILES: CCCOC(=O)C1=CC=CC=C1C(=O)OCCC
InChI: 
InChIKey: MQHNKCZKNAJROC-UHFFFAOYSA-N
RetentionTime: 6.7664
CCS: 
CollisionEnergy: 20-40 eV
InstrumentType: UPLC-QTOF-MS
Comment: PI: Cristina Nerin; Data collector: QiZhi Su, GUIA, University of Zaragoza, Spain; Collision energy: 20-40 V; Instrument: Waters HPLC-QTOF-MS (Xevo G2 QTof); Ionization: ESI; Deconvoluted by MS-DIAL; Column: Waters AtlantisTM premier BEH C18 AX column (2.1 × 100mm x 1.7μm); Flow rate: 0.3mL/min; Mobile phase A and B are water and methnaol, respectively, both with 0.1% formic acid; Gradient elution: from A/B (95/5) to A/B (100/0) in 7min, kept for 4 min, then back to A/B (95/5) in 0.1 min, and maintained for additional 1.9 min (13min in total).; Injection volume: 10 μL
Num peaks: 32
65.03767 45296
66.04061 1314
66.04638 1330
77.03826 4853
92.01652 1242
92.02598 1240
93.03303 44304
94.01923 1377
94.03738 1601
121.02769 39845
122.03378 1499
133.0255 1214
135.04303 1301
135.04982 1297
149.02281 112002
150.02637 7280
163.04004 1355
167.99599 17845
168.49905 2271
177.00246 7851
177.49834 1199
177.50758 1222
198.02589 4486
204.98193 6162
207.02946 1208
207.04649 1284
219.04906 4111
228.05392 1288
247.02689 4349
259.02457 1444
259.03922 1527
273.10925 25026
Name: di-n-propylphthalate
PrecursorMZ: 289.0849
PrecursorType: [M+K]+
IonMode: Positive
Formula: C14H18O4
SMILES: CCCOC(=O)C1=CC=CC=C1C(=O)OCCC
InChI: 
InChIKey: MQHNKCZKNAJROC-UHFFFAOYSA-N
RetentionTime: 6.7664
CCS: 
CollisionEnergy: 20-40 eV
InstrumentType: UPLC-QTOF-MS
Comment: PI: Cristina Nerin; Data collector: QiZhi Su, GUIA, University of Zaragoza, Spain; Collision energy: 20-40 V; Instrument: Waters HPLC-QTOF-MS (Xevo G2 QTof); Ionization: ESI; Deconvoluted by MS-DIAL; Column: Waters AtlantisTM premier BEH C18 AX column (2.1 × 100mm x 1.7μm); Flow rate: 0.3mL/min; Mobile phase A and B are water and methnaol, respectively, both with 0.1% formic acid; Gradient elution: from A/B (95/5) to A/B (100/0) in 7min, kept for 4 min, then back to A/B (95/5) in 0.1 min, and maintained for additional 1.9 min (13min in total).; Injection volume: 10 μL
Num peaks: 35
65.03767 45296
66.04061 1314
66.04638 1330
77.03826 4853
92.01652 1242
92.02598 1240
93.03303 44304
94.01923 1377
94.03738 1601
121.02769 39845
122.03378 1499
133.0255 1214
135.04303 1301
135.04982 1297
149.02281 112002
150.02637 7280
163.04004 1355
167.99599 17845
168.49905 2271
177.00246 7851
177.49834 1199
177.50758 1222
198.02589 4486
204.98193 6162
207.02946 1208
207.04649 1284
219.04906 4111
228.05392 1288
247.02689 4349
259.02457 1444
259.03922 1527
273.10925 19340
274.11414 1872
285.05908 1284
285.07053 1209
Name: di-n-propylphthalate
PrecursorMZ: 523.2308
PrecursorType: [2M+Na]+
IonMode: Positive
Formula: C14H18O4
SMILES: CCCOC(=O)C1=CC=CC=C1C(=O)OCCC
InChI: 
InChIKey: MQHNKCZKNAJROC-UHFFFAOYSA-N
RetentionTime: 6.7664
CCS: 
CollisionEnergy: 20-40 eV
InstrumentType: UPLC-QTOF-MS
Comment: PI: Cristina Nerin; Data collector: QiZhi Su, GUIA, University of Zaragoza, Spain; Collision energy: 20-40 V; Instrument: Waters HPLC-QTOF-MS (Xevo G2 QTof); Ionization: ESI; Deconvoluted by MS-DIAL; Column: Waters AtlantisTM premier BEH C18 AX column (2.1 × 100mm x 1.7μm); Flow rate: 0.3mL/min; Mobile phase A and B are water and methnaol, respectively, both with 0.1% formic acid; Gradient elution: from A/B (95/5) to A/B (100/0) in 7min, kept for 4 min, then back to A/B (95/5) in 0.1 min, and maintained for additional 1.9 min (13min in total).; Injection volume: 10 μL
Num peaks: 38
65.03767 45296
66.04061 1314
66.04638 1330
77.03826 4853
92.01652 1242
92.02598 1240
93.03303 44304
94.01923 1377
94.03738 1601
121.02769 39845
122.03378 1499
133.0255 1214
135.04303 1301
135.04982 1297
149.02281 112002
150.02637 7280
163.04004 1355
167.99599 17845
168.49905 2271
177.00246 7851
177.49834 1199
177.50758 1222
198.02589 4486
204.98193 6162
207.02946 1208
207.04649 1284
219.04906 4111
228.05392 1288
247.02689 4349
259.02457 1444
259.03922 1527
273.10925 19339
274.11414 1872
285.05908 1284
285.07053 1209
349.13492 1286
352.99176 1381
353.0051 1285
Name: Benzyl buytl phthalate
PrecursorMZ: 313.1448
PrecursorType: [M+H]+
IonMode: Positive
Formula: C19H20O4
SMILES: CCCCOC(=O)C1=CC=CC=C1C(=O)OCC2=CC=CC=C2
InChI: 
InChIKey: IRIAEXORFWYRCZ-UHFFFAOYSA-N
RetentionTime: 7.311333
CCS: 
CollisionEnergy: 20-40 eV
InstrumentType: UPLC-QTOF-MS
Comment: PI: Cristina Nerin; Data collector: QiZhi Su, GUIA, University of Zaragoza, Spain; Collision energy: 20-40 V; Instrument: Waters HPLC-QTOF-MS (Xevo G2 QTof); Ionization: ESI; Deconvoluted by MS-DIAL; Column: Waters AtlantisTM premier BEH C18 AX column (2.1 × 100mm x 1.7μm); Flow rate: 0.3mL/min; Mobile phase A and B are water and methnaol, respectively, both with 0.1% formic acid; Gradient elution: from A/B (95/5) to A/B (100/0) in 7min, kept for 4 min, then back to A/B (95/5) in 0.1 min, and maintained for additional 1.9 min (13min in total).; Injection volume: 10 μL
Num peaks: 16
65.03827 11362
91.05366 133482
92.05769 6161
93.01396 10773
93.0332 10782
113.02695 1673
113.03307 1670
113.04378 1690
121.02804 11246
149.02312 51274
150.02686 2733
217.05377 21181
218.0574 1447
261.04391 37091
262.04785 2771
262.06427 2778
Name: Benzyl buytl phthalate
PrecursorMZ: 335.1267
PrecursorType: [M+Na]+
IonMode: Positive
Formula: C19H20O4
SMILES: CCCCOC(=O)C1=CC=CC=C1C(=O)OCC2=CC=CC=C2
InChI: 
InChIKey: IRIAEXORFWYRCZ-UHFFFAOYSA-N
RetentionTime: 7.311333
CCS: 
CollisionEnergy: 20-40 eV
InstrumentType: UPLC-QTOF-MS
Comment: PI: Cristina Nerin; Data collector: QiZhi Su, GUIA, University of Zaragoza, Spain; Collision energy: 20-40 V; Instrument: Waters HPLC-QTOF-MS (Xevo G2 QTof); Ionization: ESI; Deconvoluted by MS-DIAL; Column: Waters AtlantisTM premier BEH C18 AX column (2.1 × 100mm x 1.7μm); Flow rate: 0.3mL/min; Mobile phase A and B are water and methnaol, respectively, both with 0.1% formic acid; Gradient elution: from A/B (95/5) to A/B (100/0) in 7min, kept for 4 min, then back to A/B (95/5) in 0.1 min, and maintained for additional 1.9 min (13min in total).; Injection volume: 10 μL
Num peaks: 17
65.03827 11362
91.05366 133482
92.05769 6161
93.01396 10773
93.0332 10782
113.02695 1673
113.03307 1670
113.04378 1690
121.02804 11246
149.02312 51274
150.02686 2733
217.05377 21181
218.0574 1447
261.04391 37091
262.04785 2771
262.06427 2778
335.12515 53562
Name: Benzyl buytl phthalate
PrecursorMZ: 351.1003
PrecursorType: [M+K]+
IonMode: Positive
Formula: C19H20O4
SMILES: CCCCOC(=O)C1=CC=CC=C1C(=O)OCC2=CC=CC=C2
InChI: 
InChIKey: IRIAEXORFWYRCZ-UHFFFAOYSA-N
RetentionTime: 7.311333
CCS: 
CollisionEnergy: 20-40 eV
InstrumentType: UPLC-QTOF-MS
Comment: PI: Cristina Nerin; Data collector: QiZhi Su, GUIA, University of Zaragoza, Spain; Collision energy: 20-40 V; Instrument: Waters HPLC-QTOF-MS (Xevo G2 QTof); Ionization: ESI; Deconvoluted by MS-DIAL; Column: Waters AtlantisTM premier BEH C18 AX column (2.1 × 100mm x 1.7μm); Flow rate: 0.3mL/min; Mobile phase A and B are water and methnaol, respectively, both with 0.1% formic acid; Gradient elution: from A/B (95/5) to A/B (100/0) in 7min, kept for 4 min, then back to A/B (95/5) in 0.1 min, and maintained for additional 1.9 min (13min in total).; Injection volume: 10 μL
Num peaks: 18
65.03827 11362
91.05366 133482
92.05769 6161
93.01396 10773
93.0332 10782
113.02695 1673
113.03307 1670
113.04378 1690
121.02804 11246
149.02312 51274
150.02686 2733
217.05377 21181
218.0574 1447
261.04391 37091
262.04785 2771
262.06427 2778
335.12515 53335
336.13049 7640
Name: Benzyl buytl phthalate
PrecursorMZ: 647.2632
PrecursorType: [2M+Na]+
IonMode: Positive
Formula: C19H20O4
SMILES: CCCCOC(=O)C1=CC=CC=C1C(=O)OCC2=CC=CC=C2
InChI: 
InChIKey: IRIAEXORFWYRCZ-UHFFFAOYSA-N
RetentionTime: 7.311333
CCS: 
CollisionEnergy: 20-40 eV
InstrumentType: UPLC-QTOF-MS
Comment: PI: Cristina Nerin; Data collector: QiZhi Su, GUIA, University of Zaragoza, Spain; Collision energy: 20-40 V; Instrument: Waters HPLC-QTOF-MS (Xevo G2 QTof); Ionization: ESI; Deconvoluted by MS-DIAL; Column: Waters AtlantisTM premier BEH C18 AX column (2.1 × 100mm x 1.7μm); Flow rate: 0.3mL/min; Mobile phase A and B are water and methnaol, respectively, both with 0.1% formic acid; Gradient elution: from A/B (95/5) to A/B (100/0) in 7min, kept for 4 min, then back to A/B (95/5) in 0.1 min, and maintained for additional 1.9 min (13min in total).; Injection volume: 10 μL
Num peaks: 24
65.03827 11362
91.05366 133482
92.05769 6161
93.01396 10773
93.0332 10782
113.02695 1673
113.03307 1670
113.04378 1690
121.02804 11246
149.02312 51274
150.02686 2733
217.05377 21181
218.0574 1447
261.04391 37091
262.04785 2771
262.06427 2778
335.12515 53335
336.13049 7640
365.06955 1362
425.16391 12621
426.16452 2108
426.18353 2083
573.18024 8877
574.18427 2299
Name: Triphenylphosphine oxide
PrecursorMZ: 301.0767
PrecursorType: [M+Na]+
IonMode: Positive
Formula: C18H15OP
SMILES: C1=CC=C(C=C1)P(=O)(C2=CC=CC=C2)C3=CC=CC=C3
InChI: 
InChIKey: FIQMHBFVRAXMOP-UHFFFAOYSA-N
RetentionTime: 6.130133
CCS: 
CollisionEnergy: 20-40 eV
InstrumentType: UPLC-QTOF-MS
Comment: PI: Cristina Nerin; Data collector: QiZhi Su, GUIA, University of Zaragoza, Spain; Collision energy: 20-40 V; Instrument: Waters HPLC-QTOF-MS (Xevo G2 QTof); Ionization: ESI; Deconvoluted by MS-DIAL; Column: Waters AtlantisTM premier BEH C18 AX column (2.1 × 100mm x 1.7μm); Flow rate: 0.3mL/min; Mobile phase A and B are water and methnaol, respectively, both with 0.1% formic acid; Gradient elution: from A/B (95/5) to A/B (100/0) in 7min, kept for 4 min, then back to A/B (95/5) in 0.1 min, and maintained for additional 1.9 min (13min in total).; Injection volume: 10 μL
Num peaks: 16
77.03794 18058
95.00413 3929
122.99972 3793
129.06961 4627
159.02417 4730
171.03545 12445
173.05147 36408
183.0358 5451
201.04625 376404
202.04962 45823
279.09317 252197
280.09631 45100
298.06638 62224
298.56781 23267
299.06979 4654
301.07477 71669
Name: Triphenylphosphine oxide
PrecursorMZ: 279.0943
PrecursorType: [M+H]+
IonMode: Positive
Formula: C18H15OP
SMILES: C1=CC=C(C=C1)P(=O)(C2=CC=CC=C2)C3=CC=CC=C3
InChI: 
InChIKey: FIQMHBFVRAXMOP-UHFFFAOYSA-N
RetentionTime: 6.1682
CCS: 
CollisionEnergy: 20-40 eV
InstrumentType: UPLC-QTOF-MS
Comment: PI: Cristina Nerin; Data collector: QiZhi Su, GUIA, University of Zaragoza, Spain; Collision energy: 20-40 V; Instrument: Waters HPLC-QTOF-MS (Xevo G2 QTof); Ionization: ESI; Deconvoluted by MS-DIAL; Column: Waters AtlantisTM premier BEH C18 AX column (2.1 × 100mm x 1.7μm); Flow rate: 0.3mL/min; Mobile phase A and B are water and methnaol, respectively, both with 0.1% formic acid; Gradient elution: from A/B (95/5) to A/B (100/0) in 7min, kept for 4 min, then back to A/B (95/5) in 0.1 min, and maintained for additional 1.9 min (13min in total).; Injection volume: 10 μL
Num peaks: 11
77.03796 31573
95.00434 8105
122.99911 8141
128.06154 7938
129.06865 9441
171.03552 22622
173.05109 70113
183.03532 11014
201.04639 701804
202.04967 87303
279.09363 663585
Name: Dipentyl phthalate
PrecursorMZ: 307.1914
PrecursorType: [M+H]+
IonMode: Positive
Formula: C18H26O4
SMILES: CCCCCOC(=O)C1=CC=CC=C1C(=O)OCCCCC
InChI: 
InChIKey: IPKKHRVROFYTEK-UHFFFAOYSA-N
RetentionTime: 7.77245
CCS: 
CollisionEnergy: 20-40 eV
InstrumentType: UPLC-QTOF-MS
Comment: PI: Cristina Nerin; Data collector: QiZhi Su, GUIA, University of Zaragoza, Spain; Collision energy: 20-40 V; Instrument: Waters HPLC-QTOF-MS (Xevo G2 QTof); Ionization: ESI; Deconvoluted by MS-DIAL; Column: Waters AtlantisTM premier BEH C18 AX column (2.1 × 100mm x 1.7μm); Flow rate: 0.3mL/min; Mobile phase A and B are water and methnaol, respectively, both with 0.1% formic acid; Gradient elution: from A/B (95/5) to A/B (100/0) in 7min, kept for 4 min, then back to A/B (95/5) in 0.1 min, and maintained for additional 1.9 min (13min in total).; Injection volume: 10 μL
Num peaks: 18
65.03799 30519
71.08517 4024
77.03854 4028
93.03289 31524
121.02759 36148
149.02292 245156
150.02631 17114
167.99594 2968
168.00325 2971
204.9818 4483
231.06981 11379
256.08578 3065
256.10272 2693
261.07562 2828
261.0881 2814
275.05936 31498
276.064 2504
291.12582 3172
Name: Dipentyl phthalate
PrecursorMZ: 329.173
PrecursorType: [M+Na]+
IonMode: Positive
Formula: C18H26O4
SMILES: CCCCCOC(=O)C1=CC=CC=C1C(=O)OCCCCC
InChI: 
InChIKey: IPKKHRVROFYTEK-UHFFFAOYSA-N
RetentionTime: 7.77245
CCS: 
CollisionEnergy: 20-40 eV
InstrumentType: UPLC-QTOF-MS
Comment: PI: Cristina Nerin; Data collector: QiZhi Su, GUIA, University of Zaragoza, Spain; Collision energy: 20-40 V; Instrument: Waters HPLC-QTOF-MS (Xevo G2 QTof); Ionization: ESI; Deconvoluted by MS-DIAL; Column: Waters AtlantisTM premier BEH C18 AX column (2.1 × 100mm x 1.7μm); Flow rate: 0.3mL/min; Mobile phase A and B are water and methnaol, respectively, both with 0.1% formic acid; Gradient elution: from A/B (95/5) to A/B (100/0) in 7min, kept for 4 min, then back to A/B (95/5) in 0.1 min, and maintained for additional 1.9 min (13min in total).; Injection volume: 10 μL
Num peaks: 20
65.03799 30519
71.08517 4024
77.03854 4028
93.03289 31524
121.02759 36148
149.02292 245156
150.02631 17114
167.99594 2968
168.00325 2971
204.9818 4483
231.06981 11379
256.08578 3065
256.10272 2693
261.07562 2828
261.0881 2814
275.05936 31498
276.064 2504
291.12582 3172
326.1637 2829
329.17157 165152
Name: Dipentyl phthalate
PrecursorMZ: 635.3563
PrecursorType: [2M+Na]+
IonMode: Positive
Formula: C18H26O4
SMILES: CCCCCOC(=O)C1=CC=CC=C1C(=O)OCCCCC
InChI: 
InChIKey: IPKKHRVROFYTEK-UHFFFAOYSA-N
RetentionTime: 7.77245
CCS: 
CollisionEnergy: 20-40 eV
InstrumentType: UPLC-QTOF-MS
Comment: PI: Cristina Nerin; Data collector: QiZhi Su, GUIA, University of Zaragoza, Spain; Collision energy: 20-40 V; Instrument: Waters HPLC-QTOF-MS (Xevo G2 QTof); Ionization: ESI; Deconvoluted by MS-DIAL; Column: Waters AtlantisTM premier BEH C18 AX column (2.1 × 100mm x 1.7μm); Flow rate: 0.3mL/min; Mobile phase A and B are water and methnaol, respectively, both with 0.1% formic acid; Gradient elution: from A/B (95/5) to A/B (100/0) in 7min, kept for 4 min, then back to A/B (95/5) in 0.1 min, and maintained for additional 1.9 min (13min in total).; Injection volume: 10 μL
Num peaks: 15
65.03799 30503
77.03854 3057
93.03289 31504
121.02759 36146
149.02292 243811
150.02631 17176
207.02959 4391
207.04311 4681
256.10272 2747
275.05936 3658
291.12582 3134
329.17157 123015
330.17529 22389
363.14752 2742
433.22766 4226
Name: Dipentyl phthalate
PrecursorMZ: 345.148
PrecursorType: [M+K]+
IonMode: Positive
Formula: C18H26O4
SMILES: CCCCCOC(=O)C1=CC=CC=C1C(=O)OCCCCC
InChI: 
InChIKey: IPKKHRVROFYTEK-UHFFFAOYSA-N
RetentionTime: 7.776267
CCS: 
CollisionEnergy: 20-40 eV
InstrumentType: UPLC-QTOF-MS
Comment: PI: Cristina Nerin; Data collector: QiZhi Su, GUIA, University of Zaragoza, Spain; Collision energy: 20-40 V; Instrument: Waters HPLC-QTOF-MS (Xevo G2 QTof); Ionization: ESI; Deconvoluted by MS-DIAL; Column: Waters AtlantisTM premier BEH C18 AX column (2.1 × 100mm x 1.7μm); Flow rate: 0.3mL/min; Mobile phase A and B are water and methnaol, respectively, both with 0.1% formic acid; Gradient elution: from A/B (95/5) to A/B (100/0) in 7min, kept for 4 min, then back to A/B (95/5) in 0.1 min, and maintained for additional 1.9 min (13min in total).; Injection volume: 10 μL
Num peaks: 18
65.03772 29268
71.08533 4056
77.03895 3799
93.03269 30463
121.02789 35155
149.02292 245199
150.02641 16737
167.99782 3010
204.98074 4516
231.06995 12492
256.08524 3065
261.0809 2810
275.05927 32255
276.06503 2664
291.12747 3177
326.16409 2829
329.17218 156374
330.17557 25315
Name: Diethyl hexahydrophthalate
PrecursorMZ: 479.2567
PrecursorType: [2M+Na]+
IonMode: Positive
Formula: C12H20O4
SMILES: CCOC(=O)C1CCCCC1C(=O)OCC
InChI: 
InChIKey: ZTUZDYWYNQDJKR-UHFFFAOYSA-N
RetentionTime: 7.776267
CCS: 
CollisionEnergy: 20-40 eV
InstrumentType: UPLC-QTOF-MS
Comment: PI: Cristina Nerin; Data collector: QiZhi Su, GUIA, University of Zaragoza, Spain; Collision energy: 20-40 V; Instrument: Waters HPLC-QTOF-MS (Xevo G2 QTof); Ionization: ESI; Deconvoluted by MS-DIAL; Column: Waters AtlantisTM premier BEH C18 AX column (2.1 × 100mm x 1.7μm); Flow rate: 0.3mL/min; Mobile phase A and B are water and methnaol, respectively, both with 0.1% formic acid; Gradient elution: from A/B (95/5) to A/B (100/0) in 7min, kept for 4 min, then back to A/B (95/5) in 0.1 min, and maintained for additional 1.9 min (13min in total).; Injection volume: 10 μL
Num peaks: 20
65.03772 29268
71.08533 4056
77.03895 3799
93.03269 30463
121.02789 35155
149.02292 245199
150.02641 16737
167.99782 3010
204.98074 4516
231.06995 12492
256.08524 3065
261.0809 2810
275.05927 32255
276.06503 2664
291.12747 3177
326.16409 2829
329.17218 156374
330.17557 25315
363.1496 5004
433.2247 7465
Name: Triphenylphosphine oxide
PrecursorMZ: 557.18
PrecursorType: [2M+H]+
IonMode: Positive
Formula: C18H15OP
SMILES: C1=CC=C(C=C1)P(=O)(C2=CC=CC=C2)C3=CC=CC=C3
InChI: 
InChIKey: FIQMHBFVRAXMOP-UHFFFAOYSA-N
RetentionTime: 6.1682
CCS: 
CollisionEnergy: 20-40 eV
InstrumentType: UPLC-QTOF-MS
Comment: PI: Cristina Nerin; Data collector: QiZhi Su, GUIA, University of Zaragoza, Spain; Collision energy: 20-40 V; Instrument: Waters HPLC-QTOF-MS (Xevo G2 QTof); Ionization: ESI; Deconvoluted by MS-DIAL; Column: Waters AtlantisTM premier BEH C18 AX column (2.1 × 100mm x 1.7μm); Flow rate: 0.3mL/min; Mobile phase A and B are water and methnaol, respectively, both with 0.1% formic acid; Gradient elution: from A/B (95/5) to A/B (100/0) in 7min, kept for 4 min, then back to A/B (95/5) in 0.1 min, and maintained for additional 1.9 min (13min in total).; Injection volume: 10 μL
Num peaks: 17
77.03796 28548
95.00434 8096
122.99911 8239
128.06154 7947
129.06865 9464
154.07829 6959
171.03552 21630
173.05109 63267
183.03532 11014
201.04639 592357
202.04967 68132
279.09363 628229
280.09668 115316
281.10077 7849
298.06586 76853
301.07471 12373
437.1084 11234
Name: Octinoxate
PrecursorMZ: 291.1961
PrecursorType: [M+H]+
IonMode: Positive
Formula: C18H26O3
SMILES: CCCCC(CC)COC(=O)C=CC1=CC=C(C=C1)OC
InChI: 
InChIKey: YBGZDTIWKVFICR-JLHYYAGUSA-N
RetentionTime: 8.035133
CCS: 
CollisionEnergy: 20-40 eV
InstrumentType: UPLC-QTOF-MS
Comment: PI: Cristina Nerin; Data collector: QiZhi Su, GUIA, University of Zaragoza, Spain; Collision energy: 20-40 V; Instrument: Waters HPLC-QTOF-MS (Xevo G2 QTof); Ionization: ESI; Deconvoluted by MS-DIAL; Column: Waters AtlantisTM premier BEH C18 AX column (2.1 × 100mm x 1.7μm); Flow rate: 0.3mL/min; Mobile phase A and B are water and methnaol, respectively, both with 0.1% formic acid; Gradient elution: from A/B (95/5) to A/B (100/0) in 7min, kept for 4 min, then back to A/B (95/5) in 0.1 min, and maintained for additional 1.9 min (13min in total).; Injection volume: 10 μL
Num peaks: 42
57.07019 678
69.06908 497
69.07592 493
71.08489 3074
71.08905 3074
73.02654 2880
77.03815 5095
79.05351 6443
81.0716 1060
89.03873 1209
89.04433 1219
90.04585 6809
91.05336 1280
91.06006 1288
95.06656 1020
95.08572 586
103.05413 6693
104.05439 507
104.06244 497
105.06975 2486
105.08343 2504
118.04082 13330
119.04607 677
133.06406 37255
134.06851 2519
134.07585 2537
147.0116 572
147.02611 506
161.05898 49185
162.06384 3212
173.02708 9218
174.02899 548
174.03867 554
179.06992 887
198.03827 1862
198.04868 1857
217.01685 30305
218.02217 1791
254.10493 1096
254.12167 941
263.01648 543
263.03156 581
Name: Octinoxate
PrecursorMZ: 313.1778
PrecursorType: [M+Na]+
IonMode: Positive
Formula: C18H26O3
SMILES: CCCCC(CC)COC(=O)C=CC1=CC=C(C=C1)OC
InChI: 
InChIKey: YBGZDTIWKVFICR-JLHYYAGUSA-N
RetentionTime: 8.035133
CCS: 
CollisionEnergy: 20-40 eV
InstrumentType: UPLC-QTOF-MS
Comment: PI: Cristina Nerin; Data collector: QiZhi Su, GUIA, University of Zaragoza, Spain; Collision energy: 20-40 V; Instrument: Waters HPLC-QTOF-MS (Xevo G2 QTof); Ionization: ESI; Deconvoluted by MS-DIAL; Column: Waters AtlantisTM premier BEH C18 AX column (2.1 × 100mm x 1.7μm); Flow rate: 0.3mL/min; Mobile phase A and B are water and methnaol, respectively, both with 0.1% formic acid; Gradient elution: from A/B (95/5) to A/B (100/0) in 7min, kept for 4 min, then back to A/B (95/5) in 0.1 min, and maintained for additional 1.9 min (13min in total).; Injection volume: 10 μL
Num peaks: 46
57.07019 678
69.06908 497
69.07592 493
71.08489 3074
71.08905 3074
73.02654 2880
77.03815 5095
79.05351 6443
81.0716 1060
89.03873 1209
89.04433 1219
90.04585 6809
91.05336 1280
91.06006 1288
95.06656 1020
95.08572 586
103.05413 6693
104.05439 507
104.06244 497
105.06975 2486
105.08343 2504
118.04082 13330
119.04607 677
133.06406 37255
134.06851 2519
134.07585 2537
147.0116 572
147.02611 506
161.05898 49185
162.06384 3212
173.02708 9218
174.02899 548
174.03867 554
179.06992 887
198.03827 1862
198.04868 1857
217.01685 30305
218.02217 1791
254.10493 1096
254.12167 941
263.01648 543
263.03156 581
310.16104 764
310.17358 844
310.18326 742
313.17816 5741
Name: Octinoxate
PrecursorMZ: 329.1517
PrecursorType: [M+K]+
IonMode: Positive
Formula: C18H26O3
SMILES: CCCCC(CC)COC(=O)C=CC1=CC=C(C=C1)OC
InChI: 
InChIKey: YBGZDTIWKVFICR-JLHYYAGUSA-N
RetentionTime: 8.035133
CCS: 
CollisionEnergy: 20-40 eV
InstrumentType: UPLC-QTOF-MS
Comment: PI: Cristina Nerin; Data collector: QiZhi Su, GUIA, University of Zaragoza, Spain; Collision energy: 20-40 V; Instrument: Waters HPLC-QTOF-MS (Xevo G2 QTof); Ionization: ESI; Deconvoluted by MS-DIAL; Column: Waters AtlantisTM premier BEH C18 AX column (2.1 × 100mm x 1.7μm); Flow rate: 0.3mL/min; Mobile phase A and B are water and methnaol, respectively, both with 0.1% formic acid; Gradient elution: from A/B (95/5) to A/B (100/0) in 7min, kept for 4 min, then back to A/B (95/5) in 0.1 min, and maintained for additional 1.9 min (13min in total).; Injection volume: 10 μL
Num peaks: 48
57.07019 678
69.06908 497
69.07592 493
71.08489 3074
71.08905 3074
73.02654 2880
77.03815 5095
79.05351 6443
81.0716 1060
89.03873 1209
89.04433 1219
90.04585 6809
91.05336 1280
91.06006 1288
95.06656 1020
95.08572 586
103.05413 6693
104.05439 507
104.06244 497
105.06975 2486
105.08343 2504
118.04082 13330
119.04607 677
133.06406 37255
134.06851 2519
134.07585 2537
147.0116 572
147.02611 506
161.05898 49185
162.06384 3212
173.02708 9218
174.02899 548
174.03867 554
179.06992 887
198.03827 1862
198.04868 1857
217.01685 30305
218.02217 1791
254.10493 1096
254.12167 941
263.01648 543
263.03156 581
310.16104 764
310.17358 844
310.18326 742
313.17816 5407
314.18475 686
324.32962 807
Name: Octinoxate
PrecursorMZ: 603.3679
PrecursorType: [2M+Na]+
IonMode: Positive
Formula: C18H26O3
SMILES: CCCCC(CC)COC(=O)C=CC1=CC=C(C=C1)OC
InChI: 
InChIKey: YBGZDTIWKVFICR-JLHYYAGUSA-N
RetentionTime: 8.035133
CCS: 
CollisionEnergy: 20-40 eV
InstrumentType: UPLC-QTOF-MS
Comment: PI: Cristina Nerin; Data collector: QiZhi Su, GUIA, University of Zaragoza, Spain; Collision energy: 20-40 V; Instrument: Waters HPLC-QTOF-MS (Xevo G2 QTof); Ionization: ESI; Deconvoluted by MS-DIAL; Column: Waters AtlantisTM premier BEH C18 AX column (2.1 × 100mm x 1.7μm); Flow rate: 0.3mL/min; Mobile phase A and B are water and methnaol, respectively, both with 0.1% formic acid; Gradient elution: from A/B (95/5) to A/B (100/0) in 7min, kept for 4 min, then back to A/B (95/5) in 0.1 min, and maintained for additional 1.9 min (13min in total).; Injection volume: 10 μL
Num peaks: 53
57.07019 678
69.06908 497
69.07592 493
71.08489 3074
71.08905 3074
73.02654 2880
77.03815 5095
79.05351 6443
81.0716 1060
89.03873 1209
89.04433 1219
90.04585 6809
91.05336 1280
91.06006 1288
95.06656 1020
95.08572 586
103.05413 6693
104.05439 507
104.06244 497
105.06975 2486
105.08343 2504
118.04082 13330
119.04607 677
133.06406 37255
134.06851 2519
134.07585 2537
147.0116 572
147.02611 506
161.05898 49185
162.06384 3212
173.02708 9218
174.02899 548
174.03867 554
179.06992 887
198.03827 1862
198.04868 1857
217.01685 30305
218.02217 1791
254.10493 1096
254.12167 941
263.01648 543
263.03156 581
310.16104 764
310.17358 844
310.18326 742
313.17816 5407
314.18475 686
324.32962 807
337.20663 636
395.08002 7482
396.07596 866
396.1015 710
507.20636 1820
Name: Octinoxate
PrecursorMZ: 291.1964
PrecursorType: [M+H]+
IonMode: Positive
Formula: C18H26O3
SMILES: CCCCC(CC)COC(=O)C=CC1=CC=C(C=C1)OC
InChI: 
InChIKey: YBGZDTIWKVFICR-JLHYYAGUSA-N
RetentionTime: 8.118883
CCS: 
CollisionEnergy: 20-40 eV
InstrumentType: UPLC-QTOF-MS
Comment: PI: Cristina Nerin; Data collector: QiZhi Su, GUIA, University of Zaragoza, Spain; Collision energy: 20-40 V; Instrument: Waters HPLC-QTOF-MS (Xevo G2 QTof); Ionization: ESI; Deconvoluted by MS-DIAL; Column: Waters AtlantisTM premier BEH C18 AX column (2.1 × 100mm x 1.7μm); Flow rate: 0.3mL/min; Mobile phase A and B are water and methnaol, respectively, both with 0.1% formic acid; Gradient elution: from A/B (95/5) to A/B (100/0) in 7min, kept for 4 min, then back to A/B (95/5) in 0.1 min, and maintained for additional 1.9 min (13min in total).; Injection volume: 10 μL
Num peaks: 32
57.06982 1045
71.0855 5399
73.06643 922
77.03866 3338
79.05388 3670
89.04018 544
89.05891 741
90.04602 4479
90.0658 3272
91.04485 593
91.05238 587
91.06341 595
103.05414 4637
105.07023 1617
109.06546 487
109.07156 500
118.04063 8699
119.04462 743
133.06432 27337
134.06789 1499
137.06944 353
161.05933 34796
162.06424 2243
179.07036 10472
180.07063 788
180.08565 773
191.00415 515
217.01733 5414
243.03058 548
263.01904 633
263.03006 561
291.19601 1258
Name: Octinoxate
PrecursorMZ: 313.1784
PrecursorType: [M+Na]+
IonMode: Positive
Formula: C18H26O3
SMILES: CCCCC(CC)COC(=O)C=CC1=CC=C(C=C1)OC
InChI: 
InChIKey: YBGZDTIWKVFICR-JLHYYAGUSA-N
RetentionTime: 8.118883
CCS: 
CollisionEnergy: 20-40 eV
InstrumentType: UPLC-QTOF-MS
Comment: PI: Cristina Nerin; Data collector: QiZhi Su, GUIA, University of Zaragoza, Spain; Collision energy: 20-40 V; Instrument: Waters HPLC-QTOF-MS (Xevo G2 QTof); Ionization: ESI; Deconvoluted by MS-DIAL; Column: Waters AtlantisTM premier BEH C18 AX column (2.1 × 100mm x 1.7μm); Flow rate: 0.3mL/min; Mobile phase A and B are water and methnaol, respectively, both with 0.1% formic acid; Gradient elution: from A/B (95/5) to A/B (100/0) in 7min, kept for 4 min, then back to A/B (95/5) in 0.1 min, and maintained for additional 1.9 min (13min in total).; Injection volume: 10 μL
Num peaks: 35
57.06982 1056
71.0855 5507
73.06643 1728
77.03866 3497
79.05388 3852
89.04018 555
89.05891 721
90.04602 4685
90.0658 3427
91.04485 619
91.05238 611
91.06341 617
103.05414 4845
105.07023 1677
109.06546 496
109.07156 508
118.04063 9105
119.04462 756
133.06432 28497
134.06789 1576
161.05933 36361
162.06424 2341
179.07036 10533
180.07063 798
180.08565 782
191.00415 584
207.03394 410
217.01733 6296
218.01733 399
218.0256 388
243.03058 531
263.01904 654
263.03006 576
291.19601 1143
313.17868 5120
Name: Triphenylphosphine oxide
PrecursorMZ: 579.161
PrecursorType: [2M+Na]+
IonMode: Positive
Formula: C18H15OP
SMILES: C1=CC=C(C=C1)P(=O)(C2=CC=CC=C2)C3=CC=CC=C3
InChI: 
InChIKey: FIQMHBFVRAXMOP-UHFFFAOYSA-N
RetentionTime: 6.1682
CCS: 
CollisionEnergy: 20-40 eV
InstrumentType: UPLC-QTOF-MS
Comment: PI: Cristina Nerin; Data collector: QiZhi Su, GUIA, University of Zaragoza, Spain; Collision energy: 20-40 V; Instrument: Waters HPLC-QTOF-MS (Xevo G2 QTof); Ionization: ESI; Deconvoluted by MS-DIAL; Column: Waters AtlantisTM premier BEH C18 AX column (2.1 × 100mm x 1.7μm); Flow rate: 0.3mL/min; Mobile phase A and B are water and methnaol, respectively, both with 0.1% formic acid; Gradient elution: from A/B (95/5) to A/B (100/0) in 7min, kept for 4 min, then back to A/B (95/5) in 0.1 min, and maintained for additional 1.9 min (13min in total).; Injection volume: 10 μL
Num peaks: 17
77.03796 28548
95.00434 8096
122.99911 8239
128.06154 7947
129.06865 9464
154.07829 6959
171.03552 21630
173.05109 63267
183.03532 11014
201.04639 592357
202.04967 68132
279.09363 628229
280.09668 115316
281.10077 7849
298.06586 76853
301.07471 12373
437.1084 11234
Name: Octinoxate
PrecursorMZ: 603.3672
PrecursorType: [2M+Na]+
IonMode: Positive
Formula: C18H26O3
SMILES: CCCCC(CC)COC(=O)C=CC1=CC=C(C=C1)OC
InChI: 
InChIKey: YBGZDTIWKVFICR-JLHYYAGUSA-N
RetentionTime: 8.118883
CCS: 
CollisionEnergy: 20-40 eV
InstrumentType: UPLC-QTOF-MS
Comment: PI: Cristina Nerin; Data collector: QiZhi Su, GUIA, University of Zaragoza, Spain; Collision energy: 20-40 V; Instrument: Waters HPLC-QTOF-MS (Xevo G2 QTof); Ionization: ESI; Deconvoluted by MS-DIAL; Column: Waters AtlantisTM premier BEH C18 AX column (2.1 × 100mm x 1.7μm); Flow rate: 0.3mL/min; Mobile phase A and B are water and methnaol, respectively, both with 0.1% formic acid; Gradient elution: from A/B (95/5) to A/B (100/0) in 7min, kept for 4 min, then back to A/B (95/5) in 0.1 min, and maintained for additional 1.9 min (13min in total).; Injection volume: 10 μL
Num peaks: 54
57.06982 1065
71.0855 5525
73.06643 1540
77.03866 3516
79.05388 3884
89.04018 577
89.05891 722
90.04602 4708
90.0658 3447
91.04485 642
91.05238 636
91.06341 643
103.05414 4872
105.07023 1688
109.06546 499
109.07156 511
118.04063 9160
119.04462 760
133.06432 28644
134.06789 1585
161.05933 36567
162.06424 2356
179.07036 10540
180.07063 797
180.08565 782
191.00415 578
217.01733 6419
218.01733 407
218.0256 397
243.03058 529
263.01904 655
263.03006 577
291.19601 1144
313.17868 2014
375.14993 1257
379.1008 543
379.11905 526
395.07977 22657
396.08624 3259
399.20291 524
455.26251 18682
455.7634 10466
456.26682 2848
456.28305 2610
456.75934 666
456.77621 640
469.0726 497
469.08853 554
507.20505 28182
508.2106 5884
509.21881 894
600.35779 6229
600.85901 4797
601.36047 1483
Name: Trimethylolpropane triacrylate
PrecursorMZ: 297.1346
PrecursorType: [M+H]+
IonMode: Positive
Formula: C15H20O6
SMILES: CCC(COC(=O)C=C)(COC(=O)C=C)COC(=O)C=C
InChI: 
InChIKey: DAKWPKUUDNSNPN-UHFFFAOYSA-N
RetentionTime: 6.232934
CCS: 
CollisionEnergy: 20-40 eV
InstrumentType: UPLC-QTOF-MS
Comment: PI: Cristina Nerin; Data collector: QiZhi Su, GUIA, University of Zaragoza, Spain; Collision energy: 20-40 V; Instrument: Waters HPLC-QTOF-MS (Xevo G2 QTof); Ionization: ESI; Deconvoluted by MS-DIAL; Column: Waters AtlantisTM premier BEH C18 AX column (2.1 × 100mm x 1.7μm); Flow rate: 0.3mL/min; Mobile phase A and B are water and methnaol, respectively, both with 0.1% formic acid; Gradient elution: from A/B (95/5) to A/B (100/0) in 7min, kept for 4 min, then back to A/B (95/5) in 0.1 min, and maintained for additional 1.9 min (13min in total).; Injection volume: 10 μL
Num peaks: 17
95.08363 206
97.06534 269
97.07112 249
99.07725 336
99.08405 343
107.08766 215
153.091 283
153.10199 254
182.99355 671
183.00027 625
201.04617 6553
202.07057 1236
225.11258 13366
226.10016 821
226.11612 577
226.13576 955
281.07285 211
Name: Diheptyl phthalate
PrecursorMZ: 385.2359
PrecursorType: [M+Na]+
IonMode: Positive
Formula: C22H34O4
SMILES: CCCCCCCOC(=O)C1=CC=CC=C1C(=O)OCCCCCCC
InChI: 
InChIKey: JQCXWCOOWVGKMT-UHFFFAOYSA-N
RetentionTime: 8.416284
CCS: 
CollisionEnergy: 20-40 eV
InstrumentType: UPLC-QTOF-MS
Comment: PI: Cristina Nerin; Data collector: QiZhi Su, GUIA, University of Zaragoza, Spain; Collision energy: 20-40 V; Instrument: Waters HPLC-QTOF-MS (Xevo G2 QTof); Ionization: ESI; Deconvoluted by MS-DIAL; Column: Waters AtlantisTM premier BEH C18 AX column (2.1 × 100mm x 1.7μm); Flow rate: 0.3mL/min; Mobile phase A and B are water and methnaol, respectively, both with 0.1% formic acid; Gradient elution: from A/B (95/5) to A/B (100/0) in 7min, kept for 4 min, then back to A/B (95/5) in 0.1 min, and maintained for additional 1.9 min (13min in total).; Injection volume: 10 μL
Num peaks: 11
57.06954 6427
65.03805 12448
93.03327 13408
121.02808 18332
149.02271 320783
150.02629 23152
259.10214 3824
303.09052 26446
333.17142 4104
382.22647 8277
385.23346 380899
Name: Diheptyl phthalate
PrecursorMZ: 401.2095
PrecursorType: [M+K]+
IonMode: Positive
Formula: C22H34O4
SMILES: CCCCCCCOC(=O)C1=CC=CC=C1C(=O)OCCCCCCC
InChI: 
InChIKey: JQCXWCOOWVGKMT-UHFFFAOYSA-N
RetentionTime: 8.4201
CCS: 
CollisionEnergy: 20-40 eV
InstrumentType: UPLC-QTOF-MS
Comment: PI: Cristina Nerin; Data collector: QiZhi Su, GUIA, University of Zaragoza, Spain; Collision energy: 20-40 V; Instrument: Waters HPLC-QTOF-MS (Xevo G2 QTof); Ionization: ESI; Deconvoluted by MS-DIAL; Column: Waters AtlantisTM premier BEH C18 AX column (2.1 × 100mm x 1.7μm); Flow rate: 0.3mL/min; Mobile phase A and B are water and methnaol, respectively, both with 0.1% formic acid; Gradient elution: from A/B (95/5) to A/B (100/0) in 7min, kept for 4 min, then back to A/B (95/5) in 0.1 min, and maintained for additional 1.9 min (13min in total).; Injection volume: 10 μL
Num peaks: 18
57.05714 6406
57.06942 6413
57.08116 6410
65.03799 12503
93.01693 13502
93.03304 13485
121.02764 18453
149.02274 321847
150.0264 23327
259.10159 3812
303.09021 26440
333.17059 4108
333.18286 4093
382.22568 8273
382.72736 3739
385.23373 354316
386.23721 75610
387.24155 6708
Name: Diheptyl phthalate
PrecursorMZ: 747.4811
PrecursorType: [2M+Na]+
IonMode: Positive
Formula: C22H34O4
SMILES: CCCCCCCOC(=O)C1=CC=CC=C1C(=O)OCCCCCCC
InChI: 
InChIKey: JQCXWCOOWVGKMT-UHFFFAOYSA-N
RetentionTime: 8.4201
CCS: 
CollisionEnergy: 20-40 eV
InstrumentType: UPLC-QTOF-MS
Comment: PI: Cristina Nerin; Data collector: QiZhi Su, GUIA, University of Zaragoza, Spain; Collision energy: 20-40 V; Instrument: Waters HPLC-QTOF-MS (Xevo G2 QTof); Ionization: ESI; Deconvoluted by MS-DIAL; Column: Waters AtlantisTM premier BEH C18 AX column (2.1 × 100mm x 1.7μm); Flow rate: 0.3mL/min; Mobile phase A and B are water and methnaol, respectively, both with 0.1% formic acid; Gradient elution: from A/B (95/5) to A/B (100/0) in 7min, kept for 4 min, then back to A/B (95/5) in 0.1 min, and maintained for additional 1.9 min (13min in total).; Injection volume: 10 μL
Num peaks: 24
57.05714 5951
57.06942 6018
57.08116 5994
65.03799 13254
93.01693 14374
93.03304 14352
121.02764 19595
149.02274 333525
150.0264 24823
248.97078 3381
283.05029 22524
283.06265 22690
326.97043 11156
353.04199 16524
371.09021 8119
371.11081 8612
382.22568 8265
385.23373 181173
386.23721 46718
387.24155 4903
415.03363 13590
415.04773 13782
503.1113 5317
665.33521 3603
Name: Diheptyl phthalate
PrecursorMZ: 763.456
PrecursorType: [2M+K]+
IonMode: Positive
Formula: C22H34O4
SMILES: CCCCCCCOC(=O)C1=CC=CC=C1C(=O)OCCCCCCC
InChI: 
InChIKey: JQCXWCOOWVGKMT-UHFFFAOYSA-N
RetentionTime: 8.4201
CCS: 
CollisionEnergy: 20-40 eV
InstrumentType: UPLC-QTOF-MS
Comment: PI: Cristina Nerin; Data collector: QiZhi Su, GUIA, University of Zaragoza, Spain; Collision energy: 20-40 V; Instrument: Waters HPLC-QTOF-MS (Xevo G2 QTof); Ionization: ESI; Deconvoluted by MS-DIAL; Column: Waters AtlantisTM premier BEH C18 AX column (2.1 × 100mm x 1.7μm); Flow rate: 0.3mL/min; Mobile phase A and B are water and methnaol, respectively, both with 0.1% formic acid; Gradient elution: from A/B (95/5) to A/B (100/0) in 7min, kept for 4 min, then back to A/B (95/5) in 0.1 min, and maintained for additional 1.9 min (13min in total).; Injection volume: 10 μL
Num peaks: 24
57.05714 5924
57.06942 5991
57.08116 5966
65.03799 13256
93.01693 14374
93.03304 14351
121.02764 19592
149.02274 333517
150.0264 24823
248.97078 3520
283.05029 21843
283.06265 22043
326.97043 11010
353.04199 17105
371.09021 10411
371.11081 10841
382.22568 8263
385.23373 181454
386.23721 46695
387.24155 4889
415.03363 13512
415.04773 13673
503.1113 5343
665.33521 3607
Name: Diheptyl phthalate
PrecursorMZ: 363.2536
PrecursorType: [M+H]+
IonMode: Positive
Formula: C22H34O4
SMILES: CCCCCCCOC(=O)C1=CC=CC=C1C(=O)OCCCCCCC
InChI: 
InChIKey: JQCXWCOOWVGKMT-UHFFFAOYSA-N
RetentionTime: 8.4239
CCS: 
CollisionEnergy: 20-40 eV
InstrumentType: UPLC-QTOF-MS
Comment: PI: Cristina Nerin; Data collector: QiZhi Su, GUIA, University of Zaragoza, Spain; Collision energy: 20-40 V; Instrument: Waters HPLC-QTOF-MS (Xevo G2 QTof); Ionization: ESI; Deconvoluted by MS-DIAL; Column: Waters AtlantisTM premier BEH C18 AX column (2.1 × 100mm x 1.7μm); Flow rate: 0.3mL/min; Mobile phase A and B are water and methnaol, respectively, both with 0.1% formic acid; Gradient elution: from A/B (95/5) to A/B (100/0) in 7min, kept for 4 min, then back to A/B (95/5) in 0.1 min, and maintained for additional 1.9 min (13min in total).; Injection volume: 10 μL
Num peaks: 12
57.06936 6393
65.03819 13036
93.01698 14053
93.03308 14030
121.02768 19201
149.02275 333777
149.03922 332930
150.0262 24280
259.1019 3785
303.0903 26440
333.16956 4099
333.18118 4093
Name: Diheptyl phthalate
PrecursorMZ: 742.5265
PrecursorType: [2M+NH4]+
IonMode: Positive
Formula: C22H34O4
SMILES: CCCCCCCOC(=O)C1=CC=CC=C1C(=O)OCCCCCCC
InChI: 
InChIKey: JQCXWCOOWVGKMT-UHFFFAOYSA-N
RetentionTime: 8.4239
CCS: 
CollisionEnergy: 20-40 eV
InstrumentType: UPLC-QTOF-MS
Comment: PI: Cristina Nerin; Data collector: QiZhi Su, GUIA, University of Zaragoza, Spain; Collision energy: 20-40 V; Instrument: Waters HPLC-QTOF-MS (Xevo G2 QTof); Ionization: ESI; Deconvoluted by MS-DIAL; Column: Waters AtlantisTM premier BEH C18 AX column (2.1 × 100mm x 1.7μm); Flow rate: 0.3mL/min; Mobile phase A and B are water and methnaol, respectively, both with 0.1% formic acid; Gradient elution: from A/B (95/5) to A/B (100/0) in 7min, kept for 4 min, then back to A/B (95/5) in 0.1 min, and maintained for additional 1.9 min (13min in total).; Injection volume: 10 μL
Num peaks: 22
57.06936 5025
65.03819 13258
93.01698 14366
93.03308 14350
121.02768 19592
149.02275 333444
149.03922 332726
150.0262 24823
282.04376 34659
283.03937 19588
283.05609 19557
326.97336 11017
371.08566 16124
371.10422 13625
382.22614 8262
385.23367 126065
386.23734 33742
387.24033 3505
415.03708 12821
416.02167 3560
503.10971 5220
665.33417 12787
Name: Trimethylolpropane triacrylate
PrecursorMZ: 314.1628
PrecursorType: [M+NH4]+
IonMode: Positive
Formula: C15H20O6
SMILES: CCC(COC(=O)C=C)(COC(=O)C=C)COC(=O)C=C
InChI: 
InChIKey: DAKWPKUUDNSNPN-UHFFFAOYSA-N
RetentionTime: 6.251966
CCS: 
CollisionEnergy: 20-40 eV
InstrumentType: UPLC-QTOF-MS
Comment: PI: Cristina Nerin; Data collector: QiZhi Su, GUIA, University of Zaragoza, Spain; Collision energy: 20-40 V; Instrument: Waters HPLC-QTOF-MS (Xevo G2 QTof); Ionization: ESI; Deconvoluted by MS-DIAL; Column: Waters AtlantisTM premier BEH C18 AX column (2.1 × 100mm x 1.7μm); Flow rate: 0.3mL/min; Mobile phase A and B are water and methnaol, respectively, both with 0.1% formic acid; Gradient elution: from A/B (95/5) to A/B (100/0) in 7min, kept for 4 min, then back to A/B (95/5) in 0.1 min, and maintained for additional 1.9 min (13min in total).; Injection volume: 10 μL
Num peaks: 18
55.01731 7003
55.0206 7003
69.07158 374
79.05421 7899
79.06745 7910
81.06955 19137
81.08839 19245
82.0656 396
82.07065 396
82.07594 399
99.07986 332
99.08611 332
107.07964 325
107.08658 321
182.98384 320
182.99884 351
183.00549 373
226.1172 262
Name: Trimethylolpropane triacrylate
PrecursorMZ: 319.1157
PrecursorType: [M+Na]+
IonMode: Positive
Formula: C15H20O6
SMILES: CCC(COC(=O)C=C)(COC(=O)C=C)COC(=O)C=C
InChI: 
InChIKey: DAKWPKUUDNSNPN-UHFFFAOYSA-N
RetentionTime: 6.251966
CCS: 
CollisionEnergy: 20-40 eV
InstrumentType: UPLC-QTOF-MS
Comment: PI: Cristina Nerin; Data collector: QiZhi Su, GUIA, University of Zaragoza, Spain; Collision energy: 20-40 V; Instrument: Waters HPLC-QTOF-MS (Xevo G2 QTof); Ionization: ESI; Deconvoluted by MS-DIAL; Column: Waters AtlantisTM premier BEH C18 AX column (2.1 × 100mm x 1.7μm); Flow rate: 0.3mL/min; Mobile phase A and B are water and methnaol, respectively, both with 0.1% formic acid; Gradient elution: from A/B (95/5) to A/B (100/0) in 7min, kept for 4 min, then back to A/B (95/5) in 0.1 min, and maintained for additional 1.9 min (13min in total).; Injection volume: 10 μL
Num peaks: 19
55.01731 7003
55.0206 7003
69.07158 374
79.05421 7899
79.06745 7910
81.06955 19137
81.08839 19245
82.0656 396
82.07065 396
82.07594 399
99.07986 332
99.08611 332
107.07964 325
107.08658 321
182.98384 320
182.99884 351
183.00549 373
226.1172 262
319.12497 381
Name: Diethyl hexahydrophthalate
PrecursorMZ: 251.1256
PrecursorType: [M+Na]+
IonMode: Positive
Formula: C12H20O4
SMILES: CCOC(=O)C1CCCCC1C(=O)OCC
InChI: 
InChIKey: ZTUZDYWYNQDJKR-UHFFFAOYSA-N
RetentionTime: 6.552717
CCS: 
CollisionEnergy: 20-40 eV
InstrumentType: UPLC-QTOF-MS
Comment: PI: Cristina Nerin; Data collector: QiZhi Su, GUIA, University of Zaragoza, Spain; Collision energy: 20-40 V; Instrument: Waters HPLC-QTOF-MS (Xevo G2 QTof); Ionization: ESI; Deconvoluted by MS-DIAL; Column: Waters AtlantisTM premier BEH C18 AX column (2.1 × 100mm x 1.7μm); Flow rate: 0.3mL/min; Mobile phase A and B are water and methnaol, respectively, both with 0.1% formic acid; Gradient elution: from A/B (95/5) to A/B (100/0) in 7min, kept for 4 min, then back to A/B (95/5) in 0.1 min, and maintained for additional 1.9 min (13min in total).; Injection volume: 10 μL
Num peaks: 21
79.03363 12188
79.0536 15195
79.06985 15215
81.06903 211167
82.07254 9378
109.06413 6914
120.03274 6092
120.05182 6103
129.03789 4143
129.05762 3855
134.04794 19403
134.54979 2145
143.05376 8240
143.06807 8236
175.08586 4546
175.09279 4546
197.08253 4354
211.02722 2806
239.05933 9377
248.11603 7903
251.1256 12703
Name: Diethyl hexahydrophthalate
PrecursorMZ: 479.2614
PrecursorType: [2M+Na]+
IonMode: Positive
Formula: C12H20O4
SMILES: CCOC(=O)C1CCCCC1C(=O)OCC
InChI: 
InChIKey: ZTUZDYWYNQDJKR-UHFFFAOYSA-N
RetentionTime: 6.552717
CCS: 
CollisionEnergy: 20-40 eV
InstrumentType: UPLC-QTOF-MS
Comment: PI: Cristina Nerin; Data collector: QiZhi Su, GUIA, University of Zaragoza, Spain; Collision energy: 20-40 V; Instrument: Waters HPLC-QTOF-MS (Xevo G2 QTof); Ionization: ESI; Deconvoluted by MS-DIAL; Column: Waters AtlantisTM premier BEH C18 AX column (2.1 × 100mm x 1.7μm); Flow rate: 0.3mL/min; Mobile phase A and B are water and methnaol, respectively, both with 0.1% formic acid; Gradient elution: from A/B (95/5) to A/B (100/0) in 7min, kept for 4 min, then back to A/B (95/5) in 0.1 min, and maintained for additional 1.9 min (13min in total).; Injection volume: 10 μL
Num peaks: 23
79.03363 12187
79.0536 15195
79.06985 15215
81.06903 211193
82.07254 9379
109.06413 6914
120.03274 6092
120.05182 6103
129.03789 4143
129.05762 3856
134.04794 19403
134.54979 2145
143.05376 8240
143.06807 8236
175.08586 4546
175.09279 4546
197.08253 4357
211.02722 2806
239.05933 9377
248.11603 7903
251.1256 12163
313.08359 3437
313.09711 3601
Name: Diethyl hexahydrophthalate
PrecursorMZ: 229.1433
PrecursorType: [M+H]+
IonMode: Positive
Formula: C12H20O4
SMILES: CCOC(=O)C1CCCCC1C(=O)OCC
InChI: 
InChIKey: ZTUZDYWYNQDJKR-UHFFFAOYSA-N
RetentionTime: 6.556517
CCS: 
CollisionEnergy: 20-40 eV
InstrumentType: UPLC-QTOF-MS
Comment: PI: Cristina Nerin; Data collector: QiZhi Su, GUIA, University of Zaragoza, Spain; Collision energy: 20-40 V; Instrument: Waters HPLC-QTOF-MS (Xevo G2 QTof); Ionization: ESI; Deconvoluted by MS-DIAL; Column: Waters AtlantisTM premier BEH C18 AX column (2.1 × 100mm x 1.7μm); Flow rate: 0.3mL/min; Mobile phase A and B are water and methnaol, respectively, both with 0.1% formic acid; Gradient elution: from A/B (95/5) to A/B (100/0) in 7min, kept for 4 min, then back to A/B (95/5) in 0.1 min, and maintained for additional 1.9 min (13min in total).; Injection volume: 10 μL
Num peaks: 15
79.05328 15202
81.05503 211171
81.06911 211136
82.05977 9379
82.07293 9357
109.0647 6936
120.03207 6094
129.03844 4146
134.04752 19414
134.54782 2144
134.55528 2154
143.0535 8240
175.08719 4544
197.08205 4358
211.02914 2822
Name: Diethyl hexahydrophthalate
PrecursorMZ: 267.1002
PrecursorType: [M+K]+
IonMode: Positive
Formula: C12H20O4
SMILES: CCOC(=O)C1CCCCC1C(=O)OCC
InChI: 
InChIKey: ZTUZDYWYNQDJKR-UHFFFAOYSA-N
RetentionTime: 6.556517
CCS: 
CollisionEnergy: 20-40 eV
InstrumentType: UPLC-QTOF-MS
Comment: PI: Cristina Nerin; Data collector: QiZhi Su, GUIA, University of Zaragoza, Spain; Collision energy: 20-40 V; Instrument: Waters HPLC-QTOF-MS (Xevo G2 QTof); Ionization: ESI; Deconvoluted by MS-DIAL; Column: Waters AtlantisTM premier BEH C18 AX column (2.1 × 100mm x 1.7μm); Flow rate: 0.3mL/min; Mobile phase A and B are water and methnaol, respectively, both with 0.1% formic acid; Gradient elution: from A/B (95/5) to A/B (100/0) in 7min, kept for 4 min, then back to A/B (95/5) in 0.1 min, and maintained for additional 1.9 min (13min in total).; Injection volume: 10 μL
Num peaks: 18
79.05328 15204
81.05503 211243
81.06911 211200
82.05977 9387
82.07293 9366
109.0647 6918
120.03207 6093
129.03844 4146
134.04752 19403
134.54782 2144
134.55528 2154
143.0535 8240
175.08719 4544
197.08205 4357
211.02914 2804
239.05827 9378
248.11584 7903
251.12515 12163
Name: "1,4-Cyclohexanedicarboxylic acid"
PrecursorMZ: 383.1017
PrecursorType: [2M+K]+
IonMode: Positive
Formula: C8H12O4
SMILES: C1CC(CCC1C(=O)O)C(=O)O
InChI: 
InChIKey: PXGZQGDTEZPERC-UHFFFAOYSA-N
RetentionTime: 4.205534
CCS: 
CollisionEnergy: 20-40 eV
InstrumentType: UPLC-QTOF-MS
Comment: PI: Cristina Nerin; Data collector: QiZhi Su, GUIA, University of Zaragoza, Spain; Collision energy: 20-40 V; Instrument: Waters HPLC-QTOF-MS (Xevo G2 QTof); Ionization: ESI; Deconvoluted by MS-DIAL; Column: Waters AtlantisTM premier BEH C18 AX column (2.1 × 100mm x 1.7μm); Flow rate: 0.3mL/min; Mobile phase A and B are water and methnaol, respectively, both with 0.1% formic acid; Gradient elution: from A/B (95/5) to A/B (100/0) in 7min, kept for 4 min, then back to A/B (95/5) in 0.1 min, and maintained for additional 1.9 min (13min in total).; Injection volume: 10 μL
Num peaks: 29
79.05305 85
81.06891 646
81.07585 642
92.01335 73
92.02204 71
101.02483 87
110.02229 69
110.03435 67
119.01041 132
119.02088 131
165.00555 679
165.019 1106
165.02916 1112
165.04346 512
195.05058 94
195.06258 117
211.02916 6557
212.0143 199
212.03621 340
213.02396 67
213.03996 67
328.10382 70
365.07855 251
365.10358 273
366.10229 76
367.12262 89
369.10483 82
369.11935 75
383.104 3808
Name: resorcinol bis (2hydroxy ethyl)ether
PrecursorMZ: 199.0976
PrecursorType: [M+H]+
IonMode: Positive
Formula: C10H14O4
SMILES: C1=CC(=CC(=C1)OCCO)OCCO
InChI: 
InChIKey: IAXFZZHBFXRZMT-UHFFFAOYSA-N
RetentionTime: 3.835767
CCS: 
CollisionEnergy: 20-40 eV
InstrumentType: UPLC-QTOF-MS
Comment: PI: Cristina Nerin; Data collector: QiZhi Su, GUIA, University of Zaragoza, Spain; Collision energy: 20-40 V; Instrument: Waters HPLC-QTOF-MS (Xevo G2 QTof); Ionization: ESI; Deconvoluted by MS-DIAL; Column: Waters AtlantisTM premier BEH C18 AX column (2.1 × 100mm x 1.7μm); Flow rate: 0.3mL/min; Mobile phase A and B are water and methnaol, respectively, both with 0.1% formic acid; Gradient elution: from A/B (95/5) to A/B (100/0) in 7min, kept for 4 min, then back to A/B (95/5) in 0.1 min, and maintained for additional 1.9 min (13min in total).; Injection volume: 10 μL
Num peaks: 145
55.05768 26
60.05061 34
60.96328 35
62.99266 26
65.03796 75
66.04157 24
67.053 27
67.05883 45
68.99696 49
69.00217 23
70.98334 29
70.99335 26
71.09112 30
73.0458 26
73.04971 26
74.9983 25
77.04189 41
78.98061 65
78.98936 50
79.00573 24
80.05788 36
81.06873 91
81.07307 45
81.08164 29
82.98986 26
83.08853 27
84.95572 68
84.96357 210
85.02472 29
86.06885 45
88.95865 23
91.04968 42
91.05688 170
92.05611 86
93.03387 158
93.0407 44
93.0652 24
94.03556 59
94.04848 43
95.05138 22
95.05571 56
95.08895 23
96.08553 23
98.96999 54
98.97729 30
102.05428 23
102.98302 59
102.99124 66
105.0031 81
105.07343 27
105.96038 22
107.0525 68
107.08405 57
109.05671 94
109.06834 148
109.10098 54
110.01321 29
110.0569 23
110.97535 38
111.02107 57
111.04005 145
111.04796 386
112.04421 35
112.05169 49
113.04742 49
113.0572 52
115.00639 41
116.52288 40
116.9787 33
119.04803 40
119.09645 28
120.06881 24
120.96675 27
123.07822 22
123.12431 25
125.00129 24
125.01836 38
127.03915 22
127.0899 38
128.53934 41
128.87015 22
130.04411 32
132.90828 23
133.00299 24
134.05806 22
134.06535 29
135.04375 25
136.94431 22
137.04703 24
137.06105 485
137.06696 140
138.05626 52
138.07423 80
140.07486 24
142.09222 25
143.96919 23
147.00623 25
148.56961 29
148.97011 31
148.99352 2170
149.00749 114
149.99188 35
149.99925 54
152.98979 97
152.99844 33
154.9841 25
155.00558 43
155.07307 61
156.99814 32
158.16058 27
160.03186 37
161.06927 49
164.96576 27
164.98677 31
165.02696 43
165.75623 23
166.98094 52
167.00284 42
168.1098 23
170.10284 25
171.02165 34
173.04715 22
175.00519 38
176.96982 22
177.04189 79
177.97392 27
179.05095 50
180.06776 22
182.0135 26
189.0143 31
189.99611 49
190.04041 57
192.88023 26
192.98302 26
193.02316 171
193.03323 90
194.02727 50
194.03972 80
194.13004 36
195.03024 22
195.05515 27
196.92979 25
197.98186 73
199.0304 24
199.10115 171
Name: 11-Aminoundecanoic acid
PrecursorMZ: 202.1801
PrecursorType: [M+H]+
IonMode: Positive
Formula: C11H23NO2
SMILES: C(CCCCCN)CCCCC(=O)O
InChI: 
InChIKey: GUOSQNAUYHMCRU-UHFFFAOYSA-N
RetentionTime: 2.197233
CCS: 
CollisionEnergy: 20-40 eV
InstrumentType: UPLC-QTOF-MS
Comment: PI: Cristina Nerin; Data collector: QiZhi Su, GUIA, University of Zaragoza, Spain; Collision energy: 20-40 V; Instrument: Waters HPLC-QTOF-MS (Xevo G2 QTof); Ionization: ESI; Deconvoluted by MS-DIAL; Column: Waters AtlantisTM premier BEH C18 AX column (2.1 × 100mm x 1.7μm); Flow rate: 0.3mL/min; Mobile phase A and B are water and methnaol, respectively, both with 0.1% formic acid; Gradient elution: from A/B (95/5) to A/B (100/0) in 7min, kept for 4 min, then back to A/B (95/5) in 0.1 min, and maintained for additional 1.9 min (13min in total).; Injection volume: 10 μL
Num peaks: 106
55.05422 117
55.06 98
56.0553 20
56.96402 57
57.07032 24
58.06508 53
60.07772 22
61.50547 23
62.99961 27
63.99322 24
67.04737 25
67.05585 21
68.98387 30
69.07011 1057
69.07493 284
70.42673 20
71.04779 40
72.51753 29
73.04992 98
73.06646 76
75.0059 33
77.03729 42
78.9613 25
79.05315 106
80.06361 20
81.06237 29
81.06816 76
81.07439 130
82.69672 47
83.07355 25
83.08803 249
84.09314 43
84.96121 66
85.06706 25
86.0703 21
86.98088 30
88.02474 20
88.97026 33
89.06358 22
90.90246 25
91.054 55
92.05141 22
93.06742 66
93.07476 79
94.07127 23
95.08596 24
96.05695 21
96.07521 43
96.96421 22
97.06245 41
97.06896 76
97.09978 21
97.10518 59
101.0542 22
105.04179 41
107.08453 144
107.09433 44
108.07561 20
108.99679 22
109.10358 20
111.07571 29
111.08731 57
114.0634 21
114.94513 22
115.05965 21
117.00162 33
120.07838 27
120.9142 37
121.03151 20
121.10613 90
122.91197 20
123.01882 35
131.00168 30
131.93762 21
132.9458 34
133.91769 26
134.91415 25
135.05084 29
137.08527 21
142.16524 59
144.96843 40
147.87543 29
149.05862 21
149.13565 23
150.91736 20
152.03481 24
158.94197 27
164.99985 22
173.12692 25
175.86972 36
176.01717 21
177.88136 47
183.0372 25
184.1667 257
184.17291 514
185.16785 23
185.17735 94
185.90393 25
187.08736 28
190.01411 20
192.01973 24
196.16806 47
197.18382 37
201.0555 48
202.17418 48
202.18433 152
Name: 11-Aminoundecanoic acid
PrecursorMZ: 202.1808
PrecursorType: [M+H]+
IonMode: Positive
Formula: C11H23NO2
SMILES: C(CCCCCN)CCCCC(=O)O
InChI: 
InChIKey: GUOSQNAUYHMCRU-UHFFFAOYSA-N
RetentionTime: 3.016217
CCS: 
CollisionEnergy: 20-40 eV
InstrumentType: UPLC-QTOF-MS
Comment: PI: Cristina Nerin; Data collector: QiZhi Su, GUIA, University of Zaragoza, Spain; Collision energy: 20-40 V; Instrument: Waters HPLC-QTOF-MS (Xevo G2 QTof); Ionization: ESI; Deconvoluted by MS-DIAL; Column: Waters AtlantisTM premier BEH C18 AX column (2.1 × 100mm x 1.7μm); Flow rate: 0.3mL/min; Mobile phase A and B are water and methnaol, respectively, both with 0.1% formic acid; Gradient elution: from A/B (95/5) to A/B (100/0) in 7min, kept for 4 min, then back to A/B (95/5) in 0.1 min, and maintained for additional 1.9 min (13min in total).; Injection volume: 10 μL
Num peaks: 73
55.0179 130
55.05415 1778
55.0577 1778
56.04922 112
56.05727 112
56.06041 115
57.06692 272
57.07262 272
59.04479 87
59.04911 87
59.05333 84
67.05497 963
69.05428 7217
69.06917 7188
70.0743 372
71.04463 142
71.05209 142
71.06394 231
71.0807 330
71.08463 327
71.09005 328
73.04751 189
73.06325 279
73.06825 288
77.03617 201
77.04156 204
79.05325 1177
79.05743 1177
81.06906 1999
83.04171 296
83.05192 296
83.08542 5408
84.08571 354
84.09203 347
85.07175 105
85.08582 137
85.09177 93
85.10358 94
91.05602 348
93.06962 1556
95.07329 657
95.08539 676
95.0923 676
97.06308 834
97.06862 844
97.10142 893
97.11142 880
100.0669 94
100.07484 102
100.08698 101
101.05128 95
101.06333 94
105.07082 111
105.07991 111
107.0859 1138
109.10105 207
109.10627 207
111.0794 375
111.08462 379
111.09208 367
121.09279 434
121.10244 444
121.11217 439
123.11578 138
125.09314 151
149.12624 280
149.13789 283
184.16963 8157
185.17485 679
202.17216 413
202.18074 404
202.19458 148
202.20033 82
Name: "3,9-Bis(1,1-dimethyl-2-hydroxyethyl)-2,4,8,10-tetraoxaspiro[5.5]undecane"
PrecursorMZ: 305.1958
PrecursorType: [M+H]+
IonMode: Positive
Formula: C15H28O6
SMILES: CC(C)(CO)C1OCC2(CO1)COC(OC2)C(C)(C)CO
InChI: 
InChIKey: BPZIYBJCZRUDEG-UHFFFAOYSA-N
RetentionTime: 5.700213
CCS: 
CollisionEnergy: 20-40 eV
InstrumentType: UPLC-QTOF-MS
Comment: PI: Cristina Nerin; Data collector: QiZhi Su, GUIA, University of Zaragoza, Spain; Collision energy: 20-40 V; Instrument: Waters HPLC-QTOF-MS (Xevo G2 QTof); Ionization: ESI; Deconvoluted by MS-DIAL; Column: Waters AtlantisTM premier BEH C18 AX column (2.1 × 100mm x 1.7μm); Flow rate: 0.3mL/min; Mobile phase A and B are water and methnaol, respectively, both with 0.1% formic acid; Gradient elution: from A/B (95/5) to A/B (100/0) in 7min, kept for 4 min, then back to A/B (95/5) in 0.1 min, and maintained for additional 1.9 min (13min in total).; Injection volume: 10 μL
Num peaks: 129
55.03738 427
55.05562 498
57.0694 1670
67.05441 176
69.03137 294
69.03644 294
69.06871 2567
71.049 2928
73.06406 15235
73.08064 15225
74.0545 396
74.06015 410
74.06856 405
83.04872 4006
85.06499 570
87.04195 503
87.04691 533
87.05245 546
87.0805 1106
95.08385 281
95.0902 279
99.03696 215
99.04811 224
99.0562 246
99.07867 255
99.08755 251
101.05988 3691
101.07949 2358
103.06023 189
103.07225 194
103.07768 198
106.02692 233
106.03305 231
106.04178 236
106.04922 226
111.00183 376
111.01379 371
119.06294 614
119.06779 565
119.0754 551
119.09177 394
123.0609 197
123.0743 493
123.08118 483
123.0871 481
124.9924 166
125.00054 171
125.09192 275
125.10205 277
125.10806 276
129.12543 172
139.09532 346
139.1051 439
139.11386 441
141.08226 313
141.09721 299
142.04977 362
142.06226 351
143.04509 217
147.054 229
147.0629 216
147.07251 203
155.0972 226
155.10989 244
155.12048 247
157.07069 631
157.56357 182
157.57477 189
157.58621 164
162.07695 442
162.09404 455
169.10156 196
169.11819 164
172.05614 342
172.07611 655
172.09007 632
177.08502 1546
177.58372 218
177.5972 229
181.04353 941
181.05562 930
189.11362 238
192.07393 1133
192.08705 1263
192.09511 1228
192.59467 294
201.11327 330
203.12468 215
213.10887 377
213.12125 374
219.12291 547
228.12003 2184
228.60475 298
228.61777 408
228.63322 365
243.11812 2289
243.13011 2283
243.63011 426
244.11813 185
244.13216 210
244.1434 189
245.15883 312
245.17075 386
245.18301 405
258.12698 492
258.13913 537
258.62305 179
258.63824 201
264.14075 312
264.15616 308
275.18527 6050
276.18823 478
276.20523 550
279.14957 1097
279.16031 1091
279.65656 441
283.10306 415
283.12128 318
283.13358 346
286.16522 197
286.17682 162
287.17117 296
287.18625 281
294.15857 3249
294.66016 726
295.16602 178
301.1622 214
301.17905 240
305.19562 6184
Name: "3,9-Bis(1,1-dimethyl-2-hydroxyethyl)-2,4,8,10-tetraoxaspiro[5.5]undecane"
PrecursorMZ: 305.1964
PrecursorType: [M+H]+
IonMode: Positive
Formula: C15H28O6
SMILES: CC(C)(CO)C1OCC2(CO1)COC(OC2)C(C)(C)CO
InChI: 
InChIKey: BPZIYBJCZRUDEG-UHFFFAOYSA-N
RetentionTime: 5.640412
CCS: 
CollisionEnergy: 20-40 eV
InstrumentType: UPLC-QTOF-MS
Comment: PI: Cristina Nerin; Data collector: QiZhi Su, GUIA, University of Zaragoza, Spain; Collision energy: 20-40 V; Instrument: Waters HPLC-QTOF-MS (Xevo G2 QTof); Ionization: ESI; Deconvoluted by MS-DIAL; Column: Waters AtlantisTM premier BEH C18 AX column (2.1 × 100mm x 1.7μm); Flow rate: 0.3mL/min; Mobile phase A and B are water and methnaol, respectively, both with 0.1% formic acid; Gradient elution: from A/B (95/5) to A/B (100/0) in 7min, kept for 4 min, then back to A/B (95/5) in 0.1 min, and maintained for additional 1.9 min (13min in total).; Injection volume: 10 μL
Num peaks: 114
55.05288 383
57.07022 1467
59.04799 182
67.05402 272
69.03658 242
69.07032 2393
71.04639 1190
71.05128 1168
73.06407 9492
74.06744 206
81.07025 271
83.04878 2456
84.9621 139
85.06593 140
87.04134 172
87.04556 486
87.07993 861
87.08536 225
89.06603 125
91.0515 135
93.07423 255
95.08669 288
99.04185 133
99.04874 207
101.05954 2152
101.06813 269
102.06457 162
106.03671 216
107.04713 135
109.10167 105
111.01018 355
111.01523 234
115.03764 200
116.04159 103
119.06881 237
120.55823 111
123.08224 372
124.98768 100
127.06332 120
129.0276 156
139.10686 109
139.11855 109
141.02255 232
141.06679 170
141.08937 194
142.06712 155
143.0407 101
146.06438 189
147.06911 158
150.06999 99
155.11237 208
157.06572 588
157.125 131
162.07196 111
162.07782 204
165.07983 105
168.08717 134
172.07234 326
172.57933 96
176.57849 120
177.07275 241
177.08296 585
177.09084 614
177.58192 189
177.59894 126
178.09061 108
181.04753 312
181.05573 973
189.11441 191
192.08701 691
192.10127 212
192.58598 226
192.6002 106
194.08777 118
200.09616 98
201.11185 502
203.12952 135
211.07837 97
213.10928 101
213.11957 170
219.11327 152
219.12735 289
228.12035 1952
228.1385 105
228.61563 138
228.63322 199
236.07304 101
243.11195 330
243.12094 824
243.13483 424
243.62616 176
245.16956 187
245.1801 259
246.01152 233
258.12921 342
264.14444 221
264.15866 99
267.08429 113
275.18719 4964
276.19348 414
279.15494 976
279.17178 197
279.64969 180
279.66013 103
283.11221 260
283.12875 823
286.17117 178
287.1785 121
294.15878 2154
294.65482 298
294.67181 224
295.14896 160
301.18112 152
305.19806 2546
Name: "3,9-Bis(1,1-dimethyl-2-hydroxyethyl)-2,4,8,10-tetraoxaspiro[5.5]undecane"
PrecursorMZ: 322.222
PrecursorType: [M+NH4]+
IonMode: Positive
Formula: C15H28O6
SMILES: CC(C)(CO)C1OCC2(CO1)COC(OC2)C(C)(C)CO
InChI: 
InChIKey: BPZIYBJCZRUDEG-UHFFFAOYSA-N
RetentionTime: 5.70174
CCS: 
CollisionEnergy: 20-40 eV
InstrumentType: UPLC-QTOF-MS
Comment: PI: Cristina Nerin; Data collector: QiZhi Su, GUIA, University of Zaragoza, Spain; Collision energy: 20-40 V; Instrument: Waters HPLC-QTOF-MS (Xevo G2 QTof); Ionization: ESI; Deconvoluted by MS-DIAL; Column: Waters AtlantisTM premier BEH C18 AX column (2.1 × 100mm x 1.7μm); Flow rate: 0.3mL/min; Mobile phase A and B are water and methnaol, respectively, both with 0.1% formic acid; Gradient elution: from A/B (95/5) to A/B (100/0) in 7min, kept for 4 min, then back to A/B (95/5) in 0.1 min, and maintained for additional 1.9 min (13min in total).; Injection volume: 10 μL
Num peaks: 138
55.05182 498
55.05575 498
55.06173 489
57.07014 1672
67.05138 176
67.06085 176
69.03313 294
69.06886 2562
69.07432 2562
71.04964 2922
73.04773 15259
73.06409 15204
74.05956 409
74.06587 407
74.07116 410
83.04874 3997
85.06419 574
85.07738 563
87.04238 508
87.04742 528
87.0812 1102
95.07864 280
95.08752 279
95.09402 283
99.04128 224
99.04716 224
99.07551 255
99.08067 250
99.08887 250
101.05942 3685
103.07411 198
103.07893 191
103.08959 170
106.03221 236
106.03772 236
111.00787 377
111.01511 370
119.06692 576
119.07298 552
119.08663 533
123.06071 228
123.08094 482
123.08782 480
124.98164 173
124.99345 166
125.09648 274
125.10373 276
129.11723 159
129.12222 159
129.13132 171
139.09511 345
139.11115 441
139.12354 430
141.08946 291
141.09602 292
142.04495 238
142.05237 370
142.06599 343
143.03883 207
143.05272 236
147.05591 226
147.06935 192
155.10303 233
155.11159 244
157.07149 633
157.56598 181
157.58067 175
162.07915 442
162.09042 455
169.09981 181
172.0732 654
172.0826 651
177.06657 1890
177.08492 1530
177.09724 1525
177.57573 199
177.58386 218
177.59151 233
181.05536 928
181.06972 971
189.10919 240
189.12129 240
192.08189 1232
192.09142 1256
192.59267 294
192.60043 294
201.09785 313
201.11453 329
201.127 303
203.11984 210
203.13152 215
213.11224 370
213.12219 372
219.11922 540
219.12923 548
219.14639 183
228.11996 2180
228.61485 412
228.62759 388
243.12627 2278
243.63089 428
244.13736 198
245.16383 403
245.17699 430
258.12323 479
258.13171 538
258.62872 201
258.64206 189
264.14035 312
264.15619 307
275.18573 6047
276.18716 483
276.19775 495
279.15128 1094
279.16626 1079
279.64862 441
279.66245 408
283.11957 317
283.13242 346
286.17056 165
287.17148 296
287.18845 288
294.15839 3242
294.64471 773
294.66034 725
295.15335 169
295.16702 174
301.17618 235
301.18655 213
305.19635 3872
306.18597 391
306.19809 455
306.21716 181
309.16415 3310
309.65137 896
309.66605 1097
310.15646 197
310.17407 229
Name: "3,9-Bis(1,1-dimethyl-2-hydroxyethyl)-2,4,8,10-tetraoxaspiro[5.5]undecane"
PrecursorMZ: 322.2232
PrecursorType: [M+NH4]+
IonMode: Positive
Formula: C15H28O6
SMILES: CC(C)(CO)C1OCC2(CO1)COC(OC2)C(C)(C)CO
InChI: 
InChIKey: BPZIYBJCZRUDEG-UHFFFAOYSA-N
RetentionTime: 5.64235
CCS: 
CollisionEnergy: 20-40 eV
InstrumentType: UPLC-QTOF-MS
Comment: PI: Cristina Nerin; Data collector: QiZhi Su, GUIA, University of Zaragoza, Spain; Collision energy: 20-40 V; Instrument: Waters HPLC-QTOF-MS (Xevo G2 QTof); Ionization: ESI; Deconvoluted by MS-DIAL; Column: Waters AtlantisTM premier BEH C18 AX column (2.1 × 100mm x 1.7μm); Flow rate: 0.3mL/min; Mobile phase A and B are water and methnaol, respectively, both with 0.1% formic acid; Gradient elution: from A/B (95/5) to A/B (100/0) in 7min, kept for 4 min, then back to A/B (95/5) in 0.1 min, and maintained for additional 1.9 min (13min in total).; Injection volume: 10 μL
Num peaks: 87
55.05325 814
57.06999 2845
67.0513 272
69.03535 286
69.06973 3601
71.049 3577
73.06419 19636
74.06835 441
81.07142 232
83.04925 5528
84.05147 251
84.96231 204
85.06655 349
87.04499 837
87.08085 1887
89.06049 232
95.0855 271
99.0463 398
101.05969 4356
102.06332 307
106.03968 290
111.00987 662
119.06729 248
119.07538 537
123.07646 226
123.08367 229
124.99166 242
125.09829 245
129.13023 250
139.1115 361
141.08865 283
142.06319 342
142.07246 210
143.04124 241
155.10963 342
157.07103 1391
162.08159 618
169.11476 226
172.07481 608
173.11127 235
177.08531 2185
177.58704 396
181.05174 788
189.11185 343
192.08788 757
192.09653 772
192.59395 284
201.11705 591
203.12889 266
211.06609 218
213.11935 711
219.1228 468
220.12363 224
228.11993 2496
228.62125 543
243.1218 1867
243.13216 873
243.63173 278
245.17316 346
245.18561 215
246.00665 247
246.02312 273
257.17688 213
258.12595 453
258.13788 581
258.63132 309
264.14426 361
267.15445 263
275.18646 8680
276.18954 835
279.15805 1745
279.66177 497
283.12213 1191
283.13492 287
286.1795 293
294.16046 4040
294.65765 665
295.16748 272
299.09125 199
299.10809 229
301.17612 226
305.19659 4418
306.2034 824
309.16537 4187
309.66382 815
313.12057 378
313.13623 1363
Name: "3,9-Bis(1,1-dimethyl-2-hydroxyethyl)-2,4,8,10-tetraoxaspiro[5.5]undecane"
PrecursorMZ: 327.1775
PrecursorType: [M+Na]+
IonMode: Positive
Formula: C15H28O6
SMILES: CC(C)(CO)C1OCC2(CO1)COC(OC2)C(C)(C)CO
InChI: 
InChIKey: BPZIYBJCZRUDEG-UHFFFAOYSA-N
RetentionTime: 5.700213
CCS: 
CollisionEnergy: 20-40 eV
InstrumentType: UPLC-QTOF-MS
Comment: PI: Cristina Nerin; Data collector: QiZhi Su, GUIA, University of Zaragoza, Spain; Collision energy: 20-40 V; Instrument: Waters HPLC-QTOF-MS (Xevo G2 QTof); Ionization: ESI; Deconvoluted by MS-DIAL; Column: Waters AtlantisTM premier BEH C18 AX column (2.1 × 100mm x 1.7μm); Flow rate: 0.3mL/min; Mobile phase A and B are water and methnaol, respectively, both with 0.1% formic acid; Gradient elution: from A/B (95/5) to A/B (100/0) in 7min, kept for 4 min, then back to A/B (95/5) in 0.1 min, and maintained for additional 1.9 min (13min in total).; Injection volume: 10 μL
Num peaks: 133
55.03738 427
55.05562 498
57.0694 1670
69.03137 294
69.03644 294
69.06871 2567
71.049 2928
73.06406 15235
73.08064 15225
74.0545 396
74.06015 410
74.06856 405
83.04872 4006
85.06499 570
87.04195 503
87.04691 533
87.05245 546
87.0805 1106
95.08385 281
95.0902 279
99.03696 215
99.04811 224
99.0562 246
99.07867 255
99.08755 251
101.05988 3691
101.07949 2358
103.06023 189
103.07225 194
103.07768 198
106.02692 233
106.03305 231
106.04178 236
106.04922 226
111.00183 376
111.01379 371
119.06294 614
119.06779 565
119.0754 551
119.09177 394
123.0609 197
123.0743 493
123.08118 483
123.0871 481
125.09192 275
125.10205 277
125.10806 276
139.09532 346
139.1051 439
139.11386 441
141.08226 313
141.09721 299
142.04977 362
142.06226 351
143.04509 217
147.054 229
147.0629 216
147.07251 203
155.0972 226
155.10989 244
155.12048 247
157.07069 631
157.56357 182
157.57477 189
162.07695 442
162.09404 455
169.10156 196
172.05614 342
172.07611 655
172.09007 632
177.08502 1546
177.58372 218
177.5972 229
181.04353 941
181.05562 930
189.11362 238
192.07393 1133
192.08705 1263
192.09511 1228
192.59467 294
201.11327 330
203.12468 215
213.10887 377
213.12125 374
219.12291 547
228.12003 2184
228.60475 298
228.61777 408
228.63322 365
243.11812 2289
243.13011 2283
243.63011 426
244.11813 185
244.13216 210
244.1434 189
245.15883 312
245.17075 386
245.18301 405
258.12698 492
258.13913 537
258.62305 179
258.63824 201
264.14075 312
264.15616 308
275.18527 6050
276.18823 478
276.20523 550
279.14957 1097
279.16031 1091
279.65656 441
283.10306 415
283.12128 318
283.13358 346
286.16522 197
287.17117 296
287.18625 281
294.15857 3249
294.66016 726
295.16602 178
301.1622 214
301.17905 240
305.19562 3880
306.19144 417
306.20889 443
309.16409 3317
309.64825 870
309.66763 1097
310.16672 227
324.16217 1560
324.17609 1569
324.6633 483
324.67392 464
327.17688 17628
Name: "3,9-Bis(1,1-dimethyl-2-hydroxyethyl)-2,4,8,10-tetraoxaspiro[5.5]undecane"
PrecursorMZ: 327.178
PrecursorType: [M+Na]+
IonMode: Positive
Formula: C15H28O6
SMILES: CC(C)(CO)C1OCC2(CO1)COC(OC2)C(C)(C)CO
InChI: 
InChIKey: BPZIYBJCZRUDEG-UHFFFAOYSA-N
RetentionTime: 5.643275
CCS: 
CollisionEnergy: 20-40 eV
InstrumentType: UPLC-QTOF-MS
Comment: PI: Cristina Nerin; Data collector: QiZhi Su, GUIA, University of Zaragoza, Spain; Collision energy: 20-40 V; Instrument: Waters HPLC-QTOF-MS (Xevo G2 QTof); Ionization: ESI; Deconvoluted by MS-DIAL; Column: Waters AtlantisTM premier BEH C18 AX column (2.1 × 100mm x 1.7μm); Flow rate: 0.3mL/min; Mobile phase A and B are water and methnaol, respectively, both with 0.1% formic acid; Gradient elution: from A/B (95/5) to A/B (100/0) in 7min, kept for 4 min, then back to A/B (95/5) in 0.1 min, and maintained for additional 1.9 min (13min in total).; Injection volume: 10 μL
Num peaks: 104
55.05544 377
57.06862 1052
57.07246 1071
67.05237 214
67.05797 117
69.03548 297
69.06929 2434
71.0498 2337
73.06418 10679
74.0658 175
74.07089 279
79.05629 245
81.07349 199
83.04827 2726
84.05428 171
85.06385 459
87.04063 170
87.04721 311
87.08085 875
89.06956 185
91.05632 155
93.07587 110
95.08601 239
99.0448 207
101.0597 2468
103.07468 151
106.03294 263
106.04153 196
107.04218 215
107.08813 178
111.01399 794
115.04334 214
115.05001 117
119.06634 156
119.07333 366
123.08445 413
124.99148 370
125.0928 380
125.104 129
127.05953 136
128.04973 189
139.10854 189
141.09462 129
142.05772 144
142.06682 193
156.06705 352
157.0648 430
162.0768 317
169.12782 192
172.07236 391
172.08047 273
173.12038 145
174.98109 132
176.07932 147
177.08443 1180
177.5929 368
181.05605 1287
192.08179 256
192.08987 784
201.10721 187
201.11763 238
203.13164 293
211.05925 217
213.11726 237
219.12616 374
220.13196 213
228.11331 519
228.12486 769
228.61681 122
243.12384 1128
243.13492 543
243.62547 207
244.12273 146
245.11855 146
245.17976 604
246.02744 118
258.13535 344
264.14709 145
264.15622 271
268.00674 145
275.18668 4277
276.18869 671
279.15115 382
279.16611 333
279.65283 503
280.15103 130
283.10544 119
283.12732 832
287.17111 138
294.1582 2075
294.20273 139
294.65799 417
294.67297 139
299.09781 147
305.19388 2525
305.21143 557
306.19891 272
309.15115 535
309.1673 1648
309.66257 492
313.13422 1114
324.17407 765
324.67279 221
327.17822 10973
Name: "3,9-Bis(1,1-dimethyl-2-hydroxyethyl)-2,4,8,10-tetraoxaspiro[5.5]undecane"
PrecursorMZ: 609.386
PrecursorType: [2M+H]+
IonMode: Positive
Formula: C15H28O6
SMILES: CC(C)(CO)C1OCC2(CO1)COC(OC2)C(C)(C)CO
InChI: 
InChIKey: BPZIYBJCZRUDEG-UHFFFAOYSA-N
RetentionTime: 5.699458
CCS: 
CollisionEnergy: 20-40 eV
InstrumentType: UPLC-QTOF-MS
Comment: PI: Cristina Nerin; Data collector: QiZhi Su, GUIA, University of Zaragoza, Spain; Collision energy: 20-40 V; Instrument: Waters HPLC-QTOF-MS (Xevo G2 QTof); Ionization: ESI; Deconvoluted by MS-DIAL; Column: Waters AtlantisTM premier BEH C18 AX column (2.1 × 100mm x 1.7μm); Flow rate: 0.3mL/min; Mobile phase A and B are water and methnaol, respectively, both with 0.1% formic acid; Gradient elution: from A/B (95/5) to A/B (100/0) in 7min, kept for 4 min, then back to A/B (95/5) in 0.1 min, and maintained for additional 1.9 min (13min in total).; Injection volume: 10 μL
Num peaks: 92
55.04718 760
55.05437 756
55.06053 756
57.06933 2753
57.08109 2757
67.05381 302
69.03282 409
69.05322 4341
69.06915 4010
71.04861 4983
73.06383 26686
74.06818 808
83.04881 7506
84.04497 310
84.05437 310
85.0652 815
87.04459 719
87.0803 1957
95.08418 282
95.09034 279
99.04263 298
99.05066 354
99.06709 415
99.07822 285
99.085 288
101.0592 6281
103.06612 281
103.0782 287
119.05654 776
119.06864 844
119.07459 809
119.08603 812
123.07953 516
129.12808 399
139.11279 939
141.09142 323
147.06645 355
147.07828 353
155.09373 493
155.10796 463
157.06821 669
157.08179 651
162.07751 331
162.09621 368
169.1216 342
172.07245 405
177.08168 1501
177.09129 1500
181.05443 949
181.07585 314
189.11555 288
192.08992 1108
201.11415 767
203.12041 287
203.13492 270
213.10294 346
213.1147 305
219.12267 798
219.13463 776
228.11952 2035
228.62195 447
243.12524 2081
243.62695 284
245.17575 744
258.12308 711
258.1337 729
264.15027 313
275.18524 10945
276.1897 1079
279.15564 1307
279.65311 371
279.67426 297
286.15891 292
287.1687 351
287.18613 527
294.15961 3798
294.6619 1157
301.16397 299
301.17499 366
305.19528 6290
306.19962 734
309.1633 4578
309.65948 1094
309.6716 1045
310.16248 346
310.18237 271
324.16858 2104
324.67273 624
327.17715 11726
328.18124 1285
359.24445 869
550.20068 512
Name: 2 diethylamino ethanol
PrecursorMZ: 118.1216
PrecursorType: [M+H]+
IonMode: Positive
Formula: C6H15NO
SMILES: CCN(CC)CCO
InChI: 
InChIKey: BFSVOASYOCHEOV-UHFFFAOYSA-N
RetentionTime: 0.5511667
CCS: 
CollisionEnergy: 20-40 eV
InstrumentType: UPLC-QTOF-MS
Comment: PI: Cristina Nerin; Data collector: QiZhi Su, GUIA, University of Zaragoza, Spain; Collision energy: 20-40 V; Instrument: Waters HPLC-QTOF-MS (Xevo G2 QTof); Ionization: ESI; Deconvoluted by MS-DIAL; Column: Waters AtlantisTM premier BEH C18 AX column (2.1 × 100mm x 1.7μm); Flow rate: 0.3mL/min; Mobile phase A and B are water and methnaol, respectively, both with 0.1% formic acid; Gradient elution: from A/B (95/5) to A/B (100/0) in 7min, kept for 4 min, then back to A/B (95/5) in 0.1 min, and maintained for additional 1.9 min (13min in total).; Injection volume: 10 μL
Num peaks: 31
58.06747 74
69.59071 23
70.06028 23
70.06976 24
72.0447 23
72.07941 634
72.6713 21
74.09512 103
74.10034 166
77.00369 33
77.03728 24
84.04452 70
84.9467 21
86.99477 27
90.97915 47
93.97202 28
94.95417 22
95.08974 95
97.9732 20
98.08991 29
98.96259 20
100.10938 613
100.12123 72
101.04424 30
101.95345 22
102.08409 21
105.48558 22
106.07269 21
116.10479 23
118.12003 274
118.12621 489
Name: "4,4'-Sulfonyldiphenol"
PrecursorMZ: 251.0367
PrecursorType: [M+H]+
IonMode: Positive
Formula: C12H10O4S
SMILES: C1=CC(=CC=C1O)S(=O)(=O)C2=CC=C(C=C2)O
InChI: 
InChIKey: VPWNQTHUCYMVMZ-UHFFFAOYSA-N
RetentionTime: 4.573337
CCS: 
CollisionEnergy: 20-40 eV
InstrumentType: UPLC-QTOF-MS
Comment: PI: Cristina Nerin; Data collector: QiZhi Su, GUIA, University of Zaragoza, Spain; Collision energy: 20-40 V; Instrument: Waters HPLC-QTOF-MS (Xevo G2 QTof); Ionization: ESI; Deconvoluted by MS-DIAL; Column: Waters AtlantisTM premier BEH C18 AX column (2.1 × 100mm x 1.7μm); Flow rate: 0.3mL/min; Mobile phase A and B are water and methnaol, respectively, both with 0.1% formic acid; Gradient elution: from A/B (95/5) to A/B (100/0) in 7min, kept for 4 min, then back to A/B (95/5) in 0.1 min, and maintained for additional 1.9 min (13min in total).; Injection volume: 10 μL
Num peaks: 30
65.03839 1693
81.03352 97
81.04059 98
93.03298 8085
94.02688 430
94.03828 432
109.02829 1777
110.02847 191
110.03585 190
111.04353 297
111.05476 287
118.03563 82
119.04922 150
140.99934 97
141.00592 96
156.97765 2995
156.99599 2782
157.98811 142
158.00117 139
158.99048 94
175.04301 218
192.03703 113
192.05426 111
196.95877 383
196.9726 396
199.49937 90
199.51195 91
207.06432 266
207.07849 278
251.03789 368
Name: "4,4'-Sulfonyldiphenol"
PrecursorMZ: 268.0657
PrecursorType: [M+NH4]+
IonMode: Positive
Formula: C12H10O4S
SMILES: C1=CC(=CC=C1O)S(=O)(=O)C2=CC=C(C=C2)O
InChI: 
InChIKey: VPWNQTHUCYMVMZ-UHFFFAOYSA-N
RetentionTime: 4.571116
CCS: 
CollisionEnergy: 20-40 eV
InstrumentType: UPLC-QTOF-MS
Comment: PI: Cristina Nerin; Data collector: QiZhi Su, GUIA, University of Zaragoza, Spain; Collision energy: 20-40 V; Instrument: Waters HPLC-QTOF-MS (Xevo G2 QTof); Ionization: ESI; Deconvoluted by MS-DIAL; Column: Waters AtlantisTM premier BEH C18 AX column (2.1 × 100mm x 1.7μm); Flow rate: 0.3mL/min; Mobile phase A and B are water and methnaol, respectively, both with 0.1% formic acid; Gradient elution: from A/B (95/5) to A/B (100/0) in 7min, kept for 4 min, then back to A/B (95/5) in 0.1 min, and maintained for additional 1.9 min (13min in total).; Injection volume: 10 μL
Num peaks: 26
65.03761 3227
81.02955 215
81.03677 215
91.05468 302
93.03254 18526
94.03656 821
94.04416 820
109.02743 4038
110.03446 387
111.02587 295
111.04501 448
147.06429 498
156.97534 6486
156.99496 6180
157.98505 218
157.99965 211
158.98662 225
158.99519 238
159.00438 232
175.03851 202
196.95627 370
196.96825 328
207.06409 375
207.07828 377
251.03831 763
262.02478 252
Name: "4,4'-Sulfonyldiphenol"
PrecursorMZ: 273.02
PrecursorType: [M+Na]+
IonMode: Positive
Formula: C12H10O4S
SMILES: C1=CC(=CC=C1O)S(=O)(=O)C2=CC=C(C=C2)O
InChI: 
InChIKey: VPWNQTHUCYMVMZ-UHFFFAOYSA-N
RetentionTime: 4.583813
CCS: 
CollisionEnergy: 20-40 eV
InstrumentType: UPLC-QTOF-MS
Comment: PI: Cristina Nerin; Data collector: QiZhi Su, GUIA, University of Zaragoza, Spain; Collision energy: 20-40 V; Instrument: Waters HPLC-QTOF-MS (Xevo G2 QTof); Ionization: ESI; Deconvoluted by MS-DIAL; Column: Waters AtlantisTM premier BEH C18 AX column (2.1 × 100mm x 1.7μm); Flow rate: 0.3mL/min; Mobile phase A and B are water and methnaol, respectively, both with 0.1% formic acid; Gradient elution: from A/B (95/5) to A/B (100/0) in 7min, kept for 4 min, then back to A/B (95/5) in 0.1 min, and maintained for additional 1.9 min (13min in total).; Injection volume: 10 μL
Num peaks: 32
65.03868 3226
81.03085 215
91.03822 205
91.05522 296
93.03252 18526
94.0374 821
94.05091 812
109.02876 4038
110.02254 361
110.02879 387
110.04053 387
111.0423 448
156.9948 6189
158.00063 211
158.00987 214
158.97778 200
158.9949 241
175.0403 197
196.95503 369
196.97041 365
207.06601 374
251.03185 741
251.04141 761
251.0524 745
262.02493 251
270.00998 7787
270.51395 1909
271.00507 1045
271.02353 1036
271.51245 294
271.52576 217
272.01102 209
Name: "N,N,N',N'-Tetrakis(2-hydroxypropyl)ethylenediamine"
PrecursorMZ: 293.244
PrecursorType: [M+H]+
IonMode: Positive
Formula: C14H32N2O4
SMILES: CC(CN(CCN(CC(C)O)CC(C)O)CC(C)O)O
InChI: 
InChIKey: NSOXQYCFHDMMGV-UHFFFAOYSA-N
RetentionTime: 0.5695611
CCS: 
CollisionEnergy: 20-40 eV
InstrumentType: UPLC-QTOF-MS
Comment: PI: Cristina Nerin; Data collector: QiZhi Su, GUIA, University of Zaragoza, Spain; Collision energy: 20-40 V; Instrument: Waters HPLC-QTOF-MS (Xevo G2 QTof); Ionization: ESI; Deconvoluted by MS-DIAL; Column: Waters AtlantisTM premier BEH C18 AX column (2.1 × 100mm x 1.7μm); Flow rate: 0.3mL/min; Mobile phase A and B are water and methnaol, respectively, both with 0.1% formic acid; Gradient elution: from A/B (95/5) to A/B (100/0) in 7min, kept for 4 min, then back to A/B (95/5) in 0.1 min, and maintained for additional 1.9 min (13min in total).; Injection volume: 10 μL
Num peaks: 12
84.08051 4842
98.09644 1075
98.10222 1068
100.07433 547
100.08154 547
102.09143 2667
112.11103 511
112.12001 509
142.12242 7087
160.13237 47276
160.15031 47302
161.13737 2321
Name: "N,N,N',N'-Tetrakis(2-hydroxypropyl)ethylenediamine"
PrecursorMZ: 315.2251
PrecursorType: [M+Na]+
IonMode: Positive
Formula: C14H32N2O4
SMILES: CC(CN(CCN(CC(C)O)CC(C)O)CC(C)O)O
InChI: 
InChIKey: NSOXQYCFHDMMGV-UHFFFAOYSA-N
RetentionTime: 0.562575
CCS: 
CollisionEnergy: 20-40 eV
InstrumentType: UPLC-QTOF-MS
Comment: PI: Cristina Nerin; Data collector: QiZhi Su, GUIA, University of Zaragoza, Spain; Collision energy: 20-40 V; Instrument: Waters HPLC-QTOF-MS (Xevo G2 QTof); Ionization: ESI; Deconvoluted by MS-DIAL; Column: Waters AtlantisTM premier BEH C18 AX column (2.1 × 100mm x 1.7μm); Flow rate: 0.3mL/min; Mobile phase A and B are water and methnaol, respectively, both with 0.1% formic acid; Gradient elution: from A/B (95/5) to A/B (100/0) in 7min, kept for 4 min, then back to A/B (95/5) in 0.1 min, and maintained for additional 1.9 min (13min in total).; Injection volume: 10 μL
Num peaks: 52
56.04833 24
59.04489 191
59.04922 191
67.0505 59
67.06036 59
72.04015 54
72.04551 54
72.05061 54
79.06084 36
81.06279 80
81.06839 52
81.07469 52
82.05213 113
82.06318 141
83.0472 32
83.06205 38
84.08139 484
84.96051 62
85.08505 80
85.097 80
86.08988 75
86.09779 75
96.07646 81
96.08836 79
98.09019 274
98.10046 274
98.10801 257
99.0874 42
99.09775 50
99.10316 50
100.07481 206
100.08356 207
102.09076 841
102.09579 841
112.10272 43
112.10908 48
112.11672 43
114.08747 31
114.09438 31
114.13201 46
116.10452 54
116.11114 54
124.1042 135
142.12025 2147
142.12729 2164
143.12753 54
161.13663 374
194.02986 23
281.05273 25
310.12915 22
315.21732 313
315.23306 542
Name: 3[N-Morpholino]propane sulfonic acid
PrecursorMZ: 419.152
PrecursorType: [2M+H]+
IonMode: Positive
Formula: C7H15NO4S
SMILES: C1COCCN1CCCS(=O)(=O)O
InChI: 
InChIKey: DVLFYONBTKHTER-UHFFFAOYSA-N
RetentionTime: 0.8433542
CCS: 
CollisionEnergy: 20-40 eV
InstrumentType: UPLC-QTOF-MS
Comment: PI: Cristina Nerin; Data collector: QiZhi Su, GUIA, University of Zaragoza, Spain; Collision energy: 20-40 V; Instrument: Waters HPLC-QTOF-MS (Xevo G2 QTof); Ionization: ESI; Deconvoluted by MS-DIAL; Column: Waters AtlantisTM premier BEH C18 AX column (2.1 × 100mm x 1.7μm); Flow rate: 0.3mL/min; Mobile phase A and B are water and methnaol, respectively, both with 0.1% formic acid; Gradient elution: from A/B (95/5) to A/B (100/0) in 7min, kept for 4 min, then back to A/B (95/5) in 0.1 min, and maintained for additional 1.9 min (13min in total).; Injection volume: 10 μL
Num peaks: 15
70.06542 1156
88.06347 2582
88.07635 2578
100.07294 1898
100.07922 1903
123.01119 3368
210.07951 71823
211.08511 3212
212.07474 1891
212.08727 1901
232.0639 1402
248.02055 1264
248.03166 1251
333.59222 1494
419.14523 773
Name: 3[N-Morpholino]propane sulfonic acid
PrecursorMZ: 210.0795
PrecursorType: [M+H]+
IonMode: Positive
Formula: C7H15NO4S
SMILES: C1COCCN1CCCS(=O)(=O)O
InChI: 
InChIKey: DVLFYONBTKHTER-UHFFFAOYSA-N
RetentionTime: 0.8427767
CCS: 
CollisionEnergy: 20-40 eV
InstrumentType: UPLC-QTOF-MS
Comment: PI: Cristina Nerin; Data collector: QiZhi Su, GUIA, University of Zaragoza, Spain; Collision energy: 20-40 V; Instrument: Waters HPLC-QTOF-MS (Xevo G2 QTof); Ionization: ESI; Deconvoluted by MS-DIAL; Column: Waters AtlantisTM premier BEH C18 AX column (2.1 × 100mm x 1.7μm); Flow rate: 0.3mL/min; Mobile phase A and B are water and methnaol, respectively, both with 0.1% formic acid; Gradient elution: from A/B (95/5) to A/B (100/0) in 7min, kept for 4 min, then back to A/B (95/5) in 0.1 min, and maintained for additional 1.9 min (13min in total).; Injection volume: 10 μL
Num peaks: 7
70.06542 1156
88.06347 2582
88.07635 2578
100.07294 1898
100.07922 1903
123.01119 3368
210.07951 74076
Name: Trans-Sinapic acid
PrecursorMZ: 493.3156
PrecursorType: [M+H]+
IonMode: Positive
Formula: C28H44O7
SMILES: CCCCC(CC)COC(=O)C(=CC1=CC(=C(C(=C1)OC)O)OC)C(=O)OCC(CC)CCCC
InChI: 
InChIKey: NSBAXYINVVKQQI-UHFFFAOYSA-N
RetentionTime: 7.60455
CCS: 
CollisionEnergy: 20-40 eV
InstrumentType: UPLC-QTOF-MS
Comment: PI: Cristina Nerin; Data collector: QiZhi Su, GUIA, University of Zaragoza, Spain; Collision energy: 20-40 V; Instrument: Waters HPLC-QTOF-MS (Xevo G2 QTof); Ionization: ESI; Deconvoluted by MS-DIAL; Column: Waters AtlantisTM premier BEH C18 AX column (2.1 × 100mm x 1.7μm); Flow rate: 0.3mL/min; Mobile phase A and B are water and methnaol, respectively, both with 0.1% formic acid; Gradient elution: from A/B (95/5) to A/B (100/0) in 7min, kept for 4 min, then back to A/B (95/5) in 0.1 min, and maintained for additional 1.9 min (13min in total).; Injection volume: 10 μL
Num peaks: 102
57.06964 4248
57.08635 4258
87.02422 5886
87.02941 5753
87.04369 5708
89.05893 45253
90.06239 1040
90.07051 1044
93.0677 932
93.07386 944
100.98973 827
100.99557 828
121.04825 15233
121.06454 15250
122.06387 786
122.07314 840
122.08725 546
131.07037 2330
133.08524 43545
134.07259 1491
134.08833 1599
134.09712 1540
135.0694 723
135.07771 644
135.08528 820
135.09903 843
144.99677 571
145.01666 1765
147.08064 4291
149.09859 1239
163.11403 826
165.09109 11251
166.07816 566
166.08603 820
166.0968 805
167.09377 695
167.10776 818
167.1167 809
175.09552 1724
175.10471 1877
177.11212 11352
178.11189 686
178.12453 699
189.04416 1967
191.10727 1106
193.1097 612
193.12189 682
193.13245 661
209.1171 3342
209.1255 3329
211.12563 865
211.13994 822
221.13914 1574
233.06227 2303
233.07468 2380
233.08644 1899
233.19032 15969
234.19484 1906
235.13307 686
235.14301 714
255.14214 1176
255.15479 1302
255.17204 611
259.20755 1236
265.15747 769
265.16852 835
275.23935 631
275.25336 541
277.09879 772
277.11108 585
277.1481 788
277.15958 910
277.21683 27615
277.66052 460
278.22159 3490
299.16946 752
299.67209 561
303.22482 649
303.2402 605
315.18033 649
315.1972 498
321.24448 3059
322.24966 606
365.20874 665
365.71408 746
387.22104 5467
387.72498 2573
387.74588 494
403.22891 1427
403.24646 1294
409.23364 5412
409.73782 1999
410.2366 515
431.23071 2144
431.25208 2485
431.75266 1122
447.26413 577
449.2916 3329
450.30182 674
453.2583 1234
453.76425 480
493.31451 18622
Name: "Bisphenol F Bis(2,3-dihydroxypropyl) Ether"
PrecursorMZ: 349.1649
PrecursorType: [M+H]+
IonMode: Positive
Formula: C19H24O6
SMILES: C1=CC(=CC=C1CC2=CC=C(C=C2)OCC(CO)O)OCC(CO)O
InChI: 
InChIKey: VGJRHUPDMVWBFM-UHFFFAOYSA-N
RetentionTime: 5.379122
CCS: 
CollisionEnergy: 20-40 eV
InstrumentType: UPLC-QTOF-MS
Comment: PI: Cristina Nerin; Data collector: QiZhi Su, GUIA, University of Zaragoza, Spain; Collision energy: 20-40 V; Instrument: Waters HPLC-QTOF-MS (Xevo G2 QTof); Ionization: ESI; Deconvoluted by MS-DIAL; Column: Waters AtlantisTM premier BEH C18 AX column (2.1 × 100mm x 1.7μm); Flow rate: 0.3mL/min; Mobile phase A and B are water and methnaol, respectively, both with 0.1% formic acid; Gradient elution: from A/B (95/5) to A/B (100/0) in 7min, kept for 4 min, then back to A/B (95/5) in 0.1 min, and maintained for additional 1.9 min (13min in total).; Injection volume: 10 μL
Num peaks: 36
77.03818 857
79.0546 679
91.05476 1228
98.97422 380
98.98125 380
105.04992 3884
105.06948 6036
106.0705 338
106.07828 335
107.0307 3377
107.04913 3161
121.06236 1297
121.06838 1298
121.07303 1298
133.06439 18051
134.06877 936
135.07561 238
135.08553 235
145.06662 907
148.03381 267
157.02757 331
157.04228 330
157.05504 357
163.0777 497
170.0423 370
170.05112 360
181.07201 471
181.08038 531
181.0918 542
181.09875 511
185.0553 1365
185.55826 236
194.05971 7320
194.5618 1200
207.03264 301
207.04698 258
Name: "Bisphenol F Bis(2,3-dihydroxypropyl) Ether"
PrecursorMZ: 371.1464
PrecursorType: [M+Na]+
IonMode: Positive
Formula: C19H24O6
SMILES: C1=CC(=CC=C1CC2=CC=C(C=C2)OCC(CO)O)OCC(CO)O
InChI: 
InChIKey: VGJRHUPDMVWBFM-UHFFFAOYSA-N
RetentionTime: 5.379097
CCS: 
CollisionEnergy: 20-40 eV
InstrumentType: UPLC-QTOF-MS
Comment: PI: Cristina Nerin; Data collector: QiZhi Su, GUIA, University of Zaragoza, Spain; Collision energy: 20-40 V; Instrument: Waters HPLC-QTOF-MS (Xevo G2 QTof); Ionization: ESI; Deconvoluted by MS-DIAL; Column: Waters AtlantisTM premier BEH C18 AX column (2.1 × 100mm x 1.7μm); Flow rate: 0.3mL/min; Mobile phase A and B are water and methnaol, respectively, both with 0.1% formic acid; Gradient elution: from A/B (95/5) to A/B (100/0) in 7min, kept for 4 min, then back to A/B (95/5) in 0.1 min, and maintained for additional 1.9 min (13min in total).; Injection volume: 10 μL
Num peaks: 453
55.02184 37
55.05602 24
56.9605 43
57.02983 23
57.84281 20
58.99966 23
62.00531 24
64.12415 26
64.97292 31
65.03486 26
65.25651 25
66.97594 25
68.98601 24
69.03314 63
70.00682 45
70.98247 61
71.08752 41
72.05325 25
72.08863 41
72.98208 20
73.02196 25
73.0423 21
74.05208 69
75.61472 28
77.04144 357
78.98098 40
79.01439 51
79.04536 35
79.05519 404
80.21136 25
80.58276 20
80.94965 25
81.06616 92
81.07274 49
81.07718 34
82.68439 25
82.98214 55
83.00111 27
83.04833 43
83.08111 33
83.08717 52
83.13229 24
84.95554 113
84.96149 117
84.97333 20
87.04458 30
87.98377 34
88.02303 23
88.95742 31
89.07148 20
89.80618 48
90.05379 47
91.04792 79
91.05465 347
92.05399 22
92.64303 23
92.99223 24
93.05553 24
93.06858 88
94.07607 20
95.04945 30
95.08374 37
95.08964 90
96.99525 20
97.09823 21
98.64648 21
98.96405 53
98.97058 50
98.97746 130
98.98481 69
99.04195 29
99.08887 20
100.07147 29
100.92747 27
101.05663 24
103.05393 74
103.76744 21
104.0684 20
104.10865 45
105.07038 1086
105.73824 23
106.07161 45
106.07779 24
106.08871 61
107.04795 590
107.05685 177
107.08852 46
108.04789 23
108.05698 37
108.97272 23
109.03107 45
109.07105 58
111.01889 38
111.04051 22
113.09396 27
113.96861 20
114.02093 37
114.03896 20
114.08574 36
115.01474 24
115.06211 65
115.96922 25
116.03635 21
116.04993 26
116.06027 41
116.90347 21
116.93349 33
117.0659 28
117.07485 48
118.04134 26
119.14185 30
119.55571 92
120.02048 25
120.08561 52
120.98988 28
121.0521 28
121.06204 111
121.07226 50
121.0987 21
123.04578 40
123.05245 95
123.08441 24
123.6451 25
124.03075 24
125.0556 60
125.0966 28
125.10205 23
126.02061 25
126.04607 27
126.52481 26
127.11013 26
128.04639 20
129.02769 20
129.07903 22
130.0434 27
131.04877 47
131.59204 22
132.02455 48
132.52544 22
132.93211 21
133.00006 163
133.02115 26
133.06517 1490
134.01088 24
134.06004 68
134.0675 77
134.0784 24
134.09174 24
134.98892 25
135.03461 66
135.0778 42
135.11861 25
135.23805 26
135.98781 25
136.0755 28
136.09215 79
137.02249 130
137.0298 62
137.04176 42
138.52524 34
139.01874 21
139.03267 22
141.07906 27
142.05516 26
143.0365 21
143.0842 47
144.99759 24
145.00554 21
145.06918 198
146.06323 31
147.01826 29
147.04996 24
147.25186 40
148.03214 21
148.99023 20
149.05557 23
149.09909 42
151.00284 20
151.00835 41
151.04239 60
151.0556 23
152.05519 20
153.01283 22
153.05237 25
153.06587 50
154.02985 44
154.04211 49
155.04073 38
155.07886 37
156.47737 24
156.53719 21
157.03728 52
157.04749 45
157.53281 29
158.05177 25
158.08807 20
158.98628 20
159.01501 28
159.0408 24
159.09285 25
159.11861 26
160.03033 22
160.10329 20
160.41202 56
160.96295 23
160.98944 21
161.04176 70
161.10257 88
162.05098 27
162.91576 22
163.00748 28
163.04393 39
163.0676 22
163.07745 75
164.05139 20
164.07352 25
164.10574 47
164.70813 23
165.03244 30
165.03841 26
165.06091 21
165.13145 55
166.09698 26
167.00893 43
167.04124 41
167.04834 44
167.11693 24
167.30663 21
167.42314 20
168.01947 30
168.99614 21
169.00905 28
170.04228 23
170.04907 32
170.50513 22
170.54884 21
171.01991 22
171.04185 26
173.09428 32
174.08076 23
175.08598 20
175.10484 20
176.03178 27
176.05913 20
176.97728 21
177.06192 20
177.09103 25
177.10031 20
177.11705 30
178.03767 22
178.08414 68
178.16101 21
179.43279 23
181.01651 20
181.05609 21
181.0885 22
181.49727 21
182.07799 22
182.53429 61
183.04796 22
183.09514 31
185.05089 232
185.5504 66
187.04874 20
188.01419 25
189.02422 91
189.03192 27
189.0556 39
189.09372 25
189.12511 20
189.76631 55
189.85786 26
190.03139 22
192.08887 31
193.0695 43
193.13271 35
194.02827 22
194.06006 936
194.55809 52
194.57265 174
194.61034 29
195.06415 21
195.99651 25
196.02994 25
198.0011 26
198.12262 23
198.13788 22
198.5623 25
198.59451 39
199.06432 28
199.15802 24
201.01291 27
202.95979 23
203.04802 31
203.05594 24
204.94847 25
204.99394 24
205.04497 24
205.06419 26
205.0773 30
205.16914 23
206.04224 51
206.9465 26
207.03323 107
207.04733 52
207.13892 47
208.11125 23
209.07498 20
209.17699 29
211.08929 23
213.03117 27
214.15796 23
215.97823 20
218.15671 28
218.52335 29
219.10384 26
219.97984 26
221.08368 21
222.03255 28
222.19562 20
222.99886 24
223.05589 22
224.13788 21
226.02568 41
226.04002 20
227.10818 23
229.03458 22
235.00031 24
235.01109 35
236.03041 23
236.05338 23
236.07372 24
236.08328 22
237.02989 48
238.03545 30
239.02908 177
239.04285 262
239.05943 21
239.08067 25
240.04396 42
240.21538 24
241.99652 21
242.10422 24
247.07228 23
247.93806 25
248.43063 49
249.00809 26
249.03056 36
249.99406 25
250.09459 20
250.18134 20
250.97868 21
251.0546 27
251.1259 21
253.16792 20
254.02287 29
254.08885 20
255.0071 24
256.13544 36
256.30408 34
260.84213 22
262.04962 22
263.07736 21
264.20248 42
267.99988 21
268.10431 31
268.12375 25
269.00366 42
269.06387 20
269.10645 21
269.52307 27
271.01102 21
272.3009 20
275.01218 62
275.12448 20
275.13843 24
277.04651 22
280.09692 28
281.04752 90
281.05927 41
282.13632 22
283.04324 20
286.97104 29
288.28091 20
289.26669 21
289.48203 24
295.01779 76
295.06201 141
295.23801 33
297.10165 29
298.10025 20
300.53134 33
301.97559 30
302.04852 22
304.29102 22
304.31674 69
307.095 20
308.99567 28
309.59973 32
312.086 67
313.0672 122
313.10007 61
314.07303 48
315.08627 21
315.18292 24
316.98096 25
317.20145 50
320.06039 34
320.09409 41
321.95874 37
326.07724 43
326.24414 22
327.13739 21
328.0639 29
329.02454 26
329.07065 20
330.01855 20
331.21207 66
334.09348 24
335.17715 33
335.59772 24
337.10458 33
338.04056 22
338.12354 20
338.86536 28
340.26187 20
340.5437 24
343.18088 20
343.75763 27
346.06677 26
347.14597 24
349.25647 42
350.16525 23
351.12851 25
355.03806 25
355.05334 22
355.08832 24
356.04819 21
357.07993 37
357.17776 25
362.23755 29
365.20459 20
366.98584 34
368.14313 61
368.16891 28
369.00635 25
369.1019 53
369.38159 50
371.09671 22
371.13754 483
371.15726 334
371.1824 27
371.55743 20
Name: 12-Aminododecanoic acid
PrecursorMZ: 216.1966
PrecursorType: [M+H]+
IonMode: Positive
Formula: C12H25NO2
SMILES: C(CCCCCC(=O)O)CCCCCN
InChI: 
InChIKey: PBLZLIFKVPJDCO-UHFFFAOYSA-N
RetentionTime: 3.551633
CCS: 
CollisionEnergy: 20-40 eV
InstrumentType: UPLC-QTOF-MS
Comment: PI: Cristina Nerin; Data collector: QiZhi Su, GUIA, University of Zaragoza, Spain; Collision energy: 20-40 V; Instrument: Waters HPLC-QTOF-MS (Xevo G2 QTof); Ionization: ESI; Deconvoluted by MS-DIAL; Column: Waters AtlantisTM premier BEH C18 AX column (2.1 × 100mm x 1.7μm); Flow rate: 0.3mL/min; Mobile phase A and B are water and methnaol, respectively, both with 0.1% formic acid; Gradient elution: from A/B (95/5) to A/B (100/0) in 7min, kept for 4 min, then back to A/B (95/5) in 0.1 min, and maintained for additional 1.9 min (13min in total).; Injection volume: 10 μL
Num peaks: 75
51.77115 42
55.01564 61
55.05057 100
55.05886 183
57.06927 42
65.03426 33
67.05299 326
69.06816 1218
69.07282 536
69.35268 35
70.06961 49
70.07439 58
71.07132 45
71.08456 121
73.03249 56
73.06131 40
73.37125 38
78.98705 47
79.04491 45
79.05335 296
80.05618 56
81.06554 165
81.071 526
82.07479 189
83.05072 292
83.08323 804
83.08831 514
84.08711 38
84.09229 100
84.95998 188
85.09702 69
86.10087 40
91.05199 47
91.06049 80
93.06693 132
93.07459 218
94.07299 38
95.08204 164
95.08775 530
97.06599 292
97.07295 94
97.10168 778
101.06644 43
107.09055 112
108.08845 45
109.10177 184
111.08402 95
121.09708 153
121.1054 186
121.11539 39
122.97907 34
125.10059 58
125.10891 44
128.9874 38
135.1138 58
135.12067 64
138.08618 33
142.03548 34
145.97771 34
147.08827 56
149.07074 106
160.04546 48
160.06123 35
164.16055 34
175.91772 34
176.02274 70
179.90193 34
181.07748 59
194.03926 49
198.18637 3205
199.17883 48
199.19304 194
199.20537 72
209.3936 35
216.19666 374
Name: "2,2',4,4'-Tetrahydroxybenzophenone"
PrecursorMZ: 247.0608
PrecursorType: [M+H]+
IonMode: Positive
Formula: C13H10O5
SMILES: C1=CC(=C(C=C1O)O)C(=O)C2=C(C=C(C=C2)O)O
InChI: 
InChIKey: WXNRYSGJLQFHBR-UHFFFAOYSA-N
RetentionTime: 5.3125
CCS: 
CollisionEnergy: 20-40 eV
InstrumentType: UPLC-QTOF-MS
Comment: PI: Cristina Nerin; Data collector: QiZhi Su, GUIA, University of Zaragoza, Spain; Collision energy: 20-40 V; Instrument: Waters HPLC-QTOF-MS (Xevo G2 QTof); Ionization: ESI; Deconvoluted by MS-DIAL; Column: Waters AtlantisTM premier BEH C18 AX column (2.1 × 100mm x 1.7μm); Flow rate: 0.3mL/min; Mobile phase A and B are water and methnaol, respectively, both with 0.1% formic acid; Gradient elution: from A/B (95/5) to A/B (100/0) in 7min, kept for 4 min, then back to A/B (95/5) in 0.1 min, and maintained for additional 1.9 min (13min in total).; Injection volume: 10 μL
Num peaks: 12
81.03352 1019
109.02484 182
109.03201 184
130.97156 111
130.97963 117
137.02274 10606
138.0228 393
138.02913 393
138.03575 385
148.97878 362
148.98738 363
148.99792 353
Name: "3,5-ditert-butylhydroxybenzaldehyde"
PrecursorMZ: 235.17
PrecursorType: [M+H]+
IonMode: Positive
Formula: C15H22O2
SMILES: CC(C)(C)C1=CC(=CC(=C1O)C(C)(C)C)C=O
InChI: 
InChIKey: DOZRDZLFLOODMB-UHFFFAOYSA-N
RetentionTime: 7.167691
CCS: 
CollisionEnergy: 20-40 eV
InstrumentType: UPLC-QTOF-MS
Comment: PI: Cristina Nerin; Data collector: QiZhi Su, GUIA, University of Zaragoza, Spain; Collision energy: 20-40 V; Instrument: Waters HPLC-QTOF-MS (Xevo G2 QTof); Ionization: ESI; Deconvoluted by MS-DIAL; Column: Waters AtlantisTM premier BEH C18 AX column (2.1 × 100mm x 1.7μm); Flow rate: 0.3mL/min; Mobile phase A and B are water and methnaol, respectively, both with 0.1% formic acid; Gradient elution: from A/B (95/5) to A/B (100/0) in 7min, kept for 4 min, then back to A/B (95/5) in 0.1 min, and maintained for additional 1.9 min (13min in total).; Injection volume: 10 μL
Num peaks: 23
57.06911 8022
58.07483 368
58.08024 368
84.96038 394
95.04955 590
107.04684 510
107.05523 497
123.04462 2418
135.07559 272
163.06821 604
163.08023 603
179.10625 25142
180.11218 1741
217.04659 279
217.05765 305
217.07091 276
219.12372 703
219.13708 867
219.1481 837
233.1369 450
233.15273 707
233.16095 714
235.16951 26585
Name: Glycerol dihexanoate
PrecursorMZ: 586.5438
PrecursorType: [M+NH4]+
IonMode: Positive
Formula: C35H68O5
SMILES: CCCCCCCCCCCCCCCC(=O)OCC(COC(=O)CCCCCCCCCCCCCCC)O
InChI: 
InChIKey: GFAZGHREJPXDMH-UHFFFAOYSA-N
RetentionTime: 11.81933
CCS: 
CollisionEnergy: 20-40 eV
InstrumentType: UPLC-QTOF-MS
Comment: PI: Cristina Nerin; Data collector: QiZhi Su, GUIA, University of Zaragoza, Spain; Collision energy: 20-40 V; Instrument: Waters HPLC-QTOF-MS (Xevo G2 QTof); Ionization: ESI; Deconvoluted by MS-DIAL; Column: Waters AtlantisTM premier BEH C18 AX column (2.1 × 100mm x 1.7μm); Flow rate: 0.3mL/min; Mobile phase A and B are water and methnaol, respectively, both with 0.1% formic acid; Gradient elution: from A/B (95/5) to A/B (100/0) in 7min, kept for 4 min, then back to A/B (95/5) in 0.1 min, and maintained for additional 1.9 min (13min in total).; Injection volume: 10 μL
Num peaks: 48
57.05166 392
57.0666 405
57.07071 402
67.05095 226
67.05611 225
69.06856 206
71.0858 849
81.06923 637
83.07777 524
83.08684 527
85.09882 786
85.1043 786
95.08525 1051
97.10159 317
97.11311 314
109.10014 572
123.11813 269
222.07574 292
222.09338 292
239.22928 536
239.24426 525
257.24481 227
257.25424 211
257.26471 197
282.04187 305
282.05606 288
295.19525 6057
296.09424 158
296.19928 616
311.15479 192
311.17709 259
313.27429 15753
314.28091 1754
315.26941 162
315.28339 233
351.22061 186
351.2373 158
371.09082 530
371.10861 463
385.19821 270
385.21713 269
445.1218 205
469.36731 188
551.50513 6419
552.50757 1747
552.52417 1359
553.51794 215
586.55029 324
Name: Oxybenzone
PrecursorMZ: 495.112
PrecursorType: [2M+K]+
IonMode: Positive
Formula: C14H12O3
SMILES: COC1=CC(=C(C=C1)C(=O)C2=CC=CC=C2)O
InChI: 
InChIKey: DXGLGDHPHMLXJC-UHFFFAOYSA-N
RetentionTime: 6.922441
CCS: 
CollisionEnergy: 20-40 eV
InstrumentType: UPLC-QTOF-MS
Comment: PI: Cristina Nerin; Data collector: QiZhi Su, GUIA, University of Zaragoza, Spain; Collision energy: 20-40 V; Instrument: Waters HPLC-QTOF-MS (Xevo G2 QTof); Ionization: ESI; Deconvoluted by MS-DIAL; Column: Waters AtlantisTM premier BEH C18 AX column (2.1 × 100mm x 1.7μm); Flow rate: 0.3mL/min; Mobile phase A and B are water and methnaol, respectively, both with 0.1% formic acid; Gradient elution: from A/B (95/5) to A/B (100/0) in 7min, kept for 4 min, then back to A/B (95/5) in 0.1 min, and maintained for additional 1.9 min (13min in total).; Injection volume: 10 μL
Num peaks: 21
65.03828 989
65.04182 989
77.03832 10975
95.04874 13251
105.03274 33511
105.05175 33511
106.03607 1334
106.04698 1329
108.02097 2377
108.02956 2373
123.04445 1467
151.03833 97932
152.04195 5248
152.05896 5296
224.01273 1788
224.02109 1787
229.08748 3485
267.03403 25782
268.03015 2155
268.04062 2184
495.11084 1226
Name: Oxybenzone
PrecursorMZ: 229.0862
PrecursorType: [M+H]+
IonMode: Positive
Formula: C14H12O3
SMILES: COC1=CC(=C(C=C1)C(=O)C2=CC=CC=C2)O
InChI: 
InChIKey: DXGLGDHPHMLXJC-UHFFFAOYSA-N
RetentionTime: 6.923008
CCS: 
CollisionEnergy: 20-40 eV
InstrumentType: UPLC-QTOF-MS
Comment: PI: Cristina Nerin; Data collector: QiZhi Su, GUIA, University of Zaragoza, Spain; Collision energy: 20-40 V; Instrument: Waters HPLC-QTOF-MS (Xevo G2 QTof); Ionization: ESI; Deconvoluted by MS-DIAL; Column: Waters AtlantisTM premier BEH C18 AX column (2.1 × 100mm x 1.7μm); Flow rate: 0.3mL/min; Mobile phase A and B are water and methnaol, respectively, both with 0.1% formic acid; Gradient elution: from A/B (95/5) to A/B (100/0) in 7min, kept for 4 min, then back to A/B (95/5) in 0.1 min, and maintained for additional 1.9 min (13min in total).; Injection volume: 10 μL
Num peaks: 18
65.03731 266
65.04136 266
77.03444 2352
77.03934 2350
95.04945 2700
95.06567 2760
105.03392 7200
106.0301 370
106.03726 371
106.04489 373
108.01663 523
108.02342 522
123.04358 361
151.03838 25149
152.0435 1224
224.01212 800
224.02493 784
229.08499 770
Name: 4-hydroxybenzophenone
PrecursorMZ: 199.0755
PrecursorType: [M+H]+
IonMode: Positive
Formula: C13H10O2
SMILES: C1=CC=C(C=C1)C(=O)C2=CC=C(C=C2)O
InChI: 
InChIKey: NPFYZDNDJHZQKY-UHFFFAOYSA-N
RetentionTime: 5.7869
CCS: 
CollisionEnergy: 20-40 eV
InstrumentType: UPLC-QTOF-MS
Comment: PI: Cristina Nerin; Data collector: QiZhi Su, GUIA, University of Zaragoza, Spain; Collision energy: 20-40 V; Instrument: Waters HPLC-QTOF-MS (Xevo G2 QTof); Ionization: ESI; Deconvoluted by MS-DIAL; Column: Waters AtlantisTM premier BEH C18 AX column (2.1 × 100mm x 1.7μm); Flow rate: 0.3mL/min; Mobile phase A and B are water and methnaol, respectively, both with 0.1% formic acid; Gradient elution: from A/B (95/5) to A/B (100/0) in 7min, kept for 4 min, then back to A/B (95/5) in 0.1 min, and maintained for additional 1.9 min (13min in total).; Injection volume: 10 μL
Num peaks: 18
65.02079 1978
65.03782 2055
77.03814 9881
78.04286 427
93.03358 7506
105.03316 25446
106.03767 1096
106.0492 1095
119.0144 2989
119.021 2986
119.51562 405
121.02793 39777
122.02791 1670
122.03554 1668
128.01418 1871
128.0233 1885
137.02362 688
199.07423 1127
Name: Tris(2-chloroethyl) phosphate
PrecursorMZ: 306.943
PrecursorType: [M+Na]+
IonMode: Positive
Formula: C6H12Cl3O4P
SMILES: C(CCl)OP(=O)(OCCCl)OCCCl
InChI: 
InChIKey: HQUQLFOMPYWACS-UHFFFAOYSA-N
RetentionTime: 5.301017
CCS: 
CollisionEnergy: 20-40 eV
InstrumentType: UPLC-QTOF-MS
Comment: PI: Cristina Nerin; Data collector: QiZhi Su, GUIA, University of Zaragoza, Spain; Collision energy: 20-40 V; Instrument: Waters HPLC-QTOF-MS (Xevo G2 QTof); Ionization: ESI; Deconvoluted by MS-DIAL; Column: Waters AtlantisTM premier BEH C18 AX column (2.1 × 100mm x 1.7μm); Flow rate: 0.3mL/min; Mobile phase A and B are water and methnaol, respectively, both with 0.1% formic acid; Gradient elution: from A/B (95/5) to A/B (100/0) in 7min, kept for 4 min, then back to A/B (95/5) in 0.1 min, and maintained for additional 1.9 min (13min in total).; Injection volume: 10 μL
Num peaks: 19
62.99915 7617
64.99664 2269
80.9741 450
98.98362 32747
124.99933 6370
160.97714 3699
162.96788 839
162.97766 818
162.98456 828
172.86502 655
172.87125 660
174.86205 580
180.9005 352
216.88847 589
216.89871 640
222.97215 384
224.96219 407
224.97273 389
306.94556 400
Name: "Benzenamine, 4chloro-2-methyl-"
PrecursorMZ: 142.0415
PrecursorType: [M+H]+
IonMode: Positive
Formula: C7H8ClN
SMILES: CC1=C(C=CC(=C1)Cl)N
InChI: 
InChIKey: CXNVOWPRHWWCQR-UHFFFAOYSA-N
RetentionTime: 4.411827
CCS: 
CollisionEnergy: 20-40 eV
InstrumentType: UPLC-QTOF-MS
Comment: PI: Cristina Nerin; Data collector: QiZhi Su, GUIA, University of Zaragoza, Spain; Collision energy: 20-40 V; Instrument: Waters HPLC-QTOF-MS (Xevo G2 QTof); Ionization: ESI; Deconvoluted by MS-DIAL; Column: Waters AtlantisTM premier BEH C18 AX column (2.1 × 100mm x 1.7μm); Flow rate: 0.3mL/min; Mobile phase A and B are water and methnaol, respectively, both with 0.1% formic acid; Gradient elution: from A/B (95/5) to A/B (100/0) in 7min, kept for 4 min, then back to A/B (95/5) in 0.1 min, and maintained for additional 1.9 min (13min in total).; Injection volume: 10 μL
Num peaks: 68
55.04741 24
59.07543 27
61.07626 36
63.02498 28
65.0373 33
69.06973 52
69.07624 28
72.98926 52
74.9873 60
74.9998 36
75.02534 33
78.04149 28
79.01897 25
79.05447 59
81.03772 85
81.04874 30
81.95119 32
84.95483 60
84.96546 49
85.03088 27
89.03341 249
89.04108 253
90.04915 45
91.05362 24
91.06087 45
93.72498 29
96.9837 25
97.96671 28
98.05084 50
98.97535 35
98.98935 54
99.00202 177
100.08369 33
100.92557 26
100.99851 104
101.07277 25
101.65701 65
105.03194 50
106.05879 146
106.06577 454
107.0737 2359
108.07227 115
108.08306 90
109.06793 33
109.10299 90
109.11066 27
112.9834 24
113.10649 37
113.9707 25
114.08881 25
121.11061 28
123.04391 24
124.99196 33
125.017 785
125.06435 25
127.01278 74
127.01939 327
127.0303 47
127.05407 25
129.01292 25
129.01689 70
129.02701 30
132.05714 40
133.08456 28
137.05719 24
141.08778 33
142.0433 190
142.05313 92
Name: Tris(2-chloroethyl) phosphate
PrecursorMZ: 284.9619
PrecursorType: [M+H]+
IonMode: Positive
Formula: C6H12Cl3O4P
SMILES: C(CCl)OP(=O)(OCCCl)OCCCl
InChI: 
InChIKey: HQUQLFOMPYWACS-UHFFFAOYSA-N
RetentionTime: 5.300633
CCS: 
CollisionEnergy: 20-40 eV
InstrumentType: UPLC-QTOF-MS
Comment: PI: Cristina Nerin; Data collector: QiZhi Su, GUIA, University of Zaragoza, Spain; Collision energy: 20-40 V; Instrument: Waters HPLC-QTOF-MS (Xevo G2 QTof); Ionization: ESI; Deconvoluted by MS-DIAL; Column: Waters AtlantisTM premier BEH C18 AX column (2.1 × 100mm x 1.7μm); Flow rate: 0.3mL/min; Mobile phase A and B are water and methnaol, respectively, both with 0.1% formic acid; Gradient elution: from A/B (95/5) to A/B (100/0) in 7min, kept for 4 min, then back to A/B (95/5) in 0.1 min, and maintained for additional 1.9 min (13min in total).; Injection volume: 10 μL
Num peaks: 23
62.99946 3668
64.99674 929
80.9717 192
80.98038 195
98.98385 16247
125.00085 2983
160.97575 1516
162.95917 377
162.97629 407
172.86139 635
172.87051 639
174.84578 396
174.86214 401
180.91766 244
216.89145 333
216.90852 311
218.88571 261
218.89459 250
222.97122 210
224.95139 186
224.96742 190
260.91458 173
260.92697 166
Name: Terfenadine
PrecursorMZ: 472.3218
PrecursorType: [M+H]+
IonMode: Positive
Formula: C32H41NO2
SMILES: CC(C)(C)C1=CC=C(C=C1)C(CCCN2CCC(CC2)C(C3=CC=CC=C3)(C4=CC=CC=C4)O)O
InChI: 
InChIKey: GUGOEEXESWIERI-UHFFFAOYSA-N
RetentionTime: 4.8074
CCS: 
CollisionEnergy: 20-40 eV
InstrumentType: UPLC-QTOF-MS
Comment: PI: Cristina Nerin; Data collector: QiZhi Su, GUIA, University of Zaragoza, Spain; Collision energy: 20-40 V; Instrument: Waters HPLC-QTOF-MS (Xevo G2 QTof); Ionization: ESI; Deconvoluted by MS-DIAL; Column: Waters AtlantisTM premier BEH C18 AX column (2.1 × 100mm x 1.7μm); Flow rate: 0.3mL/min; Mobile phase A and B are water and methnaol, respectively, both with 0.1% formic acid; Gradient elution: from A/B (95/5) to A/B (100/0) in 7min, kept for 4 min, then back to A/B (95/5) in 0.1 min, and maintained for additional 1.9 min (13min in total).; Injection volume: 10 μL
Num peaks: 13
57.06902 20543
129.06949 14898
131.08548 7864
203.14322 6520
262.15927 23241
268.20654 6890
436.29938 498373
437.30255 159661
438.30609 19648
454.31006 249383
455.31366 78940
456.31848 8552
472.3205 221901
Name: Terfenadine
PrecursorMZ: 943.6362
PrecursorType: [2M+H]+
IonMode: Positive
Formula: C32H41NO2
SMILES: CC(C)(C)C1=CC=C(C=C1)C(CCCN2CCC(CC2)C(C3=CC=CC=C3)(C4=CC=CC=C4)O)O
InChI: 
InChIKey: GUGOEEXESWIERI-UHFFFAOYSA-N
RetentionTime: 4.8074
CCS: 
CollisionEnergy: 20-40 eV
InstrumentType: UPLC-QTOF-MS
Comment: PI: Cristina Nerin; Data collector: QiZhi Su, GUIA, University of Zaragoza, Spain; Collision energy: 20-40 V; Instrument: Waters HPLC-QTOF-MS (Xevo G2 QTof); Ionization: ESI; Deconvoluted by MS-DIAL; Column: Waters AtlantisTM premier BEH C18 AX column (2.1 × 100mm x 1.7μm); Flow rate: 0.3mL/min; Mobile phase A and B are water and methnaol, respectively, both with 0.1% formic acid; Gradient elution: from A/B (95/5) to A/B (100/0) in 7min, kept for 4 min, then back to A/B (95/5) in 0.1 min, and maintained for additional 1.9 min (13min in total).; Injection volume: 10 μL
Num peaks: 15
57.06902 20543
129.06949 14898
131.08548 7864
203.14322 6520
262.15927 23241
268.20654 6890
436.29938 498373
437.30255 159661
438.30609 19648
454.31006 249383
455.31366 78940
456.31848 8552
472.3205 196592
473.32401 59843
474.32779 7202
Name: 2-stearoylglycerol
PrecursorMZ: 381.2976
PrecursorType: [M+Na]+
IonMode: Positive
Formula: C21H42O4
SMILES: CCCCCCCCCCCCCCCCCC(=O)OC(CO)CO
InChI: 
InChIKey: YQEMORVAKMFKLG-UHFFFAOYSA-N
RetentionTime: 8.4313
CCS: 
CollisionEnergy: 20-40 eV
InstrumentType: UPLC-QTOF-MS
Comment: PI: Cristina Nerin; Data collector: QiZhi Su, GUIA, University of Zaragoza, Spain; Collision energy: 20-40 V; Instrument: Waters HPLC-QTOF-MS (Xevo G2 QTof); Ionization: ESI; Deconvoluted by MS-DIAL; Column: Waters AtlantisTM premier BEH C18 AX column (2.1 × 100mm x 1.7μm); Flow rate: 0.3mL/min; Mobile phase A and B are water and methnaol, respectively, both with 0.1% formic acid; Gradient elution: from A/B (95/5) to A/B (100/0) in 7min, kept for 4 min, then back to A/B (95/5) in 0.1 min, and maintained for additional 1.9 min (13min in total).; Injection volume: 10 μL
Num peaks: 66
57.06102 434
57.06716 433
57.07027 433
71.08582 993
73.03404 505
73.04603 552
73.06378 564
81.07034 371
81.07896 379
85.10155 732
95.07217 361
95.08421 336
109.10203 278
112.02711 4036
131.00119 436
147.0647 5420
148.06419 636
148.07375 642
148.08826 405
149.04544 568
149.06361 811
149.08208 325
207.03308 1525
208.03656 418
209.04846 307
222.10753 704
223.04839 1411
223.06197 1386
223.07619 920
237.17278 299
237.1843 295
245.15831 7884
245.65889 1834
245.66978 1836
246.14943 372
246.16132 419
246.17831 324
265.01007 715
265.0224 750
279.03513 658
279.04947 981
279.06116 1211
279.54443 393
279.55402 330
280.04282 354
281.05038 24172
282.05289 5164
283.05026 2723
283.07123 1199
323.22546 3125
326.96954 1948
327.95709 288
328.96643 270
341.0173 399
341.30597 1929
342.30954 280
343.01828 511
370.28461 446
370.30209 535
370.80087 358
378.28732 25576
378.78955 11045
379.28909 2507
379.79602 431
380.28757 399
381.29712 5253
Name: 2-stearoylglycerol
PrecursorMZ: 739.6101
PrecursorType: [2M+Na]+
IonMode: Positive
Formula: C21H42O4
SMILES: CCCCCCCCCCCCCCCCCC(=O)OC(CO)CO
InChI: 
InChIKey: YQEMORVAKMFKLG-UHFFFAOYSA-N
RetentionTime: 8.4351
CCS: 
CollisionEnergy: 20-40 eV
InstrumentType: UPLC-QTOF-MS
Comment: PI: Cristina Nerin; Data collector: QiZhi Su, GUIA, University of Zaragoza, Spain; Collision energy: 20-40 V; Instrument: Waters HPLC-QTOF-MS (Xevo G2 QTof); Ionization: ESI; Deconvoluted by MS-DIAL; Column: Waters AtlantisTM premier BEH C18 AX column (2.1 × 100mm x 1.7μm); Flow rate: 0.3mL/min; Mobile phase A and B are water and methnaol, respectively, both with 0.1% formic acid; Gradient elution: from A/B (95/5) to A/B (100/0) in 7min, kept for 4 min, then back to A/B (95/5) in 0.1 min, and maintained for additional 1.9 min (13min in total).; Injection volume: 10 μL
Num peaks: 124
57.03445 150
57.07017 251
71.08244 545
71.08656 536
71.09422 550
73.029 4332
73.04627 4367
73.06522 4453
74.03793 339
74.04489 335
74.04967 317
75.02992 188
75.04282 225
75.04836 237
85.08949 660
85.10026 166
85.1097 156
112.02831 3262
112.04297 3284
131.00328 460
131.00954 447
147.06519 3182
148.06889 635
149.03737 317
149.04785 342
149.06833 184
150.06544 133
190.98698 230
205.01826 135
207.07378 155
208.03072 265
208.04182 306
223.09888 214
237.15117 156
237.16734 270
237.18121 224
238.08955 126
245.15851 5410
245.65976 1215
245.6709 1281
246.16425 227
249.01849 123
250.96475 234
250.97864 164
250.99623 134
265.02209 197
266.02109 164
266.03891 155
267.00018 1939
268.00262 221
269.0014 235
279.04611 257
281.05057 12211
282.05212 1674
283.05048 696
311.0986 143
324.98627 269
325.00159 267
325.98312 196
326.00272 197
326.96429 1168
326.97842 1453
341.01715 1451
341.29599 1198
341.30707 1002
342.01907 240
342.29178 165
343.01581 1088
343.02853 886
356.07254 561
357.0687 138
370.29507 223
370.31232 225
370.793 235
370.81052 221
371.31894 148
378.28705 12083
378.78986 5291
379.28873 925
379.78925 425
380.28604 147
380.30176 290
380.78006 150
381.29773 2154
382.30099 212
383.29501 184
383.31717 128
390.06595 139
391.05054 166
391.06216 138
399.08005 673
399.58145 275
400.07715 718
400.10062 351
400.55597 307
400.56729 198
400.58649 204
401.08798 210
401.56693 129
415.03006 1133
415.04575 1601
415.2717 436
415.29214 406
416.02231 239
416.03903 310
416.05966 195
417.06076 151
446.12247 134
503.10703 606
526.40918 263
526.43341 201
526.92316 159
535.40088 150
535.43469 364
535.9101 208
535.93219 220
536.43817 141
557.44629 1462
557.92102 471
557.94507 853
558.42865 331
558.4577 135
651.10907 154
737.08527 149
Name: 2-stearoylglycerol
PrecursorMZ: 381.2963
PrecursorType: [M+Na]+
IonMode: Positive
Formula: C21H42O4
SMILES: CCCCCCCCCCCCCCCCCC(=O)OC(CO)CO
InChI: 
InChIKey: YQEMORVAKMFKLG-UHFFFAOYSA-N
RetentionTime: 8.499817
CCS: 
CollisionEnergy: 20-40 eV
InstrumentType: UPLC-QTOF-MS
Comment: PI: Cristina Nerin; Data collector: QiZhi Su, GUIA, University of Zaragoza, Spain; Collision energy: 20-40 V; Instrument: Waters HPLC-QTOF-MS (Xevo G2 QTof); Ionization: ESI; Deconvoluted by MS-DIAL; Column: Waters AtlantisTM premier BEH C18 AX column (2.1 × 100mm x 1.7μm); Flow rate: 0.3mL/min; Mobile phase A and B are water and methnaol, respectively, both with 0.1% formic acid; Gradient elution: from A/B (95/5) to A/B (100/0) in 7min, kept for 4 min, then back to A/B (95/5) in 0.1 min, and maintained for additional 1.9 min (13min in total).; Injection volume: 10 μL
Num peaks: 42
71.08591 565
81.06956 386
83.08163 332
83.08722 336
85.09368 641
85.10042 648
85.10488 649
95.08527 539
97.10048 294
97.10916 288
109.10172 315
109.11179 307
112.0252 939
112.03316 940
131.00136 1065
147.0871 484
199.13354 290
199.14084 285
245.15685 3677
245.65022 882
245.6629 951
246.14787 264
246.16603 299
281.0509 4292
282.06506 1490
323.22525 10011
324.23117 1034
341.29379 1091
341.30917 1168
342.30658 242
369.08505 257
370.27722 275
370.29172 431
370.30896 292
370.8049 245
378.28741 23056
378.79068 9567
379.29004 2195
379.77805 245
379.79999 480
380.29401 369
381.29666 6674
Name: 2-stearoylglycerol
PrecursorMZ: 739.6089
PrecursorType: [2M+Na]+
IonMode: Positive
Formula: C21H42O4
SMILES: CCCCCCCCCCCCCCCCCC(=O)OC(CO)CO
InChI: 
InChIKey: YQEMORVAKMFKLG-UHFFFAOYSA-N
RetentionTime: 8.503633
CCS: 
CollisionEnergy: 20-40 eV
InstrumentType: UPLC-QTOF-MS
Comment: PI: Cristina Nerin; Data collector: QiZhi Su, GUIA, University of Zaragoza, Spain; Collision energy: 20-40 V; Instrument: Waters HPLC-QTOF-MS (Xevo G2 QTof); Ionization: ESI; Deconvoluted by MS-DIAL; Column: Waters AtlantisTM premier BEH C18 AX column (2.1 × 100mm x 1.7μm); Flow rate: 0.3mL/min; Mobile phase A and B are water and methnaol, respectively, both with 0.1% formic acid; Gradient elution: from A/B (95/5) to A/B (100/0) in 7min, kept for 4 min, then back to A/B (95/5) in 0.1 min, and maintained for additional 1.9 min (13min in total).; Injection volume: 10 μL
Num peaks: 138
69.07152 254
71.08644 297
81.04515 191
81.06363 300
81.07044 302
83.08414 346
83.08911 345
85.09657 409
85.10283 412
85.11623 406
91.05453 618
95.0857 540
97.10123 251
97.10682 246
100.04163 163
100.04828 164
109.09104 272
109.10292 300
111.10501 194
111.11845 185
112.02493 821
112.03107 836
112.03608 837
114.02641 159
114.03813 176
114.048 160
123.10963 250
123.11868 244
123.12316 252
128.03676 861
128.05473 833
130.05751 149
130.99579 883
131.00235 903
133.06898 176
133.08626 152
135.11868 159
135.12724 155
159.0755 429
159.09247 447
159.10426 435
160.04008 452
160.05325 440
176.06088 455
176.07408 427
199.11752 346
199.13582 340
245.15752 1141
245.65569 331
245.66919 371
246.15497 156
246.17145 156
248.96907 185
282.0795 265
287.06537 167
289.10321 1083
289.11813 895
290.11081 153
309.02213 157
317.03757 195
317.0491 149
323.22513 8968
324.23047 876
324.24612 821
335.10651 4838
336.10443 485
336.12238 450
337.10071 168
341.26056 150
341.27487 250
341.30295 443
341.31494 332
366.17914 209
366.19128 175
369.07111 294
369.08704 315
369.57748 205
370.0647 175
370.0748 215
370.27585 182
370.29593 171
370.789 147
378.28732 14694
378.78922 5909
379.2807 1292
379.29715 1379
379.8013 326
380.27954 195
380.78622 164
380.80042 163
381.29779 4186
382.29904 731
382.32132 204
397.25748 649
397.27557 522
399.27896 162
399.2973 190
406.08325 181
406.58429 193
406.59781 154
407.08081 147
415.24646 186
415.26956 814
415.28925 598
416.27371 148
443.25388 512
443.28348 445
464.61075 150
557.44208 768
557.93805 300
558.44305 197
612.13348 1899
612.62994 2300
613.12854 2411
613.63141 1409
614.12262 887
614.14838 289
614.62622 344
637.55219 290
637.58081 159
649.13623 1025
649.64154 1242
650.11865 1005
650.14246 1737
650.63892 1118
651.12122 790
651.14056 678
651.61981 254
651.64215 233
652.12415 211
723.15735 447
723.18842 153
723.64722 367
724.1604 402
724.66089 603
725.15674 188
725.18549 161
725.66382 237
Name: "2,4-Dihydroxybenzophenone"
PrecursorMZ: 215.0703
PrecursorType: [M+H]+
IonMode: Positive
Formula: C13H10O3
SMILES: C1=CC=C(C=C1)C(=O)C2=C(C=C(C=C2)O)O
InChI: 
InChIKey: ZXDDPOHVAMWLBH-UHFFFAOYSA-N
RetentionTime: 6.2289
CCS: 
CollisionEnergy: 20-40 eV
InstrumentType: UPLC-QTOF-MS
Comment: PI: Cristina Nerin; Data collector: QiZhi Su, GUIA, University of Zaragoza, Spain; Collision energy: 20-40 V; Instrument: Waters HPLC-QTOF-MS (Xevo G2 QTof); Ionization: ESI; Deconvoluted by MS-DIAL; Column: Waters AtlantisTM premier BEH C18 AX column (2.1 × 100mm x 1.7μm); Flow rate: 0.3mL/min; Mobile phase A and B are water and methnaol, respectively, both with 0.1% formic acid; Gradient elution: from A/B (95/5) to A/B (100/0) in 7min, kept for 4 min, then back to A/B (95/5) in 0.1 min, and maintained for additional 1.9 min (13min in total).; Injection volume: 10 μL
Num peaks: 9
77.03803 2986
81.03377 5936
81.04685 5920
105.03324 7920
109.0289 1008
137.02303 55153
138.0273 2322
138.04092 2320
215.07489 1182
Name: "2,4-Dihydroxybenzophenone"
PrecursorMZ: 467.08
PrecursorType: [2M+K]+
IonMode: Positive
Formula: C13H10O3
SMILES: C1=CC=C(C=C1)C(=O)C2=C(C=C(C=C2)O)O
InChI: 
InChIKey: ZXDDPOHVAMWLBH-UHFFFAOYSA-N
RetentionTime: 6.2289
CCS: 
CollisionEnergy: 20-40 eV
InstrumentType: UPLC-QTOF-MS
Comment: PI: Cristina Nerin; Data collector: QiZhi Su, GUIA, University of Zaragoza, Spain; Collision energy: 20-40 V; Instrument: Waters HPLC-QTOF-MS (Xevo G2 QTof); Ionization: ESI; Deconvoluted by MS-DIAL; Column: Waters AtlantisTM premier BEH C18 AX column (2.1 × 100mm x 1.7μm); Flow rate: 0.3mL/min; Mobile phase A and B are water and methnaol, respectively, both with 0.1% formic acid; Gradient elution: from A/B (95/5) to A/B (100/0) in 7min, kept for 4 min, then back to A/B (95/5) in 0.1 min, and maintained for additional 1.9 min (13min in total).; Injection volume: 10 μL
Num peaks: 11
77.03803 2986
81.03377 5936
81.04685 5920
105.03324 7920
109.0289 1008
137.02303 55153
138.0273 2322
138.04092 2320
215.07489 1088
253.01808 16444
254.02339 1253
Name: "2,2'-Dihydroxy-4-Methoxybenzophenone(Cyasorb UV 24)"
PrecursorMZ: 245.0815
PrecursorType: [M+H]+
IonMode: Positive
Formula: C14H12O4
SMILES: COC1=CC(=C(C=C1)C(=O)C2=CC=CC=C2O)O
InChI: 
InChIKey: MEZZCSHVIGVWFI-UHFFFAOYSA-N
RetentionTime: 6.396417
CCS: 
CollisionEnergy: 20-40 eV
InstrumentType: UPLC-QTOF-MS
Comment: PI: Cristina Nerin; Data collector: QiZhi Su, GUIA, University of Zaragoza, Spain; Collision energy: 20-40 V; Instrument: Waters HPLC-QTOF-MS (Xevo G2 QTof); Ionization: ESI; Deconvoluted by MS-DIAL; Column: Waters AtlantisTM premier BEH C18 AX column (2.1 × 100mm x 1.7μm); Flow rate: 0.3mL/min; Mobile phase A and B are water and methnaol, respectively, both with 0.1% formic acid; Gradient elution: from A/B (95/5) to A/B (100/0) in 7min, kept for 4 min, then back to A/B (95/5) in 0.1 min, and maintained for additional 1.9 min (13min in total).; Injection volume: 10 μL
Num peaks: 44
67.05136 76
67.05807 76
67.06322 76
69.07027 82
96.06386 78
98.98162 405
98.98945 405
98.99667 416
107.0774 65
119.0717 63
121.09692 64
121.10319 63
123.03336 253
123.04734 254
130.98883 74
132.9982 119
140.06226 72
151.03972 6299
151.07506 73
159.11711 71
159.12764 65
163.00554 1732
163.0136 1732
176.9738 261
176.9847 319
176.99562 306
189.00313 159
191.00264 112
199.08846 66
199.09743 71
201.08864 226
202.10619 74
211.05675 84
215.05966 77
215.07547 68
221.0764 137
221.08836 64
221.09897 121
225.13902 283
225.14943 306
225.16521 232
227.09937 70
245.08128 1667
245.10164 131
Name: Terfenadine
PrecursorMZ: 472.3217
PrecursorType: [M+H]+
IonMode: Positive
Formula: C32H41NO2
SMILES: CC(C)(C)C1=CC=C(C=C1)C(CCCN2CCC(CC2)C(C3=CC=CC=C3)(C4=CC=CC=C4)O)O
InChI: 
InChIKey: GUGOEEXESWIERI-UHFFFAOYSA-N
RetentionTime: 4.632283
CCS: 
CollisionEnergy: 20-40 eV
InstrumentType: UPLC-QTOF-MS
Comment: PI: Cristina Nerin; Data collector: QiZhi Su, GUIA, University of Zaragoza, Spain; Collision energy: 20-40 V; Instrument: Waters HPLC-QTOF-MS (Xevo G2 QTof); Ionization: ESI; Deconvoluted by MS-DIAL; Column: Waters AtlantisTM premier BEH C18 AX column (2.1 × 100mm x 1.7μm); Flow rate: 0.3mL/min; Mobile phase A and B are water and methnaol, respectively, both with 0.1% formic acid; Gradient elution: from A/B (95/5) to A/B (100/0) in 7min, kept for 4 min, then back to A/B (95/5) in 0.1 min, and maintained for additional 1.9 min (13min in total).; Injection volume: 10 μL
Num peaks: 16
57.05207 8581
57.06951 8467
129.05147 5786
129.0699 5780
131.08574 3194
203.14374 2692
262.16006 9505
268.20673 2740
268.21692 2765
436.29962 198841
437.30319 64520
438.30771 8016
454.31024 101625
455.31354 32787
456.31784 3362
472.32104 120551
Name: Terfenadine
PrecursorMZ: 943.6358
PrecursorType: [2M+H]+
IonMode: Positive
Formula: C32H41NO2
SMILES: CC(C)(C)C1=CC=C(C=C1)C(CCCN2CCC(CC2)C(C3=CC=CC=C3)(C4=CC=CC=C4)O)O
InChI: 
InChIKey: GUGOEEXESWIERI-UHFFFAOYSA-N
RetentionTime: 4.632283
CCS: 
CollisionEnergy: 20-40 eV
InstrumentType: UPLC-QTOF-MS
Comment: PI: Cristina Nerin; Data collector: QiZhi Su, GUIA, University of Zaragoza, Spain; Collision energy: 20-40 V; Instrument: Waters HPLC-QTOF-MS (Xevo G2 QTof); Ionization: ESI; Deconvoluted by MS-DIAL; Column: Waters AtlantisTM premier BEH C18 AX column (2.1 × 100mm x 1.7μm); Flow rate: 0.3mL/min; Mobile phase A and B are water and methnaol, respectively, both with 0.1% formic acid; Gradient elution: from A/B (95/5) to A/B (100/0) in 7min, kept for 4 min, then back to A/B (95/5) in 0.1 min, and maintained for additional 1.9 min (13min in total).; Injection volume: 10 μL
Num peaks: 18
57.05207 8581
57.06951 8467
129.05147 5786
129.0699 5780
131.08574 3194
203.14374 2692
262.16006 9505
268.20673 2740
268.21692 2765
436.29962 198841
437.30319 64520
438.30771 8016
454.31024 101625
455.31354 32787
456.31784 3362
472.32104 78301
473.3251 24083
474.32803 2832
Name: acido octilfosfonico
PrecursorMZ: 195.1146
PrecursorType: [M+H]+
IonMode: Positive
Formula: C8H19O3P
SMILES: CCCCCCCCP(=O)(O)O
InChI: 
InChIKey: NJGCRMAPOWGWMW-UHFFFAOYSA-N
RetentionTime: 8.416284
CCS: 
CollisionEnergy: 20-40 eV
InstrumentType: UPLC-QTOF-MS
Comment: PI: Cristina Nerin; Data collector: QiZhi Su, GUIA, University of Zaragoza, Spain; Collision energy: 20-40 V; Instrument: Waters HPLC-QTOF-MS (Xevo G2 QTof); Ionization: ESI; Deconvoluted by MS-DIAL; Column: Waters AtlantisTM premier BEH C18 AX column (2.1 × 100mm x 1.7μm); Flow rate: 0.3mL/min; Mobile phase A and B are water and methnaol, respectively, both with 0.1% formic acid; Gradient elution: from A/B (95/5) to A/B (100/0) in 7min, kept for 4 min, then back to A/B (95/5) in 0.1 min, and maintained for additional 1.9 min (13min in total).; Injection volume: 10 μL
Num peaks: 32
60.08063 1467
67.05345 565
69.06872 627
69.07317 469
73.04663 24520
74.04887 984
75.04393 424
81.06973 853
83.08689 610
85.10181 325
88.07457 544
88.08125 326
89.06469 369
91.0559 246
93.07092 301
95.08617 1265
97.10397 603
106.08867 1413
109.09948 271
121.10021 351
135.11844 252
139.05241 255
147.06615 10248
148.06543 554
148.07204 272
149.04759 843
149.06447 548
163.06104 5808
164.06239 316
190.9969 248
191.00345 610
195.11841 1696
Name: acido octilfosfonico
PrecursorMZ: 195.1149
PrecursorType: [M+H]+
IonMode: Positive
Formula: C8H19O3P
SMILES: CCCCCCCCP(=O)(O)O
InChI: 
InChIKey: NJGCRMAPOWGWMW-UHFFFAOYSA-N
RetentionTime: 8.503834
CCS: 
CollisionEnergy: 20-40 eV
InstrumentType: UPLC-QTOF-MS
Comment: PI: Cristina Nerin; Data collector: QiZhi Su, GUIA, University of Zaragoza, Spain; Collision energy: 20-40 V; Instrument: Waters HPLC-QTOF-MS (Xevo G2 QTof); Ionization: ESI; Deconvoluted by MS-DIAL; Column: Waters AtlantisTM premier BEH C18 AX column (2.1 × 100mm x 1.7μm); Flow rate: 0.3mL/min; Mobile phase A and B are water and methnaol, respectively, both with 0.1% formic acid; Gradient elution: from A/B (95/5) to A/B (100/0) in 7min, kept for 4 min, then back to A/B (95/5) in 0.1 min, and maintained for additional 1.9 min (13min in total).; Injection volume: 10 μL
Num peaks: 100
55.05462 128
57.07021 277
60.07737 204
60.08238 555
61.48384 125
67.05373 466
67.05947 160
69.06895 651
69.07382 272
71.05108 189
71.08468 296
71.08991 205
73.04658 10745
73.06645 140
74.04354 183
74.04868 197
74.09882 193
75.04394 172
79.05215 263
79.06519 270
81.04375 208
81.07114 1351
83.088 530
84.95897 350
85.0752 157
88.07564 112
89.03737 151
89.04408 135
89.06123 544
91.05361 1547
93.06902 214
93.07637 158
95.08735 913
97.06524 177
97.09887 253
97.10464 219
98.02663 135
99.08134 141
100.03945 231
105.07166 250
107.08548 293
107.09077 144
108.09352 138
109.10278 457
111.0302 144
111.04298 122
111.04941 128
111.11667 187
113.03031 136
114.04008 636
116.0602 125
121.03807 223
121.09764 332
121.10873 215
123.11924 290
125.04016 239
125.09647 169
128.05305 1958
129.06232 159
130.04616 111
131.07574 126
131.08427 111
133.05038 352
133.08409 151
133.0892 382
133.10075 111
135.11859 174
136.06894 210
137.13205 219
139.05318 276
139.11772 157
144.03175 141
145.00136 174
147.06644 4451
148.06512 251
148.07443 260
149.04218 249
149.0663 301
149.13402 185
159.08673 282
159.09578 739
159.11252 108
160.04579 1253
160.0959 158
163.06233 2894
164.05722 116
164.06886 175
168.10391 110
169.05185 112
173.05293 234
174.06387 116
176.07315 1121
177.07068 149
177.11768 117
185.07408 138
190.05063 117
190.06355 193
191.00575 277
191.06679 109
195.11717 2195
Name: "1,2-Bis(3,5-di-tert-butyl-4-hydroxyhydrocinnamoyl)hydrazine"
PrecursorMZ: 553.4017
PrecursorType: [M+H]+
IonMode: Positive
Formula: C34H52N2O4
SMILES: CC(C)(C)C1=CC(=CC(=C1O)C(C)(C)C)CCC(=O)NNC(=O)CCC2=CC(=C(C(=C2)C(C)(C)C)O)C(C)(C)C
InChI: 
InChIKey: HCILJBJJZALOAL-UHFFFAOYSA-N
RetentionTime: 7.6892
CCS: 
CollisionEnergy: 20-40 eV
InstrumentType: UPLC-QTOF-MS
Comment: PI: Cristina Nerin; Data collector: QiZhi Su, GUIA, University of Zaragoza, Spain; Collision energy: 20-40 V; Instrument: Waters HPLC-QTOF-MS (Xevo G2 QTof); Ionization: ESI; Deconvoluted by MS-DIAL; Column: Waters AtlantisTM premier BEH C18 AX column (2.1 × 100mm x 1.7μm); Flow rate: 0.3mL/min; Mobile phase A and B are water and methnaol, respectively, both with 0.1% formic acid; Gradient elution: from A/B (95/5) to A/B (100/0) in 7min, kept for 4 min, then back to A/B (95/5) in 0.1 min, and maintained for additional 1.9 min (13min in total).; Injection volume: 10 μL
Num peaks: 30
107.05049 1529
149.05977 3583
149.07947 3596
163.11211 2587
181.097 57123
182.10126 3399
219.17549 5251
220.17 590
220.18288 582
237.15991 44447
238.16469 3940
293.21338 682
293.22702 831
293.2421 600
296.177 2184
296.68082 798
329.14978 25066
330.1514 2882
330.1716 2484
352.32132 755
352.33398 798
385.21222 19873
386.21857 3095
441.27542 38997
442.28 7914
443.28143 818
497.33975 12730
498.34671 2748
535.2912 1217
553.40039 13884
Name: "1,2-Bis(3,5-di-tert-butyl-4-hydroxyhydrocinnamoyl)hydrazine"
PrecursorMZ: 570.4269
PrecursorType: [M+NH4]+
IonMode: Positive
Formula: C34H52N2O4
SMILES: CC(C)(C)C1=CC(=CC(=C1O)C(C)(C)C)CCC(=O)NNC(=O)CCC2=CC(=C(C(=C2)C(C)(C)C)O)C(C)(C)C
InChI: 
InChIKey: HCILJBJJZALOAL-UHFFFAOYSA-N
RetentionTime: 7.694656
CCS: 
CollisionEnergy: 20-40 eV
InstrumentType: UPLC-QTOF-MS
Comment: PI: Cristina Nerin; Data collector: QiZhi Su, GUIA, University of Zaragoza, Spain; Collision energy: 20-40 V; Instrument: Waters HPLC-QTOF-MS (Xevo G2 QTof); Ionization: ESI; Deconvoluted by MS-DIAL; Column: Waters AtlantisTM premier BEH C18 AX column (2.1 × 100mm x 1.7μm); Flow rate: 0.3mL/min; Mobile phase A and B are water and methnaol, respectively, both with 0.1% formic acid; Gradient elution: from A/B (95/5) to A/B (100/0) in 7min, kept for 4 min, then back to A/B (95/5) in 0.1 min, and maintained for additional 1.9 min (13min in total).; Injection volume: 10 μL
Num peaks: 21
107.04972 2135
149.0596 5258
163.1122 4804
181.09717 82480
182.10072 5519
219.17506 8804
237.16005 64859
238.16418 6944
329.14917 39156
330.15421 4821
385.21262 43845
386.2178 6935
441.27472 133666
442.27811 32471
443.2829 2983
497.3367 59820
498.34064 15348
499.34894 1509
553.39954 57053
554.40344 16740
555.40454 1849
Name: "1,2-Bis(3,5-di-tert-butyl-4-hydroxyhydrocinnamoyl)hydrazine"
PrecursorMZ: 575.3839
PrecursorType: [M+Na]+
IonMode: Positive
Formula: C34H52N2O4
SMILES: CC(C)(C)C1=CC(=CC(=C1O)C(C)(C)C)CCC(=O)NNC(=O)CCC2=CC(=C(C(=C2)C(C)(C)C)O)C(C)(C)C
InChI: 
InChIKey: HCILJBJJZALOAL-UHFFFAOYSA-N
RetentionTime: 7.699987
CCS: 
CollisionEnergy: 20-40 eV
InstrumentType: UPLC-QTOF-MS
Comment: PI: Cristina Nerin; Data collector: QiZhi Su, GUIA, University of Zaragoza, Spain; Collision energy: 20-40 V; Instrument: Waters HPLC-QTOF-MS (Xevo G2 QTof); Ionization: ESI; Deconvoluted by MS-DIAL; Column: Waters AtlantisTM premier BEH C18 AX column (2.1 × 100mm x 1.7μm); Flow rate: 0.3mL/min; Mobile phase A and B are water and methnaol, respectively, both with 0.1% formic acid; Gradient elution: from A/B (95/5) to A/B (100/0) in 7min, kept for 4 min, then back to A/B (95/5) in 0.1 min, and maintained for additional 1.9 min (13min in total).; Injection volume: 10 μL
Num peaks: 27
107.04919 777
107.06767 725
149.04227 2416
149.05951 2754
163.11295 2040
181.09679 41246
182.10075 2208
219.17455 3395
237.15958 32233
238.16281 2556
296.17737 1472
296.67252 533
329.14859 16447
330.1543 2245
331.16357 658
331.17542 569
352.32059 7714
353.32632 1330
385.21066 9718
386.21469 1288
535.28027 838
535.30292 627
572.37183 12397
572.87335 8517
573.37659 3155
573.87933 767
575.38049 48208
Name: "1,2-Bis(3,5-di-tert-butyl-4-hydroxyhydrocinnamoyl)hydrazine"
PrecursorMZ: 591.3568
PrecursorType: [M+K]+
IonMode: Positive
Formula: C34H52N2O4
SMILES: CC(C)(C)C1=CC(=CC(=C1O)C(C)(C)C)CCC(=O)NNC(=O)CCC2=CC(=C(C(=C2)C(C)(C)C)O)C(C)(C)C
InChI: 
InChIKey: HCILJBJJZALOAL-UHFFFAOYSA-N
RetentionTime: 7.694267
CCS: 
CollisionEnergy: 20-40 eV
InstrumentType: UPLC-QTOF-MS
Comment: PI: Cristina Nerin; Data collector: QiZhi Su, GUIA, University of Zaragoza, Spain; Collision energy: 20-40 V; Instrument: Waters HPLC-QTOF-MS (Xevo G2 QTof); Ionization: ESI; Deconvoluted by MS-DIAL; Column: Waters AtlantisTM premier BEH C18 AX column (2.1 × 100mm x 1.7μm); Flow rate: 0.3mL/min; Mobile phase A and B are water and methnaol, respectively, both with 0.1% formic acid; Gradient elution: from A/B (95/5) to A/B (100/0) in 7min, kept for 4 min, then back to A/B (95/5) in 0.1 min, and maintained for additional 1.9 min (13min in total).; Injection volume: 10 μL
Num peaks: 34
107.05049 1209
149.05977 1988
149.07947 3529
163.11211 1197
181.097 42707
182.10126 2564
219.17549 4434
237.15991 41165
238.16469 3915
293.21338 703
293.22702 871
293.2421 636
329.14978 24681
330.1514 2030
330.1716 1809
352.32132 795
352.33398 824
385.21222 19873
386.21857 2874
441.27542 40461
442.28 8431
443.28143 858
497.33975 13738
498.34671 2948
553.40039 11839
554.39465 2579
554.41498 2806
570.43817 428
572.37402 7532
572.87653 4384
575.38226 32338
576.38623 9385
577.39014 983
591.35516 3487
Name: "3-(3,5-Di-tert-butyl-4-hydroxyphenyl)propionic acid"
PrecursorMZ: 595.3309
PrecursorType: [2M+K]+
IonMode: Positive
Formula: C17H26O3
SMILES: CC(C)(C)C1=CC(=CC(=C1O)C(C)(C)C)CCC(=O)O
InChI: 
InChIKey: WPMYUUITDBHVQZ-UHFFFAOYSA-N
RetentionTime: 7.339746
CCS: 
CollisionEnergy: 20-40 eV
InstrumentType: UPLC-QTOF-MS
Comment: PI: Cristina Nerin; Data collector: QiZhi Su, GUIA, University of Zaragoza, Spain; Collision energy: 20-40 V; Instrument: Waters HPLC-QTOF-MS (Xevo G2 QTof); Ionization: ESI; Deconvoluted by MS-DIAL; Column: Waters AtlantisTM premier BEH C18 AX column (2.1 × 100mm x 1.7μm); Flow rate: 0.3mL/min; Mobile phase A and B are water and methnaol, respectively, both with 0.1% formic acid; Gradient elution: from A/B (95/5) to A/B (100/0) in 7min, kept for 4 min, then back to A/B (95/5) in 0.1 min, and maintained for additional 1.9 min (13min in total).; Injection volume: 10 μL
Num peaks: 19
107.03593 707
107.04561 729
107.05077 726
149.02519 622
149.04434 348
245.12054 334
261.07712 423
261.09174 429
270.24561 496
270.26443 274
317.14249 23372
318.12784 1070
318.14932 2203
352.32538 565
522.61072 240
539.25519 871
539.28308 979
540.2691 360
595.32959 15998
Name: "1,2-Bis(3,5-di-tert-butyl-4-hydroxyhydrocinnamoyl)hydrazine"
PrecursorMZ: 1105.796
PrecursorType: [2M+H]+
IonMode: Positive
Formula: C34H52N2O4
SMILES: CC(C)(C)C1=CC(=CC(=C1O)C(C)(C)C)CCC(=O)NNC(=O)CCC2=CC(=C(C(=C2)C(C)(C)C)O)C(C)(C)C
InChI: 
InChIKey: HCILJBJJZALOAL-UHFFFAOYSA-N
RetentionTime: 7.689327
CCS: 
CollisionEnergy: 20-40 eV
InstrumentType: UPLC-QTOF-MS
Comment: PI: Cristina Nerin; Data collector: QiZhi Su, GUIA, University of Zaragoza, Spain; Collision energy: 20-40 V; Instrument: Waters HPLC-QTOF-MS (Xevo G2 QTof); Ionization: ESI; Deconvoluted by MS-DIAL; Column: Waters AtlantisTM premier BEH C18 AX column (2.1 × 100mm x 1.7μm); Flow rate: 0.3mL/min; Mobile phase A and B are water and methnaol, respectively, both with 0.1% formic acid; Gradient elution: from A/B (95/5) to A/B (100/0) in 7min, kept for 4 min, then back to A/B (95/5) in 0.1 min, and maintained for additional 1.9 min (13min in total).; Injection volume: 10 μL
Num peaks: 43
107.05049 1209
149.05977 1988
149.07947 3529
163.11211 1197
181.097 42707
182.10126 2564
219.17549 4434
237.15991 41165
238.16469 3915
293.21338 703
293.22702 871
293.2421 636
329.14978 24681
330.1514 2030
330.1716 1809
352.32132 795
352.33398 824
385.21222 19873
386.21857 2874
441.27542 40461
442.28 8431
443.28143 858
497.33975 13738
498.34671 2948
553.40039 11839
554.39465 2579
554.41498 2806
570.43817 428
572.37402 7532
572.87653 4384
575.38226 32338
576.38623 9385
577.39014 983
592.34326 1142
841.06976 444
841.10101 458
848.56842 14775
849.0705 17175
849.55353 7403
849.57941 8446
850.06921 2538
850.09998 1526
850.6012 609
Name: "1,2-Bis(3,5-di-tert-butyl-4-hydroxyhydrocinnamoyl)hydrazine"
PrecursorMZ: 1127.783
PrecursorType: [2M+Na]+
IonMode: Positive
Formula: C34H52N2O4
SMILES: CC(C)(C)C1=CC(=CC(=C1O)C(C)(C)C)CCC(=O)NNC(=O)CCC2=CC(=C(C(=C2)C(C)(C)C)O)C(C)(C)C
InChI: 
InChIKey: HCILJBJJZALOAL-UHFFFAOYSA-N
RetentionTime: 7.696183
CCS: 
CollisionEnergy: 20-40 eV
InstrumentType: UPLC-QTOF-MS
Comment: PI: Cristina Nerin; Data collector: QiZhi Su, GUIA, University of Zaragoza, Spain; Collision energy: 20-40 V; Instrument: Waters HPLC-QTOF-MS (Xevo G2 QTof); Ionization: ESI; Deconvoluted by MS-DIAL; Column: Waters AtlantisTM premier BEH C18 AX column (2.1 × 100mm x 1.7μm); Flow rate: 0.3mL/min; Mobile phase A and B are water and methnaol, respectively, both with 0.1% formic acid; Gradient elution: from A/B (95/5) to A/B (100/0) in 7min, kept for 4 min, then back to A/B (95/5) in 0.1 min, and maintained for additional 1.9 min (13min in total).; Injection volume: 10 μL
Num peaks: 44
107.05061 1934
107.06685 2184
149.06017 4104
163.11284 3863
181.09776 71350
182.10094 4667
182.1089 4677
219.17607 7268
237.16045 57266
238.16528 5138
329.15076 33032
330.15631 3881
385.2128 32963
386.21805 4735
386.23077 4884
441.27615 88331
442.28012 19114
443.27737 1662
443.29526 1664
497.33923 36625
498.3432 8337
499.35501 906
553.40131 33745
554.40552 9309
572.37512 9449
572.87665 6940
573.36737 2278
573.38818 1813
575.38397 36438
576.38763 10802
577.38727 1004
841.0885 925
848.57098 20436
849.07336 22911
849.57288 12814
850.08368 3610
850.56354 1034
1105.79749 3491
1106.8042 2030
1124.7699 6952
1125.27026 12020
1125.76123 8588
1126.28003 3700
1127.77478 1659
Name: "N,N-Diethanololeamide"
PrecursorMZ: 370.3326
PrecursorType: [M+H]+
IonMode: Positive
Formula: C22H43NO3
SMILES: CCCCCCCCC=CCCCCCCCC(=O)N(CCO)CCO
InChI: 
InChIKey: LPMBTLLQQJBUOO-KTKRTIGZSA-N
RetentionTime: 8.1384
CCS: 
CollisionEnergy: 20-40 eV
InstrumentType: UPLC-QTOF-MS
Comment: PI: Cristina Nerin; Data collector: QiZhi Su, GUIA, University of Zaragoza, Spain; Collision energy: 20-40 V; Instrument: Waters HPLC-QTOF-MS (Xevo G2 QTof); Ionization: ESI; Deconvoluted by MS-DIAL; Column: Waters AtlantisTM premier BEH C18 AX column (2.1 × 100mm x 1.7μm); Flow rate: 0.3mL/min; Mobile phase A and B are water and methnaol, respectively, both with 0.1% formic acid; Gradient elution: from A/B (95/5) to A/B (100/0) in 7min, kept for 4 min, then back to A/B (95/5) in 0.1 min, and maintained for additional 1.9 min (13min in total).; Injection volume: 10 μL
Num peaks: 28
70.06509 8878
70.07805 8877
73.03032 16437
73.04635 16407
88.07526 70973
89.07235 1494
89.08099 1537
106.08599 146028
107.08971 3771
191.00119 3054
207.03355 7345
223.06509 1892
223.07483 1867
250.97054 2054
266.99954 17155
268.00101 2477
268.9985 1553
309.27948 15902
310.2691 2309
310.28503 2346
321.19955 2285
321.21198 2515
325.06296 1521
352.32144 22252
353.3244 3387
355.07092 9958
356.07208 1789
370.33191 54457
Name: "N,N-Diethanololeamide"
PrecursorMZ: 739.6578
PrecursorType: [2M+H]+
IonMode: Positive
Formula: C22H43NO3
SMILES: CCCCCCCCC=CCCCCCCCC(=O)N(CCO)CCO
InChI: 
InChIKey: LPMBTLLQQJBUOO-KTKRTIGZSA-N
RetentionTime: 8.1384
CCS: 
CollisionEnergy: 20-40 eV
InstrumentType: UPLC-QTOF-MS
Comment: PI: Cristina Nerin; Data collector: QiZhi Su, GUIA, University of Zaragoza, Spain; Collision energy: 20-40 V; Instrument: Waters HPLC-QTOF-MS (Xevo G2 QTof); Ionization: ESI; Deconvoluted by MS-DIAL; Column: Waters AtlantisTM premier BEH C18 AX column (2.1 × 100mm x 1.7μm); Flow rate: 0.3mL/min; Mobile phase A and B are water and methnaol, respectively, both with 0.1% formic acid; Gradient elution: from A/B (95/5) to A/B (100/0) in 7min, kept for 4 min, then back to A/B (95/5) in 0.1 min, and maintained for additional 1.9 min (13min in total).; Injection volume: 10 μL
Num peaks: 48
70.06509 8917
70.07805 8922
73.03032 24933
73.04635 24885
88.07526 71989
89.08099 1530
106.08599 147527
107.08971 3605
191.00119 3712
207.03355 11782
223.06509 3186
223.07483 3116
250.97054 2523
266.99954 21103
268.00101 3152
268.9985 1934
309.27948 16019
310.2691 2312
310.28503 2335
321.19955 2240
321.21198 2464
325.06296 1510
341.01886 3117
352.32144 21921
353.3244 3327
355.07092 16240
356.07208 3286
357.06903 1999
370.33191 48086
371.10153 2625
371.33624 7780
389.3053 29915
389.80634 13567
390.31042 3157
392.31348 59107
393.31796 9813
408.26785 3154
408.284 3354
426.34311 2640
573.96729 43841
574.46857 30722
574.97144 10215
575.47461 2169
633.15063 21374
634.15259 10064
635.15271 6659
636.14465 1884
649.12195 1998
Name: "N,N-Diethanololeamide"
PrecursorMZ: 761.6401
PrecursorType: [2M+Na]+
IonMode: Positive
Formula: C22H43NO3
SMILES: CCCCCCCCC=CCCCCCCCC(=O)N(CCO)CCO
InChI: 
InChIKey: LPMBTLLQQJBUOO-KTKRTIGZSA-N
RetentionTime: 8.1384
CCS: 
CollisionEnergy: 20-40 eV
InstrumentType: UPLC-QTOF-MS
Comment: PI: Cristina Nerin; Data collector: QiZhi Su, GUIA, University of Zaragoza, Spain; Collision energy: 20-40 V; Instrument: Waters HPLC-QTOF-MS (Xevo G2 QTof); Ionization: ESI; Deconvoluted by MS-DIAL; Column: Waters AtlantisTM premier BEH C18 AX column (2.1 × 100mm x 1.7μm); Flow rate: 0.3mL/min; Mobile phase A and B are water and methnaol, respectively, both with 0.1% formic acid; Gradient elution: from A/B (95/5) to A/B (100/0) in 7min, kept for 4 min, then back to A/B (95/5) in 0.1 min, and maintained for additional 1.9 min (13min in total).; Injection volume: 10 μL
Num peaks: 48
70.06509 8918
70.07805 8923
73.03032 24933
73.04635 24885
88.07526 71982
89.08099 1536
106.08599 147522
107.08971 3602
191.00119 3712
207.03355 11782
223.06509 3186
223.07483 3116
250.97054 2523
266.99954 21103
268.00101 3152
268.9985 1934
309.27948 16012
310.2691 2310
310.28503 2334
321.19955 2240
321.21198 2463
325.06296 1506
341.01886 3117
352.32144 21929
353.3244 3330
355.07092 16240
356.07208 3286
357.06903 1999
370.33191 48075
371.10153 2625
371.33624 7778
389.3053 29916
389.80634 13567
390.31042 3157
392.31348 59108
393.31796 9813
408.26785 3154
408.284 3354
426.34311 2639
573.96729 43834
574.46857 30720
574.97144 10213
575.47461 2169
633.15063 21368
634.15259 10059
635.15271 6659
636.14465 1885
649.12195 1998
Name: "N,N-Diethanololeamide"
PrecursorMZ: 392.3143
PrecursorType: [M+Na]+
IonMode: Positive
Formula: C22H43NO3
SMILES: CCCCCCCCC=CCCCCCCCC(=O)N(CCO)CCO
InChI: 
InChIKey: LPMBTLLQQJBUOO-KTKRTIGZSA-N
RetentionTime: 8.1422
CCS: 
CollisionEnergy: 20-40 eV
InstrumentType: UPLC-QTOF-MS
Comment: PI: Cristina Nerin; Data collector: QiZhi Su, GUIA, University of Zaragoza, Spain; Collision energy: 20-40 V; Instrument: Waters HPLC-QTOF-MS (Xevo G2 QTof); Ionization: ESI; Deconvoluted by MS-DIAL; Column: Waters AtlantisTM premier BEH C18 AX column (2.1 × 100mm x 1.7μm); Flow rate: 0.3mL/min; Mobile phase A and B are water and methnaol, respectively, both with 0.1% formic acid; Gradient elution: from A/B (95/5) to A/B (100/0) in 7min, kept for 4 min, then back to A/B (95/5) in 0.1 min, and maintained for additional 1.9 min (13min in total).; Injection volume: 10 μL
Num peaks: 34
70.06509 8914
70.08019 8923
73.02673 27675
73.04651 24885
88.07547 71945
89.08157 1587
106.08608 147510
107.08992 3602
191.00255 3761
207.03201 11782
223.06543 3181
250.97052 2523
267.00061 21085
268.00049 3122
269 1928
309.27911 15991
310.28482 2331
321.21069 2428
325.05655 1499
325.07172 1488
341.01788 3171
352.32104 21970
353.32635 3351
353.34167 3386
355.07037 16240
356.07306 3299
357.06967 1999
370.33151 47995
371.10239 2611
371.33463 7769
389.3056 29917
389.80676 13567
390.30859 3140
392.31342 73528
Name: 5-Nitro-o-toluidine
PrecursorMZ: 170.0987
PrecursorType: [M+NH4]+
IonMode: Positive
Formula: C7H8N2O2
SMILES: CC1=C(C=C(C=C1)[N+](=O)[O-])N
InChI: 
InChIKey: DSBIJCMXAIKKKI-UHFFFAOYSA-N
RetentionTime: 4.22835
CCS: 
CollisionEnergy: 20-40 eV
InstrumentType: UPLC-QTOF-MS
Comment: PI: Cristina Nerin; Data collector: QiZhi Su, GUIA, University of Zaragoza, Spain; Collision energy: 20-40 V; Instrument: Waters HPLC-QTOF-MS (Xevo G2 QTof); Ionization: ESI; Deconvoluted by MS-DIAL; Column: Waters AtlantisTM premier BEH C18 AX column (2.1 × 100mm x 1.7μm); Flow rate: 0.3mL/min; Mobile phase A and B are water and methnaol, respectively, both with 0.1% formic acid; Gradient elution: from A/B (95/5) to A/B (100/0) in 7min, kept for 4 min, then back to A/B (95/5) in 0.1 min, and maintained for additional 1.9 min (13min in total).; Injection volume: 10 μL
Num peaks: 117
55.0555 21
56.05725 65
59.07125 20
61.00311 26
65.03918 32
67.05534 20
69.00449 31
69.06593 21
69.07311 57
72.04327 24
72.08253 50
72.98838 66
73.01506 21
73.04533 23
73.11706 26
74.0619 20
77.03576 51
77.0465 59
78.98866 25
79.05786 26
80.94765 20
81.03076 27
81.46175 26
84.07184 32
84.08129 24
84.9607 166
87.06505 28
89.06096 290
91.0527 27
91.0601 75
92.05266 53
93.0013 26
93.01746 21
93.06045 84
93.55921 21
95.06213 23
96.95383 26
96.98967 23
97.07013 22
97.08835 20
97.1025 22
97.10708 21
101.06737 64
101.07607 26
102.92886 29
102.94831 22
102.99664 30
104.10033 20
104.97714 24
105.5917 23
107.07146 25
109.00822 20
109.01991 24
109.0683 72
110.97834 44
111.12209 44
111.97436 29
113.07565 21
115.04744 26
118.0545 21
119.05157 62
119.08552 54
121.00558 24
121.62243 20
122.05467 21
123.99244 24
124.96787 35
124.97723 29
127.05434 46
127.06781 30
128.01302 24
128.0537 24
130.99838 35
131.07121 21
131.08771 23
133.08742 49
134.10155 20
134.99582 40
135.09903 23
135.87659 26
139.01758 24
145.09412 29
147.03824 25
147.07938 28
147.08716 25
148.97061 46
149.10564 24
149.90248 22
150.04324 21
150.97932 24
150.99608 26
151.04482 21
151.05653 31
151.98157 23
152.06329 452
152.07353 95
152.98459 26
153.05319 23
153.07323 269
154.07117 59
156.04144 44
157.09515 28
157.11229 30
159.07799 20
159.1176 26
161.08878 31
162.98761 20
164.87737 25
165.03027 34
165.07491 23
165.08395 20
165.89847 21
166.99962 23
167.08502 32
169.09169 54
170.09181 53
170.10583 85
Name: Nicotine
PrecursorMZ: 163.1231
PrecursorType: [M+H]+
IonMode: Positive
Formula: C10H14N2
SMILES: CN1CCCC1C2=CN=CC=C2
InChI: 
InChIKey: SNICXCGAKADSCV-JTQLQIEISA-N
RetentionTime: 0.5701666
CCS: 
CollisionEnergy: 20-40 eV
InstrumentType: UPLC-QTOF-MS
Comment: PI: Cristina Nerin; Data collector: QiZhi Su, GUIA, University of Zaragoza, Spain; Collision energy: 20-40 V; Instrument: Waters HPLC-QTOF-MS (Xevo G2 QTof); Ionization: ESI; Deconvoluted by MS-DIAL; Column: Waters AtlantisTM premier BEH C18 AX column (2.1 × 100mm x 1.7μm); Flow rate: 0.3mL/min; Mobile phase A and B are water and methnaol, respectively, both with 0.1% formic acid; Gradient elution: from A/B (95/5) to A/B (100/0) in 7min, kept for 4 min, then back to A/B (95/5) in 0.1 min, and maintained for additional 1.9 min (13min in total).; Injection volume: 10 μL
Num peaks: 31
78.03251 126
78.04354 126
80.04741 361
80.05225 361
80.05741 361
84.08292 580
90.04761 260
90.05364 260
92.05084 387
92.05691 387
103.05577 280
103.06242 278
106.06473 1814
106.06984 1811
107.07643 126
115.04736 299
115.05709 299
117.05804 8499
118.06103 648
118.0681 645
120.08157 795
130.06511 11766
131.05771 838
131.06602 864
131.07271 867
132.08214 3327
133.086 225
161.10811 551
161.11862 546
163.1201 311
163.12843 663
Name: 2-naphthylamine
PrecursorMZ: 144.0805
PrecursorType: [M+H]+
IonMode: Positive
Formula: C10H9N
SMILES: C1=CC=C2C=C(C=CC2=C1)N
InChI: 
InChIKey: JBIJLHTVPXGSAM-UHFFFAOYSA-N
RetentionTime: 3.207033
CCS: 
CollisionEnergy: 20-40 eV
InstrumentType: UPLC-QTOF-MS
Comment: PI: Cristina Nerin; Data collector: QiZhi Su, GUIA, University of Zaragoza, Spain; Collision energy: 20-40 V; Instrument: Waters HPLC-QTOF-MS (Xevo G2 QTof); Ionization: ESI; Deconvoluted by MS-DIAL; Column: Waters AtlantisTM premier BEH C18 AX column (2.1 × 100mm x 1.7μm); Flow rate: 0.3mL/min; Mobile phase A and B are water and methnaol, respectively, both with 0.1% formic acid; Gradient elution: from A/B (95/5) to A/B (100/0) in 7min, kept for 4 min, then back to A/B (95/5) in 0.1 min, and maintained for additional 1.9 min (13min in total).; Injection volume: 10 μL
Num peaks: 14
77.03827 1624
77.04454 1619
101.03687 376
101.04421 377
115.04239 557
115.05041 584
115.06051 579
117.05648 1468
117.07035 1595
126.04861 771
127.05426 36191
128.05908 2537
143.07327 4160
144.08011 10857
Name: 4-Aminobiphenyl
PrecursorMZ: 170.0969
PrecursorType: [M+H]+
IonMode: Positive
Formula: C12H11N
SMILES: C1=CC=C(C=C1)C2=CC=C(C=C2)N
InChI: 
InChIKey: DMVOXQPQNTYEKQ-UHFFFAOYSA-N
RetentionTime: 4.232067
CCS: 
CollisionEnergy: 20-40 eV
InstrumentType: UPLC-QTOF-MS
Comment: PI: Cristina Nerin; Data collector: QiZhi Su, GUIA, University of Zaragoza, Spain; Collision energy: 20-40 V; Instrument: Waters HPLC-QTOF-MS (Xevo G2 QTof); Ionization: ESI; Deconvoluted by MS-DIAL; Column: Waters AtlantisTM premier BEH C18 AX column (2.1 × 100mm x 1.7μm); Flow rate: 0.3mL/min; Mobile phase A and B are water and methnaol, respectively, both with 0.1% formic acid; Gradient elution: from A/B (95/5) to A/B (100/0) in 7min, kept for 4 min, then back to A/B (95/5) in 0.1 min, and maintained for additional 1.9 min (13min in total).; Injection volume: 10 μL
Num peaks: 16
92.04756 3290
92.05279 3290
93.05756 3537
127.03592 4571
127.05447 4708
128.06209 4977
143.086 2882
151.05482 8528
152.06215 94958
153.0692 48599
154.073 4979
155.07405 1475
168.08051 2594
168.0882 2586
169.08913 11880
170.09676 46150
Name: 9-phenanthrol
PrecursorMZ: 195.0819
PrecursorType: [M+H]+
IonMode: Positive
Formula: C14H10O
SMILES: C1=CC=C2C(=C1)C=C(C3=CC=CC=C23)O
InChI: 
InChIKey: DZKIUEHLEXLYKM-UHFFFAOYSA-N
RetentionTime: 6.754817
CCS: 
CollisionEnergy: 20-40 eV
InstrumentType: UPLC-QTOF-MS
Comment: PI: Cristina Nerin; Data collector: QiZhi Su, GUIA, University of Zaragoza, Spain; Collision energy: 20-40 V; Instrument: Waters HPLC-QTOF-MS (Xevo G2 QTof); Ionization: ESI; Deconvoluted by MS-DIAL; Column: Waters AtlantisTM premier BEH C18 AX column (2.1 × 100mm x 1.7μm); Flow rate: 0.3mL/min; Mobile phase A and B are water and methnaol, respectively, both with 0.1% formic acid; Gradient elution: from A/B (95/5) to A/B (100/0) in 7min, kept for 4 min, then back to A/B (95/5) in 0.1 min, and maintained for additional 1.9 min (13min in total).; Injection volume: 10 μL
Num peaks: 358
55.0522 44
55.93041 24
56.94085 20
56.96355 49
57.06931 142
57.07373 38
58.42807 85
58.9486 71
58.99112 39
60.07997 21
63.23476 20
65.31323 30
66.04981 20
66.05886 26
67.05598 260
67.06044 45
68.05679 43
68.06186 20
69.00278 114
69.03907 55
69.06969 242
69.0757 75
70.02866 28
70.17959 30
70.99368 27
71.0493 73
71.08683 23
72.07987 20
72.10806 22
73.04359 26
73.05281 94
75.02185 20
77.03595 20
78.98302 39
79.05695 237
80.0625 25
81.02177 43
81.03237 62
81.05463 20
81.07075 452
81.95461 20
82.01936 23
82.9845 31
83.04497 69
83.05175 211
83.08543 70
83.59309 20
84.08286 33
84.09508 52
84.95472 65
84.9617 157
85.01703 21
85.03347 27
85.06101 27
87.04513 21
89.07634 20
89.50063 21
91.05466 271
92.06204 44
92.99389 28
93.03513 23
93.06603 58
93.07127 236
93.94884 23
93.99706 24
94.07671 21
95.0495 149
95.08446 47
95.08977 157
96.90687 27
96.93475 30
96.98119 23
97.02095 24
97.02785 26
97.05939 84
97.066 40
97.10145 43
98.05211 24
98.49691 25
98.97474 29
98.98151 101
98.99374 28
99.87322 36
100.93881 24
100.98374 27
101.02423 92
101.05967 26
101.5385 20
104.96151 24
105.05708 20
105.06969 20
105.07542 42
105.31822 20
106.03507 22
106.06788 128
106.9688 45
107.04287 20
107.05112 42
107.08492 104
107.09007 43
108.0509 21
108.2056 30
109.02751 37
109.06107 57
109.0667 21
109.10253 24
110.01291 90
111.04465 238
111.08227 53
111.08678 21
111.97726 20
111.99849 23
112.05528 36
112.98866 50
113.05809 26
113.06292 22
113.1016 21
114.03559 24
114.53214 32
114.94103 22
115.0389 55
115.04684 25
115.05428 20
115.09174 20
115.4857 27
116.03368 21
116.05303 21
117.06191 25
117.06963 45
119.01145 43
119.02109 52
119.02674 21
119.08664 118
119.23165 23
119.55035 20
119.83545 23
120.08302 21
120.09164 20
120.64319 31
121.03156 60
121.06136 51
121.09175 69
121.10349 119
121.67246 23
122.07356 26
122.86509 24
123.02217 20
123.03175 23
123.07234 30
123.08758 116
124.00469 25
124.05289 57
124.99123 31
124.99805 46
125.02454 59
125.05796 61
125.06795 25
125.97237 31
126.10136 25
127.00931 42
127.03604 24
127.05116 24
127.0798 21
127.15483 29
128.05301 24
129.07246 28
131.01764 55
131.07854 23
131.08586 20
133.00674 22
133.06136 20
133.10599 21
133.14348 23
134.0582 50
134.06616 21
134.07742 27
134.10648 43
134.98947 50
135.07973 38
135.08527 45
135.09291 37
135.11266 61
135.12288 44
137.06116 21
137.08829 51
137.09497 50
138.02534 33
138.0421 113
138.97421 21
138.98145 21
139.06145 21
139.07462 28
139.08553 24
139.10327 27
139.11911 45
140.06758 94
140.97586 23
142.04123 25
142.10339 37
142.93871 20
142.94301 41
143.07559 62
144.05238 22
144.08514 24
144.09181 22
145.00609 22
145.09529 41
145.10913 79
145.53481 23
147.05109 23
147.08272 74
149.01999 20
149.09035 21
149.11021 20
149.13231 29
149.22325 25
150.04359 23
150.15472 30
150.19751 21
151.04849 31
151.06274 128
151.07553 62
151.10837 30
151.11446 45
151.80338 22
152.04404 58
152.0612 463
152.09047 22
153.05437 222
153.06863 241
153.07878 52
153.09668 56
153.37857 23
153.99995 30
154.06737 50
154.08038 40
154.95218 20
154.99297 20
155.05946 25
155.0883 21
156.07513 25
156.08817 21
156.09811 34
156.12654 30
156.45494 25
157.05296 22
157.06935 37
157.08159 42
158.43762 25
159.12097 73
160.08542 22
161.04494 22
161.0654 66
161.1301 72
163.03951 20
163.05913 24
163.07498 20
163.08429 26
163.10466 21
163.12318 101
164.04672 27
165.02054 30
165.05835 76
165.06473 185
165.07495 394
165.08075 160
166.06795 21
166.0831 77
166.99458 20
167.04184 20
167.07127 20
167.08681 384
167.09795 173
168.05826 23
168.07632 46
168.08391 133
168.28632 28
169.04274 26
169.09241 25
169.80473 33
170.09721 84
170.99681 52
171.00467 43
172.07883 34
172.84961 30
173.06822 28
173.11478 83
173.13298 20
174.01578 48
174.06808 39
175.00595 71
175.02937 21
175.07578 62
175.08598 75
175.10614 30
175.14812 54
175.5706 27
176.01378 21
176.02277 67
176.06316 99
176.07617 25
177.0248 30
177.07793 67
177.09982 63
178.02164 27
178.07718 55
178.54297 28
179.05858 22
179.10551 22
179.18942 24
180.05354 97
180.06419 35
180.08551 190
180.09741 20
180.97934 23
180.98759 20
181.03316 26
181.05251 168
181.06129 288
181.07103 285
181.09064 25
181.11168 21
181.12021 67
181.93257 27
182.09541 95
182.10849 27
182.11949 24
183.034 24
183.09955 31
185.01114 25
185.06668 55
187.09767 24
187.14865 20
188.07368 21
188.15167 22
189.0513 30
189.07016 22
189.11873 21
190.99203 21
191.00186 22
191.06282 21
191.07483 26
191.09827 44
191.1187 93
193.01103 19
193.02866 36
193.07039 32
193.08044 70
193.09265 21
194.03572 28
194.058 42
194.08043 260
194.09673 148
194.99844 21
195.06369 50
195.08305 50
195.10538 120
195.13686 23
Name: "2,4-Dimethylaniline"
PrecursorMZ: 122.0962
PrecursorType: [M+H]+
IonMode: Positive
Formula: C8H11N
SMILES: CC1=CC(=C(C=C1)N)C
InChI: 
InChIKey: CZZZABOKJQXEBO-UHFFFAOYSA-N
RetentionTime: 0.8671
CCS: 
CollisionEnergy: 20-40 eV
InstrumentType: UPLC-QTOF-MS
Comment: PI: Cristina Nerin; Data collector: QiZhi Su, GUIA, University of Zaragoza, Spain; Collision energy: 20-40 V; Instrument: Waters HPLC-QTOF-MS (Xevo G2 QTof); Ionization: ESI; Deconvoluted by MS-DIAL; Column: Waters AtlantisTM premier BEH C18 AX column (2.1 × 100mm x 1.7μm); Flow rate: 0.3mL/min; Mobile phase A and B are water and methnaol, respectively, both with 0.1% formic acid; Gradient elution: from A/B (95/5) to A/B (100/0) in 7min, kept for 4 min, then back to A/B (95/5) in 0.1 min, and maintained for additional 1.9 min (13min in total).; Injection volume: 10 μL
Num peaks: 31
77.03928 2364
78.03993 151
78.04386 158
78.05413 150
78.06181 115
79.05433 2098
80.05347 134
80.06239 134
101.07287 108
103.05414 1398
103.06288 1403
104.05035 110
104.05885 110
104.06876 114
105.07045 3253
106.04538 107
106.06607 1173
106.08028 1182
107.05525 5707
107.07301 5654
108.07358 356
108.08098 355
120.07191 324
120.07798 324
120.08672 324
121.08213 259
121.08799 274
121.0967 265
121.10386 241
122.09496 2095
122.10065 902
Name: "2,4-Dimethylaniline"
PrecursorMZ: 122.0963
PrecursorType: [M+H]+
IonMode: Positive
Formula: C8H11N
SMILES: CC1=CC(=C(C=C1)N)C
InChI: 
InChIKey: CZZZABOKJQXEBO-UHFFFAOYSA-N
RetentionTime: 1.819833
CCS: 
CollisionEnergy: 20-40 eV
InstrumentType: UPLC-QTOF-MS
Comment: PI: Cristina Nerin; Data collector: QiZhi Su, GUIA, University of Zaragoza, Spain; Collision energy: 20-40 V; Instrument: Waters HPLC-QTOF-MS (Xevo G2 QTof); Ionization: ESI; Deconvoluted by MS-DIAL; Column: Waters AtlantisTM premier BEH C18 AX column (2.1 × 100mm x 1.7μm); Flow rate: 0.3mL/min; Mobile phase A and B are water and methnaol, respectively, both with 0.1% formic acid; Gradient elution: from A/B (95/5) to A/B (100/0) in 7min, kept for 4 min, then back to A/B (95/5) in 0.1 min, and maintained for additional 1.9 min (13min in total).; Injection volume: 10 μL
Num peaks: 50
72.99046 27
73.04993 26
75.02003 26
77.03313 115
77.03703 293
77.04264 268
78.03918 56
78.04666 27
78.96789 29
78.97245 27
79.04895 106
79.05541 676
83.05943 26
84.08337 44
84.95107 31
84.96155 86
84.96783 33
85.0332 20
85.04723 21
88.98473 31
91.0573 27
93.05678 33
93.07451 24
94.06248 20
94.96512 24
95.05389 23
96.08761 37
99.96953 20
101.95107 32
103.04918 69
103.05666 197
103.06487 48
105.06344 55
105.07267 370
106.06725 264
107.04787 40
107.05318 21
107.07321 1075
107.08 247
108.06718 25
108.07845 68
116.05846 24
117.06974 22
120.08274 46
120.97636 35
121.09557 39
121.1005 22
122.08588 31
122.09512 278
122.10063 105
Name: Triethylene glycol dimethacrylate
PrecursorMZ: 325.1056
PrecursorType: [M+K]+
IonMode: Positive
Formula: C14H22O6
SMILES: CC(=C)C(=O)OCCOCCOCCOC(=O)C(=C)C
InChI: 
InChIKey: HWSSEYVMGDIFMH-UHFFFAOYSA-N
RetentionTime: 5.993446
CCS: 
CollisionEnergy: 20-40 eV
InstrumentType: UPLC-QTOF-MS
Comment: PI: Cristina Nerin; Data collector: QiZhi Su, GUIA, University of Zaragoza, Spain; Collision energy: 20-40 V; Instrument: Waters HPLC-QTOF-MS (Xevo G2 QTof); Ionization: ESI; Deconvoluted by MS-DIAL; Column: Waters AtlantisTM premier BEH C18 AX column (2.1 × 100mm x 1.7μm); Flow rate: 0.3mL/min; Mobile phase A and B are water and methnaol, respectively, both with 0.1% formic acid; Gradient elution: from A/B (95/5) to A/B (100/0) in 7min, kept for 4 min, then back to A/B (95/5) in 0.1 min, and maintained for additional 1.9 min (13min in total).; Injection volume: 10 μL
Num peaks: 22
69.0334 2558
80.99738 301
81.00716 303
100.98847 212
101.00388 219
113.05914 15832
114.06536 666
124.97411 6861
124.99103 6825
145.00352 1151
145.01512 1238
145.02379 1232
163.04936 199
163.05969 189
213.04521 1676
257.06802 1363
257.08194 1380
309.12949 4083
309.14066 4095
310.13126 344
310.14847 345
325.08414 185
Name: Methyl p-tolyl sulfoxide
PrecursorMZ: 155.0524
PrecursorType: [M+H]+
IonMode: Positive
Formula: C8H10OS
SMILES: CC1=CC=C(C=C1)S(=O)C
InChI: 
InChIKey: FEVALTJSQBFLEU-UHFFFAOYSA-N
RetentionTime: 4.372263
CCS: 
CollisionEnergy: 20-40 eV
InstrumentType: UPLC-QTOF-MS
Comment: PI: Cristina Nerin; Data collector: QiZhi Su, GUIA, University of Zaragoza, Spain; Collision energy: 20-40 V; Instrument: Waters HPLC-QTOF-MS (Xevo G2 QTof); Ionization: ESI; Deconvoluted by MS-DIAL; Column: Waters AtlantisTM premier BEH C18 AX column (2.1 × 100mm x 1.7μm); Flow rate: 0.3mL/min; Mobile phase A and B are water and methnaol, respectively, both with 0.1% formic acid; Gradient elution: from A/B (95/5) to A/B (100/0) in 7min, kept for 4 min, then back to A/B (95/5) in 0.1 min, and maintained for additional 1.9 min (13min in total).; Injection volume: 10 μL
Num peaks: 78
57.07192 28
59.66322 27
61.00982 40
65.03944 67
66.88646 25
67.05479 65
68.05569 25
69.84042 30
71.08324 25
72.99549 40
73.02747 53
73.0528 24
77.03204 26
77.04425 24
78.98633 32
79.53692 28
84.04127 25
84.95181 50
84.96407 245
85.06463 24
88.07414 24
89.06329 26
91.05611 1570
92.0629 2343
93.00062 43
93.0606 141
93.06973 76
94.06709 24
94.07995 55
97.99349 28
98.95912 44
98.99641 27
100.93498 67
104.04761 24
104.09409 35
105.06197 44
105.06739 51
106.0093 79
107.01123 44
107.05811 105
107.50378 54
109.11387 25
111.02224 30
111.02788 34
115.0138 24
116.51189 28
116.51671 33
118.08683 25
121.05549 25
122.09721 25
122.99042 31
123.02704 127
123.08012 31
124.01566 31
124.51735 46
124.96414 29
125.06979 26
127.02687 24
134.06511 43
137.04486 39
137.1674 27
138.05249 1002
138.97754 40
139.02515 24
139.05011 66
139.0602 27
139.0809 28
139.08762 26
140.0291 234
140.03902 94
143.04242 26
148.00171 37
148.0412 38
151.97702 42
155.04659 95
155.05652 181
155.06706 91
155.08536 29
Name: Methyl p-tolyl sulfoxide
PrecursorMZ: 177.0347
PrecursorType: [M+Na]+
IonMode: Positive
Formula: C8H10OS
SMILES: CC1=CC=C(C=C1)S(=O)C
InChI: 
InChIKey: FEVALTJSQBFLEU-UHFFFAOYSA-N
RetentionTime: 4.373013
CCS: 
CollisionEnergy: 20-40 eV
InstrumentType: UPLC-QTOF-MS
Comment: PI: Cristina Nerin; Data collector: QiZhi Su, GUIA, University of Zaragoza, Spain; Collision energy: 20-40 V; Instrument: Waters HPLC-QTOF-MS (Xevo G2 QTof); Ionization: ESI; Deconvoluted by MS-DIAL; Column: Waters AtlantisTM premier BEH C18 AX column (2.1 × 100mm x 1.7μm); Flow rate: 0.3mL/min; Mobile phase A and B are water and methnaol, respectively, both with 0.1% formic acid; Gradient elution: from A/B (95/5) to A/B (100/0) in 7min, kept for 4 min, then back to A/B (95/5) in 0.1 min, and maintained for additional 1.9 min (13min in total).; Injection volume: 10 μL
Num peaks: 35
91.05379 16981
92.06118 25287
93.06567 1067
105.06031 253
123.0209 2052
123.02691 2065
137.04648 319
137.0601 296
138.04939 12939
139.02151 1197
139.04924 705
139.05811 688
140.02997 4122
140.04942 871
141.01875 262
141.03337 287
155.054 2218
158.99672 1314
159.00702 1316
159.02289 564
166.51442 9299
167.01654 1240
167.49472 717
167.51224 801
167.52103 796
168.01009 460
168.01653 438
174.02594 8056
174.52826 1259
175.01605 618
175.02496 643
175.52011 1294
175.5379 1322
176.00691 304
176.02187 338
Name: N-Methyl-p-toluenesulfonamide
PrecursorMZ: 186.0587
PrecursorType: [M+H]+
IonMode: Positive
Formula: C8H11NO2S
SMILES: CC1=CC=C(C=C1)S(=O)(=O)NC
InChI: 
InChIKey: GWLOGZRVYXAHRE-UHFFFAOYSA-N
RetentionTime: 4.678833
CCS: 
CollisionEnergy: 20-40 eV
InstrumentType: UPLC-QTOF-MS
Comment: PI: Cristina Nerin; Data collector: QiZhi Su, GUIA, University of Zaragoza, Spain; Collision energy: 20-40 V; Instrument: Waters HPLC-QTOF-MS (Xevo G2 QTof); Ionization: ESI; Deconvoluted by MS-DIAL; Column: Waters AtlantisTM premier BEH C18 AX column (2.1 × 100mm x 1.7μm); Flow rate: 0.3mL/min; Mobile phase A and B are water and methnaol, respectively, both with 0.1% formic acid; Gradient elution: from A/B (95/5) to A/B (100/0) in 7min, kept for 4 min, then back to A/B (95/5) in 0.1 min, and maintained for additional 1.9 min (13min in total).; Injection volume: 10 μL
Num peaks: 17
65.03842 883
91.05385 19047
92.0479 718
92.06018 707
92.07144 654
104.93199 291
120.07616 827
120.08297 826
121.08775 199
133.95795 232
133.96924 220
139.02324 217
139.03015 223
139.03961 204
147.01414 216
155.01157 256
155.02141 273
Name: N-Methyl-p-toluenesulfonamide
PrecursorMZ: 208.0408
PrecursorType: [M+Na]+
IonMode: Positive
Formula: C8H11NO2S
SMILES: CC1=CC=C(C=C1)S(=O)(=O)NC
InChI: 
InChIKey: GWLOGZRVYXAHRE-UHFFFAOYSA-N
RetentionTime: 4.680589
CCS: 
CollisionEnergy: 20-40 eV
InstrumentType: UPLC-QTOF-MS
Comment: PI: Cristina Nerin; Data collector: QiZhi Su, GUIA, University of Zaragoza, Spain; Collision energy: 20-40 V; Instrument: Waters HPLC-QTOF-MS (Xevo G2 QTof); Ionization: ESI; Deconvoluted by MS-DIAL; Column: Waters AtlantisTM premier BEH C18 AX column (2.1 × 100mm x 1.7μm); Flow rate: 0.3mL/min; Mobile phase A and B are water and methnaol, respectively, both with 0.1% formic acid; Gradient elution: from A/B (95/5) to A/B (100/0) in 7min, kept for 4 min, then back to A/B (95/5) in 0.1 min, and maintained for additional 1.9 min (13min in total).; Injection volume: 10 μL
Num peaks: 16
65.03826 1669
91.05371 31589
91.0714 31596
92.05802 1337
104.93148 343
104.93952 336
120.07804 1557
120.08462 1546
139.01306 325
139.02077 328
155.00786 588
155.01959 590
205.03226 11416
205.53355 1848
206.03117 972
206.04901 785
Name: Triethylene glycol dimethacrylate
PrecursorMZ: 287.1505
PrecursorType: [M+H]+
IonMode: Positive
Formula: C14H22O6
SMILES: CC(=C)C(=O)OCCOCCOCCOC(=O)C(=C)C
InChI: 
InChIKey: HWSSEYVMGDIFMH-UHFFFAOYSA-N
RetentionTime: 5.99435
CCS: 
CollisionEnergy: 20-40 eV
InstrumentType: UPLC-QTOF-MS
Comment: PI: Cristina Nerin; Data collector: QiZhi Su, GUIA, University of Zaragoza, Spain; Collision energy: 20-40 V; Instrument: Waters HPLC-QTOF-MS (Xevo G2 QTof); Ionization: ESI; Deconvoluted by MS-DIAL; Column: Waters AtlantisTM premier BEH C18 AX column (2.1 × 100mm x 1.7μm); Flow rate: 0.3mL/min; Mobile phase A and B are water and methnaol, respectively, both with 0.1% formic acid; Gradient elution: from A/B (95/5) to A/B (100/0) in 7min, kept for 4 min, then back to A/B (95/5) in 0.1 min, and maintained for additional 1.9 min (13min in total).; Injection volume: 10 μL
Num peaks: 16
69.01888 4232
69.03352 4245
80.99827 378
81.00304 378
100.97308 323
100.9894 441
100.99776 431
113.05911 23823
114.05766 819
114.06539 829
124.99099 9512
145.01781 1335
163.05177 261
163.0609 269
213.04507 2109
257.0708 1975
Name: Triethylene glycol dimethacrylate
PrecursorMZ: 304.1762
PrecursorType: [M+NH4]+
IonMode: Positive
Formula: C14H22O6
SMILES: CC(=C)C(=O)OCCOCCOCCOC(=O)C(=C)C
InChI: 
InChIKey: HWSSEYVMGDIFMH-UHFFFAOYSA-N
RetentionTime: 5.990227
CCS: 
CollisionEnergy: 20-40 eV
InstrumentType: UPLC-QTOF-MS
Comment: PI: Cristina Nerin; Data collector: QiZhi Su, GUIA, University of Zaragoza, Spain; Collision energy: 20-40 V; Instrument: Waters HPLC-QTOF-MS (Xevo G2 QTof); Ionization: ESI; Deconvoluted by MS-DIAL; Column: Waters AtlantisTM premier BEH C18 AX column (2.1 × 100mm x 1.7μm); Flow rate: 0.3mL/min; Mobile phase A and B are water and methnaol, respectively, both with 0.1% formic acid; Gradient elution: from A/B (95/5) to A/B (100/0) in 7min, kept for 4 min, then back to A/B (95/5) in 0.1 min, and maintained for additional 1.9 min (13min in total).; Injection volume: 10 μL
Num peaks: 12
113.05936 2751
113.07815 2222
114.06542 126
124.97101 5386
124.99047 1535
126.99268 54
145.01814 175
145.0331 222
163.04253 68
186.52533 80
213.02365 170
213.04515 500
Name: Triethylene glycol dimethacrylate
PrecursorMZ: 309.1315
PrecursorType: [M+Na]+
IonMode: Positive
Formula: C14H22O6
SMILES: CC(=C)C(=O)OCCOCCOCCOC(=O)C(=C)C
InChI: 
InChIKey: HWSSEYVMGDIFMH-UHFFFAOYSA-N
RetentionTime: 5.991239
CCS: 
CollisionEnergy: 20-40 eV
InstrumentType: UPLC-QTOF-MS
Comment: PI: Cristina Nerin; Data collector: QiZhi Su, GUIA, University of Zaragoza, Spain; Collision energy: 20-40 V; Instrument: Waters HPLC-QTOF-MS (Xevo G2 QTof); Ionization: ESI; Deconvoluted by MS-DIAL; Column: Waters AtlantisTM premier BEH C18 AX column (2.1 × 100mm x 1.7μm); Flow rate: 0.3mL/min; Mobile phase A and B are water and methnaol, respectively, both with 0.1% formic acid; Gradient elution: from A/B (95/5) to A/B (100/0) in 7min, kept for 4 min, then back to A/B (95/5) in 0.1 min, and maintained for additional 1.9 min (13min in total).; Injection volume: 10 μL
Num peaks: 19
69.0334 2558
80.99738 301
81.00716 303
100.98847 212
101.00388 219
113.05914 15832
114.06536 666
124.97411 6861
124.99103 6825
145.00352 1151
145.01512 1238
145.02379 1232
163.04936 199
163.05969 189
213.04521 1676
257.06802 1363
257.08194 1380
309.12949 2915
309.14066 1328
Name: Methyl p-tolyl sulfoxide
PrecursorMZ: 155.0522
PrecursorType: [M+H]+
IonMode: Positive
Formula: C8H10OS
SMILES: CC1=CC=C(C=C1)S(=O)C
InChI: 
InChIKey: FEVALTJSQBFLEU-UHFFFAOYSA-N
RetentionTime: 4.203993
CCS: 
CollisionEnergy: 20-40 eV
InstrumentType: UPLC-QTOF-MS
Comment: PI: Cristina Nerin; Data collector: QiZhi Su, GUIA, University of Zaragoza, Spain; Collision energy: 20-40 V; Instrument: Waters HPLC-QTOF-MS (Xevo G2 QTof); Ionization: ESI; Deconvoluted by MS-DIAL; Column: Waters AtlantisTM premier BEH C18 AX column (2.1 × 100mm x 1.7μm); Flow rate: 0.3mL/min; Mobile phase A and B are water and methnaol, respectively, both with 0.1% formic acid; Gradient elution: from A/B (95/5) to A/B (100/0) in 7min, kept for 4 min, then back to A/B (95/5) in 0.1 min, and maintained for additional 1.9 min (13min in total).; Injection volume: 10 μL
Num peaks: 48
65.04292 53
67.05251 36
69.07324 46
70.10681 33
71.08767 35
77.03873 93
78.98553 156
79.0552 113
83.08017 43
84.95732 280
84.96156 111
89.0637 39
89.49289 35
91.05432 2091
92.06171 3251
93.06659 231
93.07406 60
99.01459 38
100.94338 98
105.06026 41
105.06777 79
105.07545 54
106.08041 64
106.54028 36
107.50315 44
107.50961 42
108.49499 49
115.01335 93
116.06588 34
116.50234 68
119.99065 41
121.11026 77
123.02322 102
123.03031 68
123.03702 52
124.01851 41
124.03914 48
126.51392 33
128.87817 46
138.05121 1674
138.06625 39
139.02118 154
140.03008 432
140.05219 41
141.37759 33
141.99844 34
155.0489 107
155.05614 144
Name: Anthrone
PrecursorMZ: 195.08
PrecursorType: [M+H]+
IonMode: Positive
Formula: C14H10O
SMILES: C1C2=CC=CC=C2C(=O)C3=CC=CC=C31
InChI: 
InChIKey: RJGDLRCDCYRQOQ-UHFFFAOYSA-N
RetentionTime: 6.670397
CCS: 
CollisionEnergy: 20-40 eV
InstrumentType: UPLC-QTOF-MS
Comment: PI: Cristina Nerin; Data collector: QiZhi Su, GUIA, University of Zaragoza, Spain; Collision energy: 20-40 V; Instrument: Waters HPLC-QTOF-MS (Xevo G2 QTof); Ionization: ESI; Deconvoluted by MS-DIAL; Column: Waters AtlantisTM premier BEH C18 AX column (2.1 × 100mm x 1.7μm); Flow rate: 0.3mL/min; Mobile phase A and B are water and methnaol, respectively, both with 0.1% formic acid; Gradient elution: from A/B (95/5) to A/B (100/0) in 7min, kept for 4 min, then back to A/B (95/5) in 0.1 min, and maintained for additional 1.9 min (13min in total).; Injection volume: 10 μL
Num peaks: 41
84.94956 458
84.95715 469
84.96217 469
115.04478 106
115.05305 102
115.06245 105
117.01808 367
126.01582 314
126.02268 309
128.05908 157
128.06891 164
135.01889 146
135.02849 141
141.07198 87
151.05145 631
151.06056 650
152.04448 1375
152.06239 1401
152.07896 1388
153.05791 171
153.06366 150
164.06227 103
164.07266 109
165.07104 4135
166.05719 554
166.07585 1022
166.09564 690
167.08208 543
167.09055 560
167.10338 361
176.06337 2281
177.06989 8511
178.07649 2842
179.06764 218
179.08031 260
179.09464 240
193.06274 648
193.07579 671
194.07231 3583
195.08023 8476
195.44106 88
Name: "1,5-Diaminonaphthalene"
PrecursorMZ: 159.0916
PrecursorType: [M+H]+
IonMode: Positive
Formula: C10H10N2
SMILES: C1=CC2=C(C=CC=C2N)C(=C1)N
InChI: 
InChIKey: KQSABULTKYLFEV-UHFFFAOYSA-N
RetentionTime: 0.8633167
CCS: 
CollisionEnergy: 20-40 eV
InstrumentType: UPLC-QTOF-MS
Comment: PI: Cristina Nerin; Data collector: QiZhi Su, GUIA, University of Zaragoza, Spain; Collision energy: 20-40 V; Instrument: Waters HPLC-QTOF-MS (Xevo G2 QTof); Ionization: ESI; Deconvoluted by MS-DIAL; Column: Waters AtlantisTM premier BEH C18 AX column (2.1 × 100mm x 1.7μm); Flow rate: 0.3mL/min; Mobile phase A and B are water and methnaol, respectively, both with 0.1% formic acid; Gradient elution: from A/B (95/5) to A/B (100/0) in 7min, kept for 4 min, then back to A/B (95/5) in 0.1 min, and maintained for additional 1.9 min (13min in total).; Injection volume: 10 μL
Num peaks: 24
89.03815 267
115.05412 15827
116.0407 1481
116.05828 1958
117.04852 967
117.05791 873
118.06616 261
130.06477 1971
131.06471 646
131.07048 653
131.07954 631
132.06523 1798
132.08168 2087
140.04362 242
140.0533 240
141.04716 600
141.06053 604
141.07213 572
142.06482 12365
143.0724 20189
144.07613 1024
157.07869 1559
158.08401 15203
159.09137 15245
Name: "2,4,5-trimethylaniline"
PrecursorMZ: 136.1118
PrecursorType: [M+H]+
IonMode: Positive
Formula: C9H13N
SMILES: CC1=CC(=C(C=C1C)N)C
InChI: 
InChIKey: BMIPMKQAAJKBKP-UHFFFAOYSA-N
RetentionTime: 0.93565
CCS: 
CollisionEnergy: 20-40 eV
InstrumentType: UPLC-QTOF-MS
Comment: PI: Cristina Nerin; Data collector: QiZhi Su, GUIA, University of Zaragoza, Spain; Collision energy: 20-40 V; Instrument: Waters HPLC-QTOF-MS (Xevo G2 QTof); Ionization: ESI; Deconvoluted by MS-DIAL; Column: Waters AtlantisTM premier BEH C18 AX column (2.1 × 100mm x 1.7μm); Flow rate: 0.3mL/min; Mobile phase A and B are water and methnaol, respectively, both with 0.1% formic acid; Gradient elution: from A/B (95/5) to A/B (100/0) in 7min, kept for 4 min, then back to A/B (95/5) in 0.1 min, and maintained for additional 1.9 min (13min in total).; Injection volume: 10 μL
Num peaks: 31
77.03937 1247
78.04173 143
78.05028 143
79.05049 649
79.05479 649
79.06163 649
89.05448 248
89.06255 242
91.05367 11256
103.05552 1010
104.06187 1054
105.06186 121
105.06901 121
106.06627 1402
107.07607 147
115.05239 675
115.05888 678
117.07077 1760
118.06937 167
118.07946 164
119.08506 4500
120.08149 1281
120.09212 1292
121.08755 10466
122.09115 525
134.09151 582
134.09856 587
135.08882 455
135.10132 621
135.10947 604
136.11131 6263
Name: "2,4,5-trimethylaniline"
PrecursorMZ: 136.1116
PrecursorType: [M+H]+
IonMode: Positive
Formula: C9H13N
SMILES: CC1=CC(=C(C=C1C)N)C
InChI: 
InChIKey: BMIPMKQAAJKBKP-UHFFFAOYSA-N
RetentionTime: 2.410417
CCS: 
CollisionEnergy: 20-40 eV
InstrumentType: UPLC-QTOF-MS
Comment: PI: Cristina Nerin; Data collector: QiZhi Su, GUIA, University of Zaragoza, Spain; Collision energy: 20-40 V; Instrument: Waters HPLC-QTOF-MS (Xevo G2 QTof); Ionization: ESI; Deconvoluted by MS-DIAL; Column: Waters AtlantisTM premier BEH C18 AX column (2.1 × 100mm x 1.7μm); Flow rate: 0.3mL/min; Mobile phase A and B are water and methnaol, respectively, both with 0.1% formic acid; Gradient elution: from A/B (95/5) to A/B (100/0) in 7min, kept for 4 min, then back to A/B (95/5) in 0.1 min, and maintained for additional 1.9 min (13min in total).; Injection volume: 10 μL
Num peaks: 38
65.03639 122
77.0392 620
78.03266 173
78.04426 176
79.05415 300
91.05355 4767
91.06279 4769
92.05811 223
93.05595 209
93.07071 215
93.08236 201
103.0379 289
103.04427 426
103.05556 427
104.06115 466
104.06824 465
106.06535 758
106.07217 759
115.05276 274
115.06131 278
117.06918 768
118.06902 108
118.07872 106
118.08685 103
119.07313 1983
119.08553 1984
120.07703 565
120.08324 571
120.091 567
121.08794 4213
122.09022 238
122.10142 235
134.08847 135
134.0975 130
135.08748 85
135.10347 159
135.11862 153
136.11249 2193
Name: Corticosterone
PrecursorMZ: 347.2219
PrecursorType: [M+H]+
IonMode: Positive
Formula: C21H30O4
SMILES: CC12CCC(=O)C=C1CCC3C2C(CC4(C3CCC4C(=O)CO)C)O
InChI: 
InChIKey: OMFXVFTZEKFJBZ-HJTSIMOOSA-N
RetentionTime: 6.1757
CCS: 
CollisionEnergy: 20-40 eV
InstrumentType: UPLC-QTOF-MS
Comment: PI: Cristina Nerin; Data collector: QiZhi Su, GUIA, University of Zaragoza, Spain; Collision energy: 20-40 V; Instrument: Waters HPLC-QTOF-MS (Xevo G2 QTof); Ionization: ESI; Deconvoluted by MS-DIAL; Column: Waters AtlantisTM premier BEH C18 AX column (2.1 × 100mm x 1.7μm); Flow rate: 0.3mL/min; Mobile phase A and B are water and methnaol, respectively, both with 0.1% formic acid; Gradient elution: from A/B (95/5) to A/B (100/0) in 7min, kept for 4 min, then back to A/B (95/5) in 0.1 min, and maintained for additional 1.9 min (13min in total).; Injection volume: 10 μL
Num peaks: 95
79.05333 941
81.06705 1150
81.07281 1217
83.04973 1203
91.05226 1084
91.05894 1086
93.07053 2086
95.07336 1874
95.08606 1864
97.0648 5037
101.06147 789
105.05251 2499
105.06993 2466
107.08656 2487
109.05855 2221
109.06548 2231
117.05707 683
117.06791 754
117.07771 750
119.08617 2519
121.06408 12561
121.0976 734
121.10435 734
122.059 667
122.0695 670
122.08175 669
123.08057 4621
129.05792 633
129.07007 641
131.08659 2122
133.10202 2410
133.12094 2038
135.0804 2190
135.08833 2193
143.0842 1820
143.09219 1822
145.10107 3007
147.07999 1198
147.09085 1197
147.10515 1520
147.11856 1429
149.09947 722
155.0873 819
157.10187 2562
157.11171 2555
159.1169 1990
161.09756 1070
163.11299 2279
169.10349 1497
171.11867 2355
173.08904 722
173.10091 725
173.12726 777
173.13594 772
175.11258 1582
181.08861 629
181.10237 667
181.11618 620
183.09776 650
183.11519 1082
183.12199 1077
185.1153 794
185.12563 986
185.13477 1003
187.10439 842
187.11455 949
187.12958 1011
189.11655 831
189.12997 910
193.12352 619
195.11859 909
197.13553 1185
201.12436 618
201.14316 618
209.13293 849
209.14166 857
211.14243 1068
211.15672 1003
223.15004 704
229.16092 801
235.14581 665
235.15929 651
241.16089 753
251.17407 748
251.1882 712
253.16014 1032
253.17239 1056
269.1937 1166
275.1738 582
293.19061 2556
311.20178 2743
311.2142 2743
329.21191 7910
330.21472 1129
347.22174 57180
Name: Corticosterone
PrecursorMZ: 693.4366
PrecursorType: [2M+H]+
IonMode: Positive
Formula: C21H30O4
SMILES: CC12CCC(=O)C=C1CCC3C2C(CC4(C3CCC4C(=O)CO)C)O
InChI: 
InChIKey: OMFXVFTZEKFJBZ-HJTSIMOOSA-N
RetentionTime: 6.1757
CCS: 
CollisionEnergy: 20-40 eV
InstrumentType: UPLC-QTOF-MS
Comment: PI: Cristina Nerin; Data collector: QiZhi Su, GUIA, University of Zaragoza, Spain; Collision energy: 20-40 V; Instrument: Waters HPLC-QTOF-MS (Xevo G2 QTof); Ionization: ESI; Deconvoluted by MS-DIAL; Column: Waters AtlantisTM premier BEH C18 AX column (2.1 × 100mm x 1.7μm); Flow rate: 0.3mL/min; Mobile phase A and B are water and methnaol, respectively, both with 0.1% formic acid; Gradient elution: from A/B (95/5) to A/B (100/0) in 7min, kept for 4 min, then back to A/B (95/5) in 0.1 min, and maintained for additional 1.9 min (13min in total).; Injection volume: 10 μL
Num peaks: 112
79.05333 941
81.06705 1150
81.07281 1217
83.04973 1203
91.05226 1084
91.05894 1086
93.07053 2086
95.07336 1874
95.08606 1864
97.0648 5037
101.06147 789
105.05251 2499
105.06993 2466
107.08656 2487
109.05855 2221
109.06548 2231
117.05707 683
117.06791 754
117.07771 750
119.08617 2519
121.06408 12561
121.0976 734
121.10435 734
122.059 667
122.0695 670
122.08175 669
123.08057 4621
129.05792 633
129.07007 641
131.08659 2122
133.10202 2410
133.12094 2038
135.0804 2190
135.08833 2193
135.11349 551
135.12048 547
143.0842 1820
143.09219 1822
145.10107 3007
147.07999 1198
147.09085 1197
147.10515 1520
147.11856 1429
149.09947 722
155.0873 819
157.10187 2562
157.11171 2555
159.08133 570
159.1169 1990
161.09756 1070
163.11299 2279
169.10349 1497
171.11867 2355
173.08904 722
173.10091 725
173.12726 777
173.13594 772
175.11258 1582
181.08861 629
181.10237 667
181.11618 620
183.09776 650
183.11519 1082
183.12199 1077
185.1153 794
185.12563 986
185.13477 1003
187.10439 842
187.11455 949
187.12958 1011
189.11655 831
189.12997 910
193.10403 561
193.12352 619
195.11859 909
197.13553 1185
201.12436 618
201.14316 618
209.13293 849
209.14166 857
211.14243 1068
211.15672 1003
223.15004 704
229.16092 801
235.14581 665
235.15929 651
241.16089 753
251.17407 748
251.1882 712
253.16014 1032
253.17239 1056
265.16953 551
265.18726 554
269.1937 1166
275.1738 582
275.18649 571
281.18863 552
293.19061 2556
311.20178 2743
311.2142 2743
329.21191 7910
330.21472 1129
347.22174 53618
348.22629 8162
349.22131 627
349.24075 647
369.20688 2116
431.17728 1942
539.2948 3147
539.31091 3147
539.79346 1609
539.8136 1769
Name: 9-Fluorenone
PrecursorMZ: 181.0648
PrecursorType: [M+H]+
IonMode: Positive
Formula: C13H8O
SMILES: C1=CC=C2C(=C1)C3=CC=CC=C3C2=O
InChI: 
InChIKey: YLQWCDOCJODRMT-UHFFFAOYSA-N
RetentionTime: 6.614
CCS: 
CollisionEnergy: 20-40 eV
InstrumentType: UPLC-QTOF-MS
Comment: PI: Cristina Nerin; Data collector: QiZhi Su, GUIA, University of Zaragoza, Spain; Collision energy: 20-40 V; Instrument: Waters HPLC-QTOF-MS (Xevo G2 QTof); Ionization: ESI; Deconvoluted by MS-DIAL; Column: Waters AtlantisTM premier BEH C18 AX column (2.1 × 100mm x 1.7μm); Flow rate: 0.3mL/min; Mobile phase A and B are water and methnaol, respectively, both with 0.1% formic acid; Gradient elution: from A/B (95/5) to A/B (100/0) in 7min, kept for 4 min, then back to A/B (95/5) in 0.1 min, and maintained for additional 1.9 min (13min in total).; Injection volume: 10 μL
Num peaks: 215
51.44117 26
55.0537 27
55.05826 67
56.95756 25
57.35926 37
59.0212 39
59.51042 28
60.07976 62
62.98956 29
67.05576 28
67.05954 64
67.50169 37
69.06067 42
69.07023 86
69.07619 35
69.98615 43
70.97784 49
71.04829 71
71.08232 34
71.08752 29
71.45492 28
72.02497 35
73.02984 49
73.06235 29
73.2948 34
74.97603 69
75.024 26
75.02966 42
79.05266 65
79.05697 105
81.00565 25
81.06953 156
81.51491 40
82.07023 27
83.04305 29
83.04693 65
83.08698 49
84.04966 57
84.95967 327
84.9664 279
85.02238 29
85.06763 48
87.05009 26
87.07268 28
88.94681 26
88.95415 25
90.87499 28
91.05496 288
93.06937 79
93.07655 53
93.62456 36
94.07436 107
95.04917 46
95.07626 28
95.08711 146
96.02177 30
96.05591 45
97.00094 28
97.06151 25
97.06849 100
97.09628 99
98.09911 30
98.9781 96
100.93893 41
101.06071 56
101.0669 42
102.87164 33
103.05683 25
104.11288 26
105.06693 52
106.07429 28
106.55029 33
107.04726 28
107.08327 114
107.08995 124
107.09698 39
107.51962 49
109.05845 26
109.06697 25
110.01034 1402
110.50974 183
111.01201 89
111.03609 71
111.04765 45
111.1194 60
111.21616 25
113.00604 52
113.38116 30
114.95056 32
114.95883 27
116.04808 44
117.0232 26
117.06216 29
118.9977 30
119.0145 2459
119.02553 211
119.07447 27
119.08559 158
119.51322 197
119.51838 91
121.01332 27
121.06518 80
121.09409 46
121.10683 205
122.05787 41
122.07508 29
123.01159 28
123.03736 25
123.08672 98
123.12073 68
125.06174 45
125.09413 50
126.02528 54
126.04887 42
127.07868 31
128.0182 1244
128.52118 69
130.07578 40
131.08545 243
133.09811 187
134.1013 26
135.01094 29
135.0247 47
135.05023 56
135.08211 177
135.09206 27
135.10483 43
137.00996 42
137.0266 649
137.03841 82
137.04642 33
137.10266 27
137.52205 68
137.53857 45
138.97243 28
138.99133 30
140.02036 119
140.98651 30
141.01064 25
143.0815 67
145.10301 161
145.11443 54
146.02638 54
146.53911 25
147.04608 34
147.08511 43
149.01743 97
149.03336 25
149.06741 38
149.10161 58
149.21028 33
150.04637 27
150.9756 29
151.03711 89
151.04791 88
151.06346 79
151.07265 57
151.08223 30
152.05919 406
152.0668 428
153.0652 160
153.07323 106
153.1012 54
153.11163 34
154.0732 104
154.5556 28
156.08983 26
156.19011 33
157.09645 25
157.74973 37
159.11336 27
159.12204 116
160.03952 52
162.06055 27
162.57642 29
162.99559 42
163.05972 25
163.11314 45
165.05272 55
165.07285 94
166.07289 42
166.08549 48
166.22755 35
166.54572 33
166.56425 45
167.04149 26
167.14931 44
167.99347 41
168.03406 25
169.02734 81
170.10736 28
170.14148 26
171.12854 42
172.11829 25
173.12979 42
173.13924 48
174.03886 31
174.38535 26
175.04225 34
175.08357 68
175.11508 49
176.0808 37
176.15503 33
176.58249 27
176.99104 27
177.07269 31
177.13261 30
179.11052 75
179.14342 32
180.0352 26
180.05852 1490
181.05962 421
181.06876 312
181.08139 106
181.47768 28
Name: Benzanthrone
PrecursorMZ: 231.0803
PrecursorType: [M+H]+
IonMode: Positive
Formula: C17H10O
SMILES: C1=CC=C2C(=C1)C3=CC=CC4=C3C(=CC=C4)C2=O
InChI: 
InChIKey: HUKPVYBUJRAUAG-UHFFFAOYSA-N
RetentionTime: 7.238867
CCS: 
CollisionEnergy: 20-40 eV
InstrumentType: UPLC-QTOF-MS
Comment: PI: Cristina Nerin; Data collector: QiZhi Su, GUIA, University of Zaragoza, Spain; Collision energy: 20-40 V; Instrument: Waters HPLC-QTOF-MS (Xevo G2 QTof); Ionization: ESI; Deconvoluted by MS-DIAL; Column: Waters AtlantisTM premier BEH C18 AX column (2.1 × 100mm x 1.7μm); Flow rate: 0.3mL/min; Mobile phase A and B are water and methnaol, respectively, both with 0.1% formic acid; Gradient elution: from A/B (95/5) to A/B (100/0) in 7min, kept for 4 min, then back to A/B (95/5) in 0.1 min, and maintained for additional 1.9 min (13min in total).; Injection volume: 10 μL
Num peaks: 5
201.07172 1330
202.07753 66912
203.08356 21654
204.09 1716
231.08018 92480
Name: Benzanthrone
PrecursorMZ: 253.0622
PrecursorType: [M+Na]+
IonMode: Positive
Formula: C17H10O
SMILES: C1=CC=C2C(=C1)C3=CC=CC4=C3C(=CC=C4)C2=O
InChI: 
InChIKey: HUKPVYBUJRAUAG-UHFFFAOYSA-N
RetentionTime: 7.238867
CCS: 
CollisionEnergy: 20-40 eV
InstrumentType: UPLC-QTOF-MS
Comment: PI: Cristina Nerin; Data collector: QiZhi Su, GUIA, University of Zaragoza, Spain; Collision energy: 20-40 V; Instrument: Waters HPLC-QTOF-MS (Xevo G2 QTof); Ionization: ESI; Deconvoluted by MS-DIAL; Column: Waters AtlantisTM premier BEH C18 AX column (2.1 × 100mm x 1.7μm); Flow rate: 0.3mL/min; Mobile phase A and B are water and methnaol, respectively, both with 0.1% formic acid; Gradient elution: from A/B (95/5) to A/B (100/0) in 7min, kept for 4 min, then back to A/B (95/5) in 0.1 min, and maintained for additional 1.9 min (13min in total).; Injection volume: 10 μL
Num peaks: 8
201.07172 1330
202.07753 66912
203.08356 21654
204.09 1716
231.08018 92762
232.08293 13257
250.05374 10963
250.55377 3246
Name: Benzanthrone
PrecursorMZ: 483.1381
PrecursorType: [2M+Na]+
IonMode: Positive
Formula: C17H10O
SMILES: C1=CC=C2C(=C1)C3=CC=CC4=C3C(=CC=C4)C2=O
InChI: 
InChIKey: HUKPVYBUJRAUAG-UHFFFAOYSA-N
RetentionTime: 7.242667
CCS: 
CollisionEnergy: 20-40 eV
InstrumentType: UPLC-QTOF-MS
Comment: PI: Cristina Nerin; Data collector: QiZhi Su, GUIA, University of Zaragoza, Spain; Collision energy: 20-40 V; Instrument: Waters HPLC-QTOF-MS (Xevo G2 QTof); Ionization: ESI; Deconvoluted by MS-DIAL; Column: Waters AtlantisTM premier BEH C18 AX column (2.1 × 100mm x 1.7μm); Flow rate: 0.3mL/min; Mobile phase A and B are water and methnaol, respectively, both with 0.1% formic acid; Gradient elution: from A/B (95/5) to A/B (100/0) in 7min, kept for 4 min, then back to A/B (95/5) in 0.1 min, and maintained for additional 1.9 min (13min in total).; Injection volume: 10 μL
Num peaks: 14
201.07095 1330
202.07733 66924
203.08377 21668
204.08087 1670
204.08905 1714
204.09781 1706
231.08049 92752
232.08379 13268
250.05428 10961
250.55629 3246
365.0889 2946
365.10223 2924
365.58228 1172
365.599 1359
Name: Sulfanilamide
PrecursorMZ: 173.0382
PrecursorType: [M+H]+
IonMode: Positive
Formula: C6H8N2O2S
SMILES: C1=CC(=CC=C1N)S(=O)(=O)N
InChI: 
InChIKey: FDDDEECHVMSUSB-UHFFFAOYSA-N
RetentionTime: 0.9204167
CCS: 
CollisionEnergy: 20-40 eV
InstrumentType: UPLC-QTOF-MS
Comment: PI: Cristina Nerin; Data collector: QiZhi Su, GUIA, University of Zaragoza, Spain; Collision energy: 20-40 V; Instrument: Waters HPLC-QTOF-MS (Xevo G2 QTof); Ionization: ESI; Deconvoluted by MS-DIAL; Column: Waters AtlantisTM premier BEH C18 AX column (2.1 × 100mm x 1.7μm); Flow rate: 0.3mL/min; Mobile phase A and B are water and methnaol, respectively, both with 0.1% formic acid; Gradient elution: from A/B (95/5) to A/B (100/0) in 7min, kept for 4 min, then back to A/B (95/5) in 0.1 min, and maintained for additional 1.9 min (13min in total).; Injection volume: 10 μL
Num peaks: 57
65.0386 3188
66.02937 212
66.03742 217
66.0433 217
66.05199 190
75.02552 94
75.03201 94
76.02582 68
76.03386 68
78.043 81
78.04955 81
79.04931 65
79.05567 65
80.04834 637
89.04083 56
91.05405 1227
92.04953 4125
92.06783 4116
93.05782 1500
93.07013 1498
93.07747 852
101.06796 53
101.07692 53
103.05532 69
104.05588 137
104.06223 130
104.06819 141
106.05201 288
106.06326 296
106.06863 296
107.05581 113
107.06622 108
108.04485 1296
108.06364 1221
108.07102 97
109.04855 116
110.06248 44
115.05359 104
117.05113 235
117.06745 157
117.07347 160
119.08283 536
119.08845 526
120.08196 103
120.0953 83
120.1059 75
121.08804 698
136.11197 307
137.09767 81
137.11592 56
156.00516 271
156.01561 278
158.07005 69
158.08026 57
158.09117 52
173.02992 99
173.03775 230
Name: N-[3-(Dimethylamino)propyl]dodecanamide
PrecursorMZ: 285.2906
PrecursorType: [M+H]+
IonMode: Positive
Formula: C17H36N2O
SMILES: CCCCCCCCCCCC(=O)NCCCN(C)C
InChI: 
InChIKey: TWMFGCHRALXDAR-UHFFFAOYSA-N
RetentionTime: 4.72678
CCS: 
CollisionEnergy: 20-40 eV
InstrumentType: UPLC-QTOF-MS
Comment: PI: Cristina Nerin; Data collector: QiZhi Su, GUIA, University of Zaragoza, Spain; Collision energy: 20-40 V; Instrument: Waters HPLC-QTOF-MS (Xevo G2 QTof); Ionization: ESI; Deconvoluted by MS-DIAL; Column: Waters AtlantisTM premier BEH C18 AX column (2.1 × 100mm x 1.7μm); Flow rate: 0.3mL/min; Mobile phase A and B are water and methnaol, respectively, both with 0.1% formic acid; Gradient elution: from A/B (95/5) to A/B (100/0) in 7min, kept for 4 min, then back to A/B (95/5) in 0.1 min, and maintained for additional 1.9 min (13min in total).; Injection volume: 10 μL
Num peaks: 19
57.07115 133
58.06208 114
58.07518 112
71.08246 309
71.08655 309
71.09114 313
85.10004 295
85.10719 290
86.09563 192
86.10315 192
95.08125 463
95.08706 463
97.10372 109
109.09617 198
109.10544 205
183.17677 370
240.23262 10555
241.23784 1055
285.29315 254
Name: N-[3-(Dimethylamino)propyl]dodecanamide
PrecursorMZ: 285.292
PrecursorType: [M+H]+
IonMode: Positive
Formula: C17H36N2O
SMILES: CCCCCCCCCCCC(=O)NCCCN(C)C
InChI: 
InChIKey: TWMFGCHRALXDAR-UHFFFAOYSA-N
RetentionTime: 4.917892
CCS: 
CollisionEnergy: 20-40 eV
InstrumentType: UPLC-QTOF-MS
Comment: PI: Cristina Nerin; Data collector: QiZhi Su, GUIA, University of Zaragoza, Spain; Collision energy: 20-40 V; Instrument: Waters HPLC-QTOF-MS (Xevo G2 QTof); Ionization: ESI; Deconvoluted by MS-DIAL; Column: Waters AtlantisTM premier BEH C18 AX column (2.1 × 100mm x 1.7μm); Flow rate: 0.3mL/min; Mobile phase A and B are water and methnaol, respectively, both with 0.1% formic acid; Gradient elution: from A/B (95/5) to A/B (100/0) in 7min, kept for 4 min, then back to A/B (95/5) in 0.1 min, and maintained for additional 1.9 min (13min in total).; Injection volume: 10 μL
Num peaks: 15
57.06901 1267
71.08469 1831
71.09164 1831
81.064 853
81.06886 854
81.07395 855
85.08643 1767
85.10122 1767
86.09693 1172
95.08636 2861
109.10225 2071
183.17599 3098
240.23212 78125
241.23578 10274
285.29062 2754
Name: N-[3-(Dimethylamino)propyl]dodecanamide
PrecursorMZ: 307.2731
PrecursorType: [M+Na]+
IonMode: Positive
Formula: C17H36N2O
SMILES: CCCCCCCCCCCC(=O)NCCCN(C)C
InChI: 
InChIKey: TWMFGCHRALXDAR-UHFFFAOYSA-N
RetentionTime: 4.91795
CCS: 
CollisionEnergy: 20-40 eV
InstrumentType: UPLC-QTOF-MS
Comment: PI: Cristina Nerin; Data collector: QiZhi Su, GUIA, University of Zaragoza, Spain; Collision energy: 20-40 V; Instrument: Waters HPLC-QTOF-MS (Xevo G2 QTof); Ionization: ESI; Deconvoluted by MS-DIAL; Column: Waters AtlantisTM premier BEH C18 AX column (2.1 × 100mm x 1.7μm); Flow rate: 0.3mL/min; Mobile phase A and B are water and methnaol, respectively, both with 0.1% formic acid; Gradient elution: from A/B (95/5) to A/B (100/0) in 7min, kept for 4 min, then back to A/B (95/5) in 0.1 min, and maintained for additional 1.9 min (13min in total).; Injection volume: 10 μL
Num peaks: 16
57.06963 8580
71.08498 14247
81.06931 5787
81.07465 5786
83.08471 5448
85.1006 13135
86.09633 9051
95.08498 24589
109.10065 16512
183.17456 24492
240.23285 438106
241.23602 69790
242.23985 4700
242.2516 4686
285.29056 18578
307.27225 26175
Name: Toluene diisocyanate
PrecursorMZ: 175.0505
PrecursorType: [M+H]+
IonMode: Positive
Formula: C9H6N2O2
SMILES: CC1=C(C=C(C=C1)N=C=O)N=C=O
InChI: 
InChIKey: DVKJHBMWWAPEIU-UHFFFAOYSA-N
RetentionTime: 4.670433
CCS: 
CollisionEnergy: 20-40 eV
InstrumentType: UPLC-QTOF-MS
Comment: PI: Cristina Nerin; Data collector: QiZhi Su, GUIA, University of Zaragoza, Spain; Collision energy: 20-40 V; Instrument: Waters HPLC-QTOF-MS (Xevo G2 QTof); Ionization: ESI; Deconvoluted by MS-DIAL; Column: Waters AtlantisTM premier BEH C18 AX column (2.1 × 100mm x 1.7μm); Flow rate: 0.3mL/min; Mobile phase A and B are water and methnaol, respectively, both with 0.1% formic acid; Gradient elution: from A/B (95/5) to A/B (100/0) in 7min, kept for 4 min, then back to A/B (95/5) in 0.1 min, and maintained for additional 1.9 min (13min in total).; Injection volume: 10 μL
Num peaks: 48
70.98095 817
77.03789 6204
78.03242 1076
78.03977 1085
78.04706 1089
79.04197 465
79.04601 493
79.05414 496
91.04371 1184
91.05455 1176
92.04906 5838
92.06261 5854
93.05124 821
93.05839 852
93.07189 729
104.04881 8498
105.03819 492
105.05139 641
105.06047 547
119.05801 1203
119.06611 1183
119.07426 1132
120.04346 6241
120.07034 725
120.07833 763
120.08965 673
121.04427 644
121.05922 924
121.06725 861
121.07719 601
123.01402 3509
132.01985 1428
132.04358 18937
133.04706 1056
139.02731 4718
141.0271 740
141.04428 754
147.05449 45363
148.03363 1934
148.04237 4429
148.05527 3706
148.06342 2843
149.04678 4846
160.01779 612
160.02754 617
160.03435 613
164.0706 1418
175.04947 34973
Name: N-[3-(Dimethylamino)propyl]dodecanamide
PrecursorMZ: 591.5566
PrecursorType: [2M+Na]+
IonMode: Positive
Formula: C17H36N2O
SMILES: CCCCCCCCCCCC(=O)NCCCN(C)C
InChI: 
InChIKey: TWMFGCHRALXDAR-UHFFFAOYSA-N
RetentionTime: 4.731417
CCS: 
CollisionEnergy: 20-40 eV
InstrumentType: UPLC-QTOF-MS
Comment: PI: Cristina Nerin; Data collector: QiZhi Su, GUIA, University of Zaragoza, Spain; Collision energy: 20-40 V; Instrument: Waters HPLC-QTOF-MS (Xevo G2 QTof); Ionization: ESI; Deconvoluted by MS-DIAL; Column: Waters AtlantisTM premier BEH C18 AX column (2.1 × 100mm x 1.7μm); Flow rate: 0.3mL/min; Mobile phase A and B are water and methnaol, respectively, both with 0.1% formic acid; Gradient elution: from A/B (95/5) to A/B (100/0) in 7min, kept for 4 min, then back to A/B (95/5) in 0.1 min, and maintained for additional 1.9 min (13min in total).; Injection volume: 10 μL
Num peaks: 15
57.06906 3256
71.08464 5755
71.09339 5764
81.06944 1829
81.08153 1827
83.08552 2016
85.10078 5491
86.09675 3320
95.08463 9620
109.10107 6057
183.1745 9522
240.23244 168818
241.23587 27856
285.29041 7245
307.27216 6716
Name: N-[3-(Dimethylamino)propyl]dodecanamide
PrecursorMZ: 591.5582
PrecursorType: [2M+Na]+
IonMode: Positive
Formula: C17H36N2O
SMILES: CCCCCCCCCCCC(=O)NCCCN(C)C
InChI: 
InChIKey: TWMFGCHRALXDAR-UHFFFAOYSA-N
RetentionTime: 4.917878
CCS: 
CollisionEnergy: 20-40 eV
InstrumentType: UPLC-QTOF-MS
Comment: PI: Cristina Nerin; Data collector: QiZhi Su, GUIA, University of Zaragoza, Spain; Collision energy: 20-40 V; Instrument: Waters HPLC-QTOF-MS (Xevo G2 QTof); Ionization: ESI; Deconvoluted by MS-DIAL; Column: Waters AtlantisTM premier BEH C18 AX column (2.1 × 100mm x 1.7μm); Flow rate: 0.3mL/min; Mobile phase A and B are water and methnaol, respectively, both with 0.1% formic acid; Gradient elution: from A/B (95/5) to A/B (100/0) in 7min, kept for 4 min, then back to A/B (95/5) in 0.1 min, and maintained for additional 1.9 min (13min in total).; Injection volume: 10 μL
Num peaks: 14
57.06904 5028
71.08499 8221
81.06944 2942
83.0853 3016
85.10058 7409
86.09578 5193
95.08525 13490
109.10122 9171
109.11621 9184
183.17451 13793
240.23236 274653
241.23578 43155
285.28983 11566
307.27338 8156
Name: Dibutyl phosphate
PrecursorMZ: 211.1102
PrecursorType: [M+H]+
IonMode: Positive
Formula: C8H19O4P
SMILES: CCCCOP(=O)(O)OCCCC
InChI: 
InChIKey: JYFHYPJRHGVZDY-UHFFFAOYSA-N
RetentionTime: 7.250367
CCS: 
CollisionEnergy: 20-40 eV
InstrumentType: UPLC-QTOF-MS
Comment: PI: Cristina Nerin; Data collector: QiZhi Su, GUIA, University of Zaragoza, Spain; Collision energy: 20-40 V; Instrument: Waters HPLC-QTOF-MS (Xevo G2 QTof); Ionization: ESI; Deconvoluted by MS-DIAL; Column: Waters AtlantisTM premier BEH C18 AX column (2.1 × 100mm x 1.7μm); Flow rate: 0.3mL/min; Mobile phase A and B are water and methnaol, respectively, both with 0.1% formic acid; Gradient elution: from A/B (95/5) to A/B (100/0) in 7min, kept for 4 min, then back to A/B (95/5) in 0.1 min, and maintained for additional 1.9 min (13min in total).; Injection volume: 10 μL
Num peaks: 11
80.96339 362
80.9734 367
80.98174 360
98.98376 14939
118.92467 182
136.92767 662
136.93584 662
136.9438 649
155.04684 314
192.99557 547
211.11432 170
Name: "1,4-diazabicyclo[2.2.2]octane"
PrecursorMZ: 113.1066
PrecursorType: [M+H]+
IonMode: Positive
Formula: C6H12N2
SMILES: C1CN2CCN1CC2
InChI: 
InChIKey: IMNIMPAHZVJRPE-UHFFFAOYSA-N
RetentionTime: 0.53215
CCS: 
CollisionEnergy: 20-40 eV
InstrumentType: UPLC-QTOF-MS
Comment: PI: Cristina Nerin; Data collector: QiZhi Su, GUIA, University of Zaragoza, Spain; Collision energy: 20-40 V; Instrument: Waters HPLC-QTOF-MS (Xevo G2 QTof); Ionization: ESI; Deconvoluted by MS-DIAL; Column: Waters AtlantisTM premier BEH C18 AX column (2.1 × 100mm x 1.7μm); Flow rate: 0.3mL/min; Mobile phase A and B are water and methnaol, respectively, both with 0.1% formic acid; Gradient elution: from A/B (95/5) to A/B (100/0) in 7min, kept for 4 min, then back to A/B (95/5) in 0.1 min, and maintained for additional 1.9 min (13min in total).; Injection volume: 10 μL
Num peaks: 45
54.6658 24
56.04357 24
58.06405 21
61.00917 76
66.02292 21
66.98682 104
67.0426 30
68.85851 24
69.04993 34
70.06047 51
70.0671 346
72.07935 20
72.99692 40
73.04851 105
75.0429 20
75.04938 24
79.01442 24
80.04738 21
82.06227 41
82.06734 30
83.06226 23
83.07175 56
84.0616 40
84.07629 194
84.08128 301
84.08572 226
84.96375 56
85.0918 29
85.25236 27
86.06865 38
96.08068 20
97.07665 153
98.05994 20
98.08881 26
98.0978 22
100.07716 56
102.93592 20
106.61003 22
111.08575 23
112.06981 68
112.09834 811
112.10509 274
113.08533 33
113.10312 173
113.11156 271
Name: Oleamide
PrecursorMZ: 282.2798
PrecursorType: [M+H]+
IonMode: Positive
Formula: C18H35NO
SMILES: CCCCCCCCC=CCCCCCCCC(=O)N
InChI: 
InChIKey: FATBGEAMYMYZAF-KTKRTIGZSA-N
RetentionTime: 8.222116
CCS: 
CollisionEnergy: 20-40 eV
InstrumentType: UPLC-QTOF-MS
Comment: PI: Cristina Nerin; Data collector: QiZhi Su, GUIA, University of Zaragoza, Spain; Collision energy: 20-40 V; Instrument: Waters HPLC-QTOF-MS (Xevo G2 QTof); Ionization: ESI; Deconvoluted by MS-DIAL; Column: Waters AtlantisTM premier BEH C18 AX column (2.1 × 100mm x 1.7μm); Flow rate: 0.3mL/min; Mobile phase A and B are water and methnaol, respectively, both with 0.1% formic acid; Gradient elution: from A/B (95/5) to A/B (100/0) in 7min, kept for 4 min, then back to A/B (95/5) in 0.1 min, and maintained for additional 1.9 min (13min in total).; Injection volume: 10 μL
Num peaks: 57
55.04671 2073
55.05441 2073
57.05857 2171
57.06947 2165
67.05432 2944
69.06895 24081
71.06886 4193
71.08479 3897
72.0819 1474
72.08952 1464
79.05111 2242
79.05592 2242
81.06872 11391
83.08441 24729
85.08249 2661
85.10035 2564
85.10789 2554
86.05846 2224
93.05462 5299
93.06921 5291
95.08456 13732
97.06441 4736
97.10037 23154
100.07556 5611
107.08501 5469
109.10034 7483
111.07962 4218
111.1161 7863
114.09081 5835
121.10068 9016
123.11729 2982
123.13667 1786
125.09543 2963
125.13171 1379
128.10577 3357
128.1116 3359
135.11653 11636
137.13297 1606
139.11148 2109
142.12096 1687
142.13139 1683
149.13174 7602
151.14322 1432
151.15338 1427
153.12718 1233
156.13042 1215
156.13895 1215
160.61714 3047
163.14738 4026
165.16356 1274
177.16463 2223
191.1796 1829
247.24155 24065
248.24496 2785
265.25183 22781
266.25577 2598
282.27838 119250
Name: Oleamide
PrecursorMZ: 304.2616
PrecursorType: [M+Na]+
IonMode: Positive
Formula: C18H35NO
SMILES: CCCCCCCCC=CCCCCCCCC(=O)N
InChI: 
InChIKey: FATBGEAMYMYZAF-KTKRTIGZSA-N
RetentionTime: 8.222116
CCS: 
CollisionEnergy: 20-40 eV
InstrumentType: UPLC-QTOF-MS
Comment: PI: Cristina Nerin; Data collector: QiZhi Su, GUIA, University of Zaragoza, Spain; Collision energy: 20-40 V; Instrument: Waters HPLC-QTOF-MS (Xevo G2 QTof); Ionization: ESI; Deconvoluted by MS-DIAL; Column: Waters AtlantisTM premier BEH C18 AX column (2.1 × 100mm x 1.7μm); Flow rate: 0.3mL/min; Mobile phase A and B are water and methnaol, respectively, both with 0.1% formic acid; Gradient elution: from A/B (95/5) to A/B (100/0) in 7min, kept for 4 min, then back to A/B (95/5) in 0.1 min, and maintained for additional 1.9 min (13min in total).; Injection volume: 10 μL
Num peaks: 62
55.04671 2073
55.05441 2073
57.05857 2171
57.06947 2165
67.05432 2944
69.06895 24081
71.06886 4193
71.08479 3897
72.0819 1474
72.08952 1464
79.05111 2242
79.05592 2242
81.06872 11391
83.08441 24729
85.08249 2661
85.10035 2564
85.10789 2554
86.05846 2224
93.05462 5299
93.06921 5291
95.08456 13732
97.06441 4736
97.10037 23154
100.07556 5611
107.08501 5469
109.10034 7483
111.07962 4218
111.1161 7863
114.09081 5835
121.10068 9016
123.11729 2982
123.13667 1786
125.09543 2963
125.13171 1379
128.10577 3357
128.1116 3359
135.11653 11636
137.13297 1606
139.11148 2109
142.12096 1687
142.13139 1683
149.13174 7602
151.14322 1432
151.15338 1427
153.12718 1233
156.13042 1215
156.13895 1215
160.61714 3047
163.14738 4026
165.16356 1274
177.16463 2223
191.1796 1829
247.24155 24065
248.24496 2785
265.25183 22781
266.25577 2598
282.27838 115924
283.28214 19111
301.25128 55864
301.75314 20462
302.25583 3690
304.26074 11651
Name: Oleamide
PrecursorMZ: 563.5519
PrecursorType: [2M+H]+
IonMode: Positive
Formula: C18H35NO
SMILES: CCCCCCCCC=CCCCCCCCC(=O)N
InChI: 
InChIKey: FATBGEAMYMYZAF-KTKRTIGZSA-N
RetentionTime: 8.222116
CCS: 
CollisionEnergy: 20-40 eV
InstrumentType: UPLC-QTOF-MS
Comment: PI: Cristina Nerin; Data collector: QiZhi Su, GUIA, University of Zaragoza, Spain; Collision energy: 20-40 V; Instrument: Waters HPLC-QTOF-MS (Xevo G2 QTof); Ionization: ESI; Deconvoluted by MS-DIAL; Column: Waters AtlantisTM premier BEH C18 AX column (2.1 × 100mm x 1.7μm); Flow rate: 0.3mL/min; Mobile phase A and B are water and methnaol, respectively, both with 0.1% formic acid; Gradient elution: from A/B (95/5) to A/B (100/0) in 7min, kept for 4 min, then back to A/B (95/5) in 0.1 min, and maintained for additional 1.9 min (13min in total).; Injection volume: 10 μL
Num peaks: 69
55.04671 2073
55.05441 2073
57.05857 2095
57.06947 2061
67.05432 2884
69.06895 24081
71.06886 4193
71.08479 3897
72.0819 1471
72.08952 1462
79.05111 2140
79.05592 2139
81.06872 11206
83.08441 24729
85.08249 2663
85.10035 2569
85.10789 2560
86.05846 2224
93.05462 5167
93.06921 5115
95.08456 13550
97.06441 4736
97.10037 23289
100.07556 5508
107.08501 5437
109.10034 7371
111.07962 4218
111.1161 7727
114.09081 5870
121.10068 8919
123.11729 3099
123.13667 1764
125.09543 3034
125.13171 1379
128.10577 3310
128.1116 3312
135.11653 11822
137.13297 1576
139.11148 2110
142.12096 1573
142.13139 1570
149.13174 7774
151.14322 1496
151.15338 1491
153.12718 1320
156.13042 1215
156.13895 1215
160.61714 3040
163.14738 3922
165.16356 1362
177.16463 2312
191.1796 1887
247.24155 24956
248.24496 2891
265.25183 23416
266.25577 2643
282.27838 115903
283.28214 19207
293.26294 1201
301.25128 57097
301.75314 20895
302.25583 3850
304.26074 8975
320.23993 1273
366.23077 3005
366.24786 2939
441.88654 26620
442.38873 15129
442.88873 4132
Name: Oleamide
PrecursorMZ: 585.535
PrecursorType: [2M+Na]+
IonMode: Positive
Formula: C18H35NO
SMILES: CCCCCCCCC=CCCCCCCCC(=O)N
InChI: 
InChIKey: FATBGEAMYMYZAF-KTKRTIGZSA-N
RetentionTime: 8.222116
CCS: 
CollisionEnergy: 20-40 eV
InstrumentType: UPLC-QTOF-MS
Comment: PI: Cristina Nerin; Data collector: QiZhi Su, GUIA, University of Zaragoza, Spain; Collision energy: 20-40 V; Instrument: Waters HPLC-QTOF-MS (Xevo G2 QTof); Ionization: ESI; Deconvoluted by MS-DIAL; Column: Waters AtlantisTM premier BEH C18 AX column (2.1 × 100mm x 1.7μm); Flow rate: 0.3mL/min; Mobile phase A and B are water and methnaol, respectively, both with 0.1% formic acid; Gradient elution: from A/B (95/5) to A/B (100/0) in 7min, kept for 4 min, then back to A/B (95/5) in 0.1 min, and maintained for additional 1.9 min (13min in total).; Injection volume: 10 μL
Num peaks: 72
55.04671 2073
55.05441 2073
57.05857 2167
57.06947 2134
67.05432 3012
69.06895 24081
71.06886 4193
71.08479 3897
72.0819 1469
72.08952 1462
79.05111 2232
79.05592 2232
81.06872 11506
83.08441 24729
85.08249 2663
85.10035 2569
85.10789 2560
86.05846 2224
93.05462 5299
93.06921 5291
95.08456 13904
97.06441 4736
97.10037 23337
100.07556 5539
107.08501 5469
109.10034 7534
111.07962 4218
111.1161 7788
114.09081 5870
121.10068 9082
123.11729 3156
123.13667 1758
125.09543 3075
125.13171 1379
128.10577 3315
128.1116 3318
135.11653 11822
137.13297 1586
139.11148 2110
142.12096 1574
142.13139 1571
149.13174 7821
151.14322 1496
151.15338 1503
153.12718 1320
156.13042 1215
156.13895 1215
160.61714 3046
163.14738 3938
165.16356 1362
177.16463 2312
191.1796 1899
247.24155 24956
248.24496 2889
265.25183 23355
266.25577 2643
282.27838 115890
283.28214 19176
293.26294 1201
301.25128 57097
301.75314 20895
302.25583 3850
304.26074 8927
320.22482 1276
320.23993 1319
366.23077 3078
366.24786 3016
441.88654 26456
442.38873 15030
442.88873 4132
582.52197 1544
583.02728 1208
Name: N-phenyl urea
PrecursorMZ: 137.0701
PrecursorType: [M+H]+
IonMode: Positive
Formula: C7H8N2O
SMILES: C1=CC=C(C=C1)NC(=O)N
InChI: 
InChIKey: LUBJCRLGQSPQNN-UHFFFAOYSA-N
RetentionTime: 3.515533
CCS: 
CollisionEnergy: 20-40 eV
InstrumentType: UPLC-QTOF-MS
Comment: PI: Cristina Nerin; Data collector: QiZhi Su, GUIA, University of Zaragoza, Spain; Collision energy: 20-40 V; Instrument: Waters HPLC-QTOF-MS (Xevo G2 QTof); Ionization: ESI; Deconvoluted by MS-DIAL; Column: Waters AtlantisTM premier BEH C18 AX column (2.1 × 100mm x 1.7μm); Flow rate: 0.3mL/min; Mobile phase A and B are water and methnaol, respectively, both with 0.1% formic acid; Gradient elution: from A/B (95/5) to A/B (100/0) in 7min, kept for 4 min, then back to A/B (95/5) in 0.1 min, and maintained for additional 1.9 min (13min in total).; Injection volume: 10 μL
Num peaks: 42
77.02792 2611
77.03879 2611
78.04125 166
78.04928 165
81.95978 126
81.96827 126
88.0107 329
88.02307 325
92.04654 315
92.05644 315
93.04446 234
93.05363 243
93.0604 247
94.04953 4225
94.06474 4253
95.06879 245
95.08679 185
97.01363 627
97.0216 634
97.50545 222
97.5102 234
97.5181 226
106.02273 629
106.02877 621
106.5102 187
106.51865 215
106.52775 212
113.03103 45
113.03767 45
115.03066 71
119.04326 228
119.05422 257
119.06191 240
119.06999 229
120.04189 140
120.05021 167
120.064 101
132.00003 92
132.01111 102
132.01979 92
137.06693 217
137.08127 77
Name: "9,10-Dimethylanthracene"
PrecursorMZ: 207.1156
PrecursorType: [M+H]+
IonMode: Positive
Formula: C16H14
SMILES: CC1=C2C=CC=CC2=C(C3=CC=CC=C13)C
InChI: 
InChIKey: JTGMTYWYUZDRBK-UHFFFAOYSA-N
RetentionTime: 8.1151
CCS: 
CollisionEnergy: 20-40 eV
InstrumentType: UPLC-QTOF-MS
Comment: PI: Cristina Nerin; Data collector: QiZhi Su, GUIA, University of Zaragoza, Spain; Collision energy: 20-40 V; Instrument: Waters HPLC-QTOF-MS (Xevo G2 QTof); Ionization: ESI; Deconvoluted by MS-DIAL; Column: Waters AtlantisTM premier BEH C18 AX column (2.1 × 100mm x 1.7μm); Flow rate: 0.3mL/min; Mobile phase A and B are water and methnaol, respectively, both with 0.1% formic acid; Gradient elution: from A/B (95/5) to A/B (100/0) in 7min, kept for 4 min, then back to A/B (95/5) in 0.1 min, and maintained for additional 1.9 min (13min in total).; Injection volume: 10 μL
Num peaks: 42
89.04586 167
89.05965 198
89.06764 185
89.07665 199
127.0566 295
128.04646 148
128.05807 148
133.03287 537
133.0844 207
133.09616 213
147.06523 1142
148.05861 170
148.06775 151
149.04573 157
149.06953 206
165.04889 181
165.06863 395
178.07671 210
178.08774 181
189.05444 1012
189.07295 1124
190.06924 1414
190.07875 1413
191.08519 13312
192.09241 9305
192.99649 211
193.01199 243
193.09621 819
193.10551 855
202.07465 160
202.09242 134
203.08638 591
203.10806 334
204.07695 445
204.09105 642
204.10402 587
204.99451 560
205.09964 2576
205.10725 2603
206.10948 3309
207.10527 289
207.11552 882
Name: "1,4-diazabicyclo[2.2.2]octane"
PrecursorMZ: 113.1065
PrecursorType: [M+H]+
IonMode: Positive
Formula: C6H12N2
SMILES: C1CN2CCN1CC2
InChI: 
InChIKey: IMNIMPAHZVJRPE-UHFFFAOYSA-N
RetentionTime: 0.5320833
CCS: 
CollisionEnergy: 20-40 eV
InstrumentType: UPLC-QTOF-MS
Comment: PI: Cristina Nerin; Data collector: QiZhi Su, GUIA, University of Zaragoza, Spain; Collision energy: 20-40 V; Instrument: Waters HPLC-QTOF-MS (Xevo G2 QTof); Ionization: ESI; Deconvoluted by MS-DIAL; Column: Waters AtlantisTM premier BEH C18 AX column (2.1 × 100mm x 1.7μm); Flow rate: 0.3mL/min; Mobile phase A and B are water and methnaol, respectively, both with 0.1% formic acid; Gradient elution: from A/B (95/5) to A/B (100/0) in 7min, kept for 4 min, then back to A/B (95/5) in 0.1 min, and maintained for additional 1.9 min (13min in total).; Injection volume: 10 μL
Num peaks: 84
55.29817 20
56.04715 29
57.0302 52
57.05227 27
58.064 64
58.06991 44
70.06583 859
71.0474 21
71.06561 24
72.03983 20
72.08083 155
73.06528 33
73.08444 23
73.08987 42
76.55729 25
77.03458 37
79.05093 23
79.05713 49
80.0423 24
80.05013 36
80.24075 20
81.06035 20
82.05867 23
82.06561 168
83.07067 20
83.0783 71
84.06357 44
84.07593 266
84.08269 1153
84.96666 24
85.06253 20
85.06718 24
85.07587 75
85.08572 140
86.08995 21
88.10382 23
88.2177 20
88.99249 34
90.41187 26
93.07574 99
94.06587 20
94.95667 24
95.05996 24
96.07487 26
96.08327 307
97.06716 48
97.07729 312
97.08992 118
97.9605 20
98.06064 25
98.08922 97
98.09863 412
99.09271 139
99.10872 23
100.07202 27
100.08194 45
100.08833 35
101.08457 27
101.11291 25
102.08948 20
102.09734 31
102.52548 22
104.59351 25
105.079 21
105.10289 24
108.08258 188
108.89292 64
108.9787 30
109.02144 35
109.0987 22
109.58121 29
109.98154 26
110.07949 22
110.08525 44
110.09977 154
111.09083 214
111.09557 62
111.10413 28
112.08296 191
112.0957 432
112.10269 487
113.0907 26
113.10612 756
113.11681 140
Name: Leucomalachite Green
PrecursorMZ: 331.2165
PrecursorType: [M+NH4]+
IonMode: Positive
Formula: C23H26N2
SMILES: CN(C)C1=CC=C(C=C1)C(C2=CC=CC=C2)C3=CC=C(C=C3)N(C)C
InChI: 
InChIKey: WZKXBGJNNCGHIC-UHFFFAOYSA-N
RetentionTime: 6.011633
CCS: 
CollisionEnergy: 20-40 eV
InstrumentType: UPLC-QTOF-MS
Comment: PI: Cristina Nerin; Data collector: QiZhi Su, GUIA, University of Zaragoza, Spain; Collision energy: 20-40 V; Instrument: Waters HPLC-QTOF-MS (Xevo G2 QTof); Ionization: ESI; Deconvoluted by MS-DIAL; Column: Waters AtlantisTM premier BEH C18 AX column (2.1 × 100mm x 1.7μm); Flow rate: 0.3mL/min; Mobile phase A and B are water and methnaol, respectively, both with 0.1% formic acid; Gradient elution: from A/B (95/5) to A/B (100/0) in 7min, kept for 4 min, then back to A/B (95/5) in 0.1 min, and maintained for additional 1.9 min (13min in total).; Injection volume: 10 μL
Num peaks: 32
106.0457 6508
106.06439 6364
107.07158 2752
112.06399 34258
112.08228 34528
112.56754 29164
113.07017 3913
120.0611 12321
120.0795 11655
121.08707 18022
132.04335 13901
150.58315 5219
164.06946 12509
165.07054 5157
180.08032 10163
181.08826 6146
194.0959 12490
195.10327 10805
196.11104 28661
197.11342 2846
197.12332 2860
208.11121 5185
209.1189 10131
210.12706 9090
239.15378 264139
240.15712 42723
272.14301 13546
286.15967 6559
315.18509 45166
316.19202 78844
317.19571 14998
331.21582 95506
Name: "2-(2H-Benzotriazol-2-yl)-4,6-bis(1-methyl-1-phenylethyl)phenol"
PrecursorMZ: 448.238
PrecursorType: [M+H]+
IonMode: Positive
Formula: C30H29N3O
SMILES: CC(C)(C1=CC=CC=C1)C2=CC(=C(C(=C2)N3N=C4C=CC=CC4=N3)O)C(C)(C)C5=CC=CC=C5
InChI: 
InChIKey: OLFNXLXEGXRUOI-UHFFFAOYSA-N
RetentionTime: 9.1287
CCS: 
CollisionEnergy: 20-40 eV
InstrumentType: UPLC-QTOF-MS
Comment: PI: Cristina Nerin; Data collector: QiZhi Su, GUIA, University of Zaragoza, Spain; Collision energy: 20-40 V; Instrument: Waters HPLC-QTOF-MS (Xevo G2 QTof); Ionization: ESI; Deconvoluted by MS-DIAL; Column: Waters AtlantisTM premier BEH C18 AX column (2.1 × 100mm x 1.7μm); Flow rate: 0.3mL/min; Mobile phase A and B are water and methnaol, respectively, both with 0.1% formic acid; Gradient elution: from A/B (95/5) to A/B (100/0) in 7min, kept for 4 min, then back to A/B (95/5) in 0.1 min, and maintained for additional 1.9 min (13min in total).; Injection volume: 10 μL
Num peaks: 38
73.04613 2292
73.06577 2070
91.05333 1679
119.08491 17847
119.10352 18095
120.08843 739
163.06113 861
237.07935 9062
238.0798 1421
239.07845 549
252.11345 737
267.00073 2502
267.99872 375
292.14471 2139
311.10245 443
341.01804 4883
342.01917 1199
342.03784 1234
343.00867 479
343.03055 585
355.06937 26971
356.07077 7001
357.06882 3690
358.05936 495
358.07843 467
370.19073 37315
371.10236 5317
371.19406 6842
372.10657 1162
372.1897 567
372.20679 605
373.10187 766
430.09232 1203
441.07852 1177
445.12149 1602
446.12366 553
448.23672 2890
448.25824 537
Name: Diflufenican
PrecursorMZ: 395.0815
PrecursorType: [M+H]+
IonMode: Positive
Formula: C19H11F5N2O2
SMILES: C1=CC(=CC(=C1)OC2=C(C=CC=N2)C(=O)NC3=C(C=C(C=C3)F)F)C(F)(F)F
InChI: 
InChIKey: WYEHFWKAOXOVJD-UHFFFAOYSA-N
RetentionTime: 7.239017
CCS: 
CollisionEnergy: 20-40 eV
InstrumentType: UPLC-QTOF-MS
Comment: PI: Cristina Nerin; Data collector: QiZhi Su, GUIA, University of Zaragoza, Spain; Collision energy: 20-40 V; Instrument: Waters HPLC-QTOF-MS (Xevo G2 QTof); Ionization: ESI; Deconvoluted by MS-DIAL; Column: Waters AtlantisTM premier BEH C18 AX column (2.1 × 100mm x 1.7μm); Flow rate: 0.3mL/min; Mobile phase A and B are water and methnaol, respectively, both with 0.1% formic acid; Gradient elution: from A/B (95/5) to A/B (100/0) in 7min, kept for 4 min, then back to A/B (95/5) in 0.1 min, and maintained for additional 1.9 min (13min in total).; Injection volume: 10 μL
Num peaks: 14
183.0423 3672
218.04117 6271
219.04793 3137
219.06047 3099
233.05275 5018
238.04745 20515
246.03651 44316
247.04243 10487
266.04245 295466
267.04581 36228
335.06314 3383
355.07111 3325
375.07553 11863
395.08099 20638
Name: 8-Hydroxyquinoline
PrecursorMZ: 146.0601
PrecursorType: [M+H]+
IonMode: Positive
Formula: C9H7NO
SMILES: C1=CC2=C(C(=C1)O)N=CC=C2
InChI: 
InChIKey: MCJGNVYPOGVAJF-UHFFFAOYSA-N
RetentionTime: 0.8671
CCS: 
CollisionEnergy: 20-40 eV
InstrumentType: UPLC-QTOF-MS
Comment: PI: Cristina Nerin; Data collector: QiZhi Su, GUIA, University of Zaragoza, Spain; Collision energy: 20-40 V; Instrument: Waters HPLC-QTOF-MS (Xevo G2 QTof); Ionization: ESI; Deconvoluted by MS-DIAL; Column: Waters AtlantisTM premier BEH C18 AX column (2.1 × 100mm x 1.7μm); Flow rate: 0.3mL/min; Mobile phase A and B are water and methnaol, respectively, both with 0.1% formic acid; Gradient elution: from A/B (95/5) to A/B (100/0) in 7min, kept for 4 min, then back to A/B (95/5) in 0.1 min, and maintained for additional 1.9 min (13min in total).; Injection volume: 10 μL
Num peaks: 52
70.06348 400
72.07812 270
72.08318 270
72.09085 266
75.01593 373
75.02253 373
75.03029 373
77.03565 1125
77.04076 1125
84.079 832
84.08414 832
84.09499 805
85.06562 276
85.0724 291
85.07868 284
86.09419 261
86.09932 261
91.05405 2354
96.08089 1065
96.09087 1069
98.08781 292
98.09712 313
98.1057 310
101.0382 2635
101.04539 2639
101.09516 441
101.10656 409
102.03221 469
102.03928 473
102.04758 477
106.06381 395
106.07561 395
113.11027 429
117.05774 1562
118.06496 9237
119.05989 532
119.07284 539
119.08536 458
127.08221 1339
127.0885 1348
127.09867 1332
127.11796 340
127.12389 318
127.13404 312
128.04922 7941
129.04683 419
129.05638 416
132.03349 1101
132.04649 1083
141.13853 288
141.14633 280
146.06003 25995
Name: Ochratoxin A
PrecursorMZ: 404.0898
PrecursorType: [M+H]+
IonMode: Positive
Formula: C20H18ClNO6
SMILES: CC1CC2=C(C=C(C(=C2C(=O)O1)O)C(=O)NC(CC3=CC=CC=C3)C(=O)O)Cl
InChI: 
InChIKey: RWQKHEORZBHNRI-BMIGLBTASA-N
RetentionTime: 8.772739
CCS: 
CollisionEnergy: 20-40 eV
InstrumentType: UPLC-QTOF-MS
Comment: PI: Cristina Nerin; Data collector: QiZhi Su, GUIA, University of Zaragoza, Spain; Collision energy: 20-40 V; Instrument: Waters HPLC-QTOF-MS (Xevo G2 QTof); Ionization: ESI; Deconvoluted by MS-DIAL; Column: Waters AtlantisTM premier BEH C18 AX column (2.1 × 100mm x 1.7μm); Flow rate: 0.3mL/min; Mobile phase A and B are water and methnaol, respectively, both with 0.1% formic acid; Gradient elution: from A/B (95/5) to A/B (100/0) in 7min, kept for 4 min, then back to A/B (95/5) in 0.1 min, and maintained for additional 1.9 min (13min in total).; Injection volume: 10 μL
Num peaks: 24
102.04671 1391
102.06091 1373
120.08242 2885
137.01677 1716
165.01167 1670
193.00537 12824
195.00465 2813
221.00053 38561
222.0056 2318
222.99896 9762
239.01109 106526
240.01511 8483
241.00847 31452
242.00636 1994
242.01744 1983
260.99307 5365
262.99307 1231
341.05817 6423
343.05432 1514
343.06918 1532
358.08456 11780
359.08899 1525
360.0824 2821
404.08908 25047
Name: Ochratoxin A
PrecursorMZ: 426.071
PrecursorType: [M+Na]+
IonMode: Positive
Formula: C20H18ClNO6
SMILES: CC1CC2=C(C=C(C(=C2C(=O)O1)O)C(=O)NC(CC3=CC=CC=C3)C(=O)O)Cl
InChI: 
InChIKey: RWQKHEORZBHNRI-BMIGLBTASA-N
RetentionTime: 8.723192
CCS: 
CollisionEnergy: 20-40 eV
InstrumentType: UPLC-QTOF-MS
Comment: PI: Cristina Nerin; Data collector: QiZhi Su, GUIA, University of Zaragoza, Spain; Collision energy: 20-40 V; Instrument: Waters HPLC-QTOF-MS (Xevo G2 QTof); Ionization: ESI; Deconvoluted by MS-DIAL; Column: Waters AtlantisTM premier BEH C18 AX column (2.1 × 100mm x 1.7μm); Flow rate: 0.3mL/min; Mobile phase A and B are water and methnaol, respectively, both with 0.1% formic acid; Gradient elution: from A/B (95/5) to A/B (100/0) in 7min, kept for 4 min, then back to A/B (95/5) in 0.1 min, and maintained for additional 1.9 min (13min in total).; Injection volume: 10 μL
Num peaks: 9
260.99484 6233
261.99805 499
262.01089 502
262.97998 1513
262.99475 1736
359.09143 491
359.10822 534
360.08575 350
426.07205 32975
Name: Ochratoxin A
PrecursorMZ: 426.0714
PrecursorType: [M+Na]+
IonMode: Positive
Formula: C20H18ClNO6
SMILES: CC1CC2=C(C=C(C(=C2C(=O)O1)O)C(=O)NC(CC3=CC=CC=C3)C(=O)O)Cl
InChI: 
InChIKey: RWQKHEORZBHNRI-BMIGLBTASA-N
RetentionTime: 8.797445
CCS: 
CollisionEnergy: 20-40 eV
InstrumentType: UPLC-QTOF-MS
Comment: PI: Cristina Nerin; Data collector: QiZhi Su, GUIA, University of Zaragoza, Spain; Collision energy: 20-40 V; Instrument: Waters HPLC-QTOF-MS (Xevo G2 QTof); Ionization: ESI; Deconvoluted by MS-DIAL; Column: Waters AtlantisTM premier BEH C18 AX column (2.1 × 100mm x 1.7μm); Flow rate: 0.3mL/min; Mobile phase A and B are water and methnaol, respectively, both with 0.1% formic acid; Gradient elution: from A/B (95/5) to A/B (100/0) in 7min, kept for 4 min, then back to A/B (95/5) in 0.1 min, and maintained for additional 1.9 min (13min in total).; Injection volume: 10 μL
Num peaks: 42
73.04706 4452
91.05679 487
120.08257 1437
120.08777 517
137.02074 672
147.06815 2205
165.00882 675
193.00574 4957
194.01257 555
195.0023 1431
207.03334 704
221.00093 14175
221.08783 1045
221.99937 491
222.00984 445
222.99799 3353
237.0744 675
237.08566 1418
239.01137 43256
240.01546 2332
241.00932 10288
260.99338 12478
262.99286 2449
281.04874 1795
281.06055 808
293.99112 656
295.19864 582
310.31415 473
324.98917 783
341.01968 2515
341.04974 1257
341.06696 1112
355.07343 3224
356.07361 718
358.08374 4056
359.08139 495
360.08197 756
371.10327 449
404.08835 4573
405.08685 531
406.09045 1382
426.07077 24551
Name: Ochratoxin A
PrecursorMZ: 807.1745
PrecursorType: [2M+H]+
IonMode: Positive
Formula: C20H18ClNO6
SMILES: CC1CC2=C(C=C(C(=C2C(=O)O1)O)C(=O)NC(CC3=CC=CC=C3)C(=O)O)Cl
InChI: 
InChIKey: RWQKHEORZBHNRI-BMIGLBTASA-N
RetentionTime: 8.728933
CCS: 
CollisionEnergy: 20-40 eV
InstrumentType: UPLC-QTOF-MS
Comment: PI: Cristina Nerin; Data collector: QiZhi Su, GUIA, University of Zaragoza, Spain; Collision energy: 20-40 V; Instrument: Waters HPLC-QTOF-MS (Xevo G2 QTof); Ionization: ESI; Deconvoluted by MS-DIAL; Column: Waters AtlantisTM premier BEH C18 AX column (2.1 × 100mm x 1.7μm); Flow rate: 0.3mL/min; Mobile phase A and B are water and methnaol, respectively, both with 0.1% formic acid; Gradient elution: from A/B (95/5) to A/B (100/0) in 7min, kept for 4 min, then back to A/B (95/5) in 0.1 min, and maintained for additional 1.9 min (13min in total).; Injection volume: 10 μL
Num peaks: 29
102.04671 1299
102.06091 1282
120.08242 2637
137.01677 1612
165.01167 1517
193.00537 12345
195.00465 2639
221.00053 36571
222.0056 2149
222.99896 9411
239.01109 100496
240.01511 8118
241.00847 30355
242.00636 1843
242.01744 1836
260.99307 2418
341.05817 6056
343.05432 1394
343.06918 1415
358.08456 11605
359.08899 1389
360.0824 2674
404.08908 24888
405.09418 3289
406.08746 5877
426.07172 15782
427.07532 1761
428.06866 3147
807.17224 1047
Name: Ochratoxin A
PrecursorMZ: 829.1525
PrecursorType: [2M+Na]+
IonMode: Positive
Formula: C20H18ClNO6
SMILES: CC1CC2=C(C=C(C(=C2C(=O)O1)O)C(=O)NC(CC3=CC=CC=C3)C(=O)O)Cl
InChI: 
InChIKey: RWQKHEORZBHNRI-BMIGLBTASA-N
RetentionTime: 8.763212
CCS: 
CollisionEnergy: 20-40 eV
InstrumentType: UPLC-QTOF-MS
Comment: PI: Cristina Nerin; Data collector: QiZhi Su, GUIA, University of Zaragoza, Spain; Collision energy: 20-40 V; Instrument: Waters HPLC-QTOF-MS (Xevo G2 QTof); Ionization: ESI; Deconvoluted by MS-DIAL; Column: Waters AtlantisTM premier BEH C18 AX column (2.1 × 100mm x 1.7μm); Flow rate: 0.3mL/min; Mobile phase A and B are water and methnaol, respectively, both with 0.1% formic acid; Gradient elution: from A/B (95/5) to A/B (100/0) in 7min, kept for 4 min, then back to A/B (95/5) in 0.1 min, and maintained for additional 1.9 min (13min in total).; Injection volume: 10 μL
Num peaks: 38
73.04715 6444
102.04379 1032
102.05106 1026
120.08161 2060
120.09689 2066
137.01648 1283
147.06741 2685
165.0116 1049
193.00694 7269
195.0047 1756
221.00063 21990
222.00711 1380
222.9985 5255
239.01163 65477
240.01469 4247
240.02586 4150
241.00906 13128
242.01666 1059
260.99335 15343
261.9855 980
262.00311 992
262.99179 3568
341.05725 2568
342.01599 1118
342.03207 1249
343.04758 688
343.06787 842
358.08484 2038
360.08099 1237
360.09344 1030
406.09122 929
426.07071 26640
427.0752 4573
428.06943 5986
532.97247 1284
652.04535 698
829.1449 868
829.17804 784
Name: Pentaerythritol allyl ether
PrecursorMZ: 257.1758
PrecursorType: [M+H]+
IonMode: Positive
Formula: C14H24O4
SMILES: C=CCOCC(CO)(COCC=C)COCC=C
InChI: 
InChIKey: FYRWKWGEFZTOQI-UHFFFAOYSA-N
RetentionTime: 6.64835
CCS: 
CollisionEnergy: 20-40 eV
InstrumentType: UPLC-QTOF-MS
Comment: PI: Cristina Nerin; Data collector: QiZhi Su, GUIA, University of Zaragoza, Spain; Collision energy: 20-40 V; Instrument: Waters HPLC-QTOF-MS (Xevo G2 QTof); Ionization: ESI; Deconvoluted by MS-DIAL; Column: Waters AtlantisTM premier BEH C18 AX column (2.1 × 100mm x 1.7μm); Flow rate: 0.3mL/min; Mobile phase A and B are water and methnaol, respectively, both with 0.1% formic acid; Gradient elution: from A/B (95/5) to A/B (100/0) in 7min, kept for 4 min, then back to A/B (95/5) in 0.1 min, and maintained for additional 1.9 min (13min in total).; Injection volume: 10 μL
Num peaks: 129
55.05275 115
55.05692 113
67.05513 702
67.06374 700
69.03419 181
69.04136 182
71.04816 108
71.05442 105
71.05808 105
77.04176 486
78.03822 150
78.04674 149
78.0509 149
79.04797 570
79.05713 578
79.0709 532
81.02499 146
81.03341 156
81.07137 425
83.04955 690
85.0584 212
85.06636 214
85.07192 214
89.03929 863
91.03587 462
91.04269 596
91.055 607
93.05328 316
93.06596 325
93.07195 310
95.08396 182
95.08862 181
96.98593 1339
96.99761 1355
105.06744 176
105.08089 177
106.03865 104
110.99834 162
111.01227 152
115.05628 273
115.06738 277
117.03465 984
118.03761 150
118.04356 150
118.05181 162
119.04982 241
119.05833 214
124.9778 623
124.98672 592
124.99575 612
126.98939 110
127.00826 113
127.03664 245
127.04508 214
131.04994 186
134.02885 180
134.03922 184
136.03355 258
136.05016 315
136.05623 294
137.04257 358
137.0616 251
140.96153 176
140.96953 179
140.97623 190
140.98315 104
141.9702 105
141.98012 109
145.02925 5625
146.03502 1032
146.04997 1055
147.02708 1067
147.04567 873
148.06369 723
148.07533 733
148.5659 111
148.57329 111
149.06384 357
151.04065 106
151.06885 247
151.08052 218
151.09602 121
160.03514 161
160.04105 165
160.05467 172
161.06166 1820
162.06752 186
162.0761 176
165.06105 212
165.07233 186
167.03925 1759
167.04922 1751
168.03629 106
175.06656 312
175.07845 317
177.0551 9844
177.07439 9973
178.05132 654
178.06058 670
182.06883 108
182.078 106
183.0295 189
183.04871 138
185.06371 105
193.05818 154
193.07486 160
197.0524 127
197.06265 125
207.07071 136
207.08318 133
219.07581 140
221.04938 209
221.06418 209
225.09125 442
225.09869 447
225.10994 445
226.10161 108
238.06694 129
245.06534 114
245.08018 239
253.08437 510
253.10825 157
254.08157 148
254.10577 174
255.09183 412
255.10532 390
255.11589 260
256.25391 162
256.2724 103
Name: Pentaerythritol allyl ether
PrecursorMZ: 279.1571
PrecursorType: [M+Na]+
IonMode: Positive
Formula: C14H24O4
SMILES: C=CCOCC(CO)(COCC=C)COCC=C
InChI: 
InChIKey: FYRWKWGEFZTOQI-UHFFFAOYSA-N
RetentionTime: 6.652167
CCS: 
CollisionEnergy: 20-40 eV
InstrumentType: UPLC-QTOF-MS
Comment: PI: Cristina Nerin; Data collector: QiZhi Su, GUIA, University of Zaragoza, Spain; Collision energy: 20-40 V; Instrument: Waters HPLC-QTOF-MS (Xevo G2 QTof); Ionization: ESI; Deconvoluted by MS-DIAL; Column: Waters AtlantisTM premier BEH C18 AX column (2.1 × 100mm x 1.7μm); Flow rate: 0.3mL/min; Mobile phase A and B are water and methnaol, respectively, both with 0.1% formic acid; Gradient elution: from A/B (95/5) to A/B (100/0) in 7min, kept for 4 min, then back to A/B (95/5) in 0.1 min, and maintained for additional 1.9 min (13min in total).; Injection volume: 10 μL
Num peaks: 139
55.05475 112
55.06003 111
67.05501 636
68.99632 121
69.00497 124
69.03338 177
70.97902 131
70.98428 131
71.04317 128
71.04745 128
71.05827 124
77.03248 520
77.04202 542
77.05585 550
78.04323 199
78.04871 195
79.05038 528
79.05606 532
81.02114 150
81.03062 151
81.03692 153
81.06815 438
81.07466 433
83.04971 639
85.06641 194
85.07317 195
89.0397 999
89.05624 1050
91.03343 158
91.04977 503
91.05705 487
93.06924 261
93.07642 242
94.97995 126
94.98608 125
95.08022 194
95.08804 194
96.99728 1802
105.06208 137
105.07161 127
106.04191 126
111.00818 294
111.01353 304
115.04305 343
115.0514 330
115.05582 328
117.03432 1571
118.03484 185
118.04426 186
118.05695 169
119.03508 235
119.04229 263
119.05056 250
119.05904 226
124.98746 749
124.99477 754
125.00518 741
127.0075 151
127.03876 259
127.05515 232
131.03935 215
131.05293 212
131.05963 211
134.02531 146
134.03708 198
136.04396 348
136.05016 349
136.05681 328
137.05376 276
137.06572 265
140.95761 229
140.96922 235
140.97771 234
141.96056 140
141.97763 146
145.02863 6472
146.03584 1124
147.04417 988
148.06149 781
148.06947 753
148.57176 112
149.07277 595
151.03535 172
151.04388 200
151.05342 199
151.06343 355
151.07414 285
151.0798 293
160.04411 173
160.05232 184
160.06094 178
161.06107 1918
162.0656 187
165.06874 217
165.0761 196
167.03891 2489
167.05698 2534
168.03645 134
168.04869 156
168.05769 124
175.07364 317
175.08417 312
175.09406 194
177.05489 11029
178.05554 768
178.06729 790
182.06961 116
183.0177 113
183.03511 163
183.04712 150
193.05867 176
193.07108 183
197.04643 114
207.06276 182
207.07104 203
213.05338 114
219.07301 147
221.04794 208
221.06079 286
221.07443 252
223.07224 144
225.09026 568
225.1008 521
226.09499 113
245.06821 198
245.08185 267
245.09093 271
245.10355 172
253.08949 716
254.07677 159
254.09213 188
254.10681 171
255.07649 294
255.0916 475
255.1035 494
255.11385 347
256.25595 114
279.15613 713
279.17059 385
Name: "2,5-ditertbutyl benzoquinone"
PrecursorMZ: 221.1545
PrecursorType: [M+H]+
IonMode: Positive
Formula: C14H20O2
SMILES: CC(C)(C)C1=CC(=O)C(=CC1=O)C(C)(C)C
InChI: 
InChIKey: ZZYASVWWDLJXIM-UHFFFAOYSA-N
RetentionTime: 7.0519
CCS: 
CollisionEnergy: 20-40 eV
InstrumentType: UPLC-QTOF-MS
Comment: PI: Cristina Nerin; Data collector: QiZhi Su, GUIA, University of Zaragoza, Spain; Collision energy: 20-40 V; Instrument: Waters HPLC-QTOF-MS (Xevo G2 QTof); Ionization: ESI; Deconvoluted by MS-DIAL; Column: Waters AtlantisTM premier BEH C18 AX column (2.1 × 100mm x 1.7μm); Flow rate: 0.3mL/min; Mobile phase A and B are water and methnaol, respectively, both with 0.1% formic acid; Gradient elution: from A/B (95/5) to A/B (100/0) in 7min, kept for 4 min, then back to A/B (95/5) in 0.1 min, and maintained for additional 1.9 min (13min in total).; Injection volume: 10 μL
Num peaks: 217
55.0188 60
55.05196 72
55.05682 71
57.06688 406
57.07211 406
57.07802 406
58.06246 52
58.07471 49
58.96098 62
65.03352 190
65.04076 190
67.055 1233
68.05051 49
69.03324 119
69.03894 123
69.07101 236
77.03408 718
77.04115 718
79.04301 385
79.05477 396
79.06162 399
79.06702 388
79.07591 169
81.02943 55
81.036 56
81.04862 110
81.06558 1822
81.07175 1805
82.07395 87
83.05057 120
83.05539 120
87.08582 53
91.05524 1281
92.05749 77
92.06245 77
93.05807 317
93.07087 346
95.03592 637
95.04958 645
95.08382 349
95.09065 352
96.05051 55
96.05647 57
100.99763 68
101.01128 69
101.03489 56
103.05241 124
105.07116 793
106.06723 51
106.07834 52
106.0854 54
107.02811 50
107.04996 255
107.05675 241
107.08568 259
107.09618 261
108.08389 55
109.01427 107
109.03088 160
109.04071 172
109.06664 352
109.10184 329
110.01374 67
110.02998 94
110.0367 66
111.04446 110
111.05036 113
111.05978 108
115.04314 203
115.05491 209
115.0625 217
115.95735 52
115.965 52
116.05505 65
116.06553 53
117.036 104
117.05582 279
117.06691 191
117.07568 192
118.03449 66
121.05663 1055
121.0683 1053
121.09769 84
121.10674 86
122.0685 184
122.0761 182
123.04509 4641
123.06721 91
123.07501 131
123.08183 135
123.11832 956
124.05074 345
124.119 96
124.1263 91
125.0624 58
127.03664 60
127.04469 61
127.0538 51
128.04903 90
128.06233 81
131.04733 86
131.06279 86
131.08372 91
131.09138 92
133.0594 69
133.06679 64
133.10121 556
133.10815 581
134.03738 48
135.07404 328
135.08478 339
136.05891 80
136.08992 160
136.09831 156
137.06053 922
137.08351 209
137.09909 186
138.06197 136
138.07053 136
138.07962 144
139.06468 391
139.07579 367
143.08623 58
143.09595 56
145.02844 337
145.03946 327
145.06581 70
145.07399 66
146.02969 126
146.04068 127
146.04935 132
146.07289 142
146.09122 144
147.01598 57
147.03876 86
147.04897 97
147.08604 55
149.04643 122
149.06017 122
149.06924 108
150.06288 56
150.07603 47
151.07411 261
151.08475 262
151.11171 533
151.12219 520
152.11218 59
152.12213 67
160.98616 53
161.00169 56
161.05006 154
161.06551 169
161.0845 641
161.09749 625
161.11057 594
162.10805 80
163.0764 562
163.08739 561
164.08562 112
164.09538 104
165.05077 79
165.06436 109
165.07611 189
165.09502 114
168.05249 51
168.06155 57
175.07912 81
177.03682 119
177.05286 429
177.06471 426
177.07988 130
178.05475 80
178.06322 81
179.10709 1746
179.12292 1727
180.08267 53
180.09668 171
180.11217 192
180.12325 145
182.05051 53
182.06607 74
189.01569 65
189.02528 61
193.01297 56
193.12119 128
193.13065 133
194.0275 51
194.96799 53
201.02856 95
201.04768 69
203.02348 680
203.03885 889
203.05121 864
203.06487 180
204.03751 73
204.0463 79
205.12592 811
206.11508 76
206.13374 85
211.08719 70
211.09534 87
211.58832 70
211.59729 67
213.0544 58
213.06662 53
219.01927 52
219.02565 65
219.09726 145
219.10901 150
219.13388 92
220.12915 80
220.14287 87
220.157 86
220.98904 91
221.00128 116
221.01381 105
221.13644 58
Name: Lactone G (AA-DEG)
PrecursorMZ: 217.1079
PrecursorType: [M+H]+
IonMode: Positive
Formula: C10H16O5
SMILES: C1CCC(=O)OCCOCCOC(=O)C1
InChI: 
InChIKey: PMDHMYFSRFZGIO-UHFFFAOYSA-N
RetentionTime: 3.866317
CCS: 
CollisionEnergy: 20-40 eV
InstrumentType: UPLC-QTOF-MS
Comment: PI: Cristina Nerin; Data collector: QiZhi Su, GUIA, University of Zaragoza, Spain; Collision energy: 20-40 V; Instrument: Waters HPLC-QTOF-MS (Xevo G2 QTof); Ionization: ESI; Deconvoluted by MS-DIAL; Column: Waters AtlantisTM premier BEH C18 AX column (2.1 × 100mm x 1.7μm); Flow rate: 0.3mL/min; Mobile phase A and B are water and methnaol, respectively, both with 0.1% formic acid; Gradient elution: from A/B (95/5) to A/B (100/0) in 7min, kept for 4 min, then back to A/B (95/5) in 0.1 min, and maintained for additional 1.9 min (13min in total).; Injection volume: 10 μL
Num peaks: 92
55.01683 56
55.05484 809
56.97023 55
59.04808 143
59.05219 115
67.05093 62
69.03362 392
69.03967 56
69.06998 94
70.03921 77
73.03004 198
73.04929 75
78.9934 53
79.05622 48
83.05031 4746
83.08696 72
84.00136 55
84.0243 84
84.04376 55
84.05194 159
84.05888 60
87.04 134
87.04569 156
87.05186 83
89.01946 160
89.02651 286
91.05555 106
93.02869 159
93.03419 55
93.0698 53
96.08131 218
99.03972 232
99.04723 254
99.0541 86
100.05575 65
100.99705 92
101.05325 115
101.06221 924
105.01697 57
106.03291 66
106.03889 110
107.02892 48
107.04692 52
107.0877 66
111.04546 3493
112.04948 267
113.06177 679
113.10704 52
113.11558 56
114.0633 198
114.09651 268
115.04315 71
116.96989 60
120.99512 101
123.00806 322
123.01862 214
124.05106 53
127.07742 367
127.08463 118
128.03668 65
135.94102 50
137.0338 177
138.07233 51
140.99965 79
141.02225 71
141.02875 56
145.01225 153
145.01915 65
145.02917 49
149.03102 53
151.0067 50
151.0148 83
155.07098 1852
156.07523 112
162.11249 66
166.99118 62
167.0024 118
167.01224 82
167.03297 62
173.08034 192
174.08209 116
178.04042 50
178.05708 62
182.97794 48
190.12088 62
194.02119 48
197.0347 54
199.99071 53
209.02757 51
209.16786 117
210.16695 66
217.04738 53
Name: Lactone G (AA-DEG)
PrecursorMZ: 239.0903
PrecursorType: [M+Na]+
IonMode: Positive
Formula: C10H16O5
SMILES: C1CCC(=O)OCCOCCOC(=O)C1
InChI: 
InChIKey: PMDHMYFSRFZGIO-UHFFFAOYSA-N
RetentionTime: 3.866317
CCS: 
CollisionEnergy: 20-40 eV
InstrumentType: UPLC-QTOF-MS
Comment: PI: Cristina Nerin; Data collector: QiZhi Su, GUIA, University of Zaragoza, Spain; Collision energy: 20-40 V; Instrument: Waters HPLC-QTOF-MS (Xevo G2 QTof); Ionization: ESI; Deconvoluted by MS-DIAL; Column: Waters AtlantisTM premier BEH C18 AX column (2.1 × 100mm x 1.7μm); Flow rate: 0.3mL/min; Mobile phase A and B are water and methnaol, respectively, both with 0.1% formic acid; Gradient elution: from A/B (95/5) to A/B (100/0) in 7min, kept for 4 min, then back to A/B (95/5) in 0.1 min, and maintained for additional 1.9 min (13min in total).; Injection volume: 10 μL
Num peaks: 94
55.01683 56
55.05484 809
56.97023 55
59.04808 143
59.05219 115
67.05093 62
69.03362 392
69.03967 56
69.06998 94
70.03921 77
73.03004 198
73.04929 75
78.9934 53
79.05622 48
83.05031 4746
83.08696 72
84.00136 55
84.0243 84
84.04376 55
84.05194 159
84.05888 60
87.04 134
87.04569 156
87.05186 83
89.01946 160
89.02651 286
91.05555 106
93.02869 159
93.03419 55
93.0698 53
96.08131 218
99.03972 232
99.04723 254
99.0541 86
100.05575 65
100.99705 92
101.05325 115
101.06221 924
105.01697 57
106.03291 66
106.03889 110
107.02892 48
107.04692 52
107.0877 66
111.04546 3493
112.04948 267
113.06177 679
113.10704 52
113.11558 56
114.0633 198
114.09651 268
115.04315 71
116.96989 60
120.99512 101
123.00806 322
123.01862 214
124.05106 53
127.07742 367
127.08463 118
128.03668 65
135.94102 50
137.0338 177
138.07233 51
140.99965 79
141.02225 71
141.02875 56
145.01225 153
145.01915 65
145.02917 49
149.03102 53
151.0067 50
151.0148 83
155.07098 1852
156.07523 112
162.11249 66
166.99118 62
167.0024 118
167.01224 82
167.03297 62
173.08034 192
174.08209 116
178.04042 50
178.05708 62
182.97794 48
190.12088 62
194.02119 48
197.0347 54
199.99071 53
209.02757 51
209.16786 117
210.16695 66
217.04738 53
227.17021 69
227.18167 50
Name: Lactone G (AA-DEG)
PrecursorMZ: 217.108
PrecursorType: [M+H]+
IonMode: Positive
Formula: C10H16O5
SMILES: C1CCC(=O)OCCOCCOC(=O)C1
InChI: 
InChIKey: PMDHMYFSRFZGIO-UHFFFAOYSA-N
RetentionTime: 4.08
CCS: 
CollisionEnergy: 20-40 eV
InstrumentType: UPLC-QTOF-MS
Comment: PI: Cristina Nerin; Data collector: QiZhi Su, GUIA, University of Zaragoza, Spain; Collision energy: 20-40 V; Instrument: Waters HPLC-QTOF-MS (Xevo G2 QTof); Ionization: ESI; Deconvoluted by MS-DIAL; Column: Waters AtlantisTM premier BEH C18 AX column (2.1 × 100mm x 1.7μm); Flow rate: 0.3mL/min; Mobile phase A and B are water and methnaol, respectively, both with 0.1% formic acid; Gradient elution: from A/B (95/5) to A/B (100/0) in 7min, kept for 4 min, then back to A/B (95/5) in 0.1 min, and maintained for additional 1.9 min (13min in total).; Injection volume: 10 μL
Num peaks: 66
55.05469 1677
59.04495 317
59.05158 317
67.0526 235
67.05843 239
69.0349 970
73.02923 204
83.03613 10477
83.04967 10458
84.05389 308
85.06169 141
85.0659 141
87.0453 609
89.02521 418
89.03448 426
93.01009 134
93.0296 232
93.03616 216
99.04194 995
99.04877 995
100.98141 250
100.9929 246
101.00018 255
101.06089 1985
101.07378 1991
102.03052 120
102.03818 126
106.0225 507
106.03178 521
106.03927 506
111.04503 8460
112.04912 415
112.05972 420
113.0611 1791
114.06266 119
114.0678 125
115.02563 349
115.04005 472
115.04996 381
115.05903 302
120.98924 268
121.00027 252
123.01337 335
123.02102 339
124.0442 177
124.05149 179
127.07374 1029
127.07901 1033
127.08977 1036
128.02351 252
128.03381 259
137.02905 212
137.03922 219
137.06036 335
139.00273 107
145.0121 202
145.02553 193
151.0043 155
155.07156 3900
156.07439 249
167.00323 124
173.06673 455
173.07971 497
173.08942 494
211.01874 113
211.03203 125
Name: Lactone G (AA-DEG)
PrecursorMZ: 239.0901
PrecursorType: [M+Na]+
IonMode: Positive
Formula: C10H16O5
SMILES: C1CCC(=O)OCCOCCOC(=O)C1
InChI: 
InChIKey: PMDHMYFSRFZGIO-UHFFFAOYSA-N
RetentionTime: 4.08
CCS: 
CollisionEnergy: 20-40 eV
InstrumentType: UPLC-QTOF-MS
Comment: PI: Cristina Nerin; Data collector: QiZhi Su, GUIA, University of Zaragoza, Spain; Collision energy: 20-40 V; Instrument: Waters HPLC-QTOF-MS (Xevo G2 QTof); Ionization: ESI; Deconvoluted by MS-DIAL; Column: Waters AtlantisTM premier BEH C18 AX column (2.1 × 100mm x 1.7μm); Flow rate: 0.3mL/min; Mobile phase A and B are water and methnaol, respectively, both with 0.1% formic acid; Gradient elution: from A/B (95/5) to A/B (100/0) in 7min, kept for 4 min, then back to A/B (95/5) in 0.1 min, and maintained for additional 1.9 min (13min in total).; Injection volume: 10 μL
Num peaks: 66
55.05469 1677
59.04495 317
59.05158 317
67.0526 235
67.05843 239
69.0349 970
73.02923 204
83.03613 10477
83.04967 10458
84.05389 308
85.06169 141
85.0659 141
87.0453 609
89.02521 418
89.03448 426
93.01009 134
93.0296 232
93.03616 216
99.04194 995
99.04877 995
100.98141 250
100.9929 246
101.00018 255
101.06089 1985
101.07378 1991
102.03052 120
102.03818 126
106.0225 507
106.03178 521
106.03927 506
111.04503 8460
112.04912 415
112.05972 420
113.0611 1791
114.06266 119
114.0678 125
115.02563 349
115.04005 472
115.04996 381
115.05903 302
120.98924 268
121.00027 252
123.01337 335
123.02102 339
124.0442 177
124.05149 179
127.07374 1029
127.07901 1033
127.08977 1036
128.02351 252
128.03381 259
137.02905 212
137.03922 219
137.06036 335
139.00273 107
145.0121 202
145.02553 193
151.0043 155
155.07156 3900
156.07439 249
167.00323 124
173.06673 455
173.07971 497
173.08942 494
211.01874 113
211.03203 125
Name: "N, N-bis (2-hydroxyethyl)dodecylamine"
PrecursorMZ: 274.2773
PrecursorType: [M+H]+
IonMode: Positive
Formula: C16H35NO2
SMILES: CCCCCCCCCCCCN(CCO)CCO
InChI: 
InChIKey: NKFNBVMJTSYZDV-UHFFFAOYSA-N
RetentionTime: 4.6325
CCS: 
CollisionEnergy: 20-40 eV
InstrumentType: UPLC-QTOF-MS
Comment: PI: Cristina Nerin; Data collector: QiZhi Su, GUIA, University of Zaragoza, Spain; Collision energy: 20-40 V; Instrument: Waters HPLC-QTOF-MS (Xevo G2 QTof); Ionization: ESI; Deconvoluted by MS-DIAL; Column: Waters AtlantisTM premier BEH C18 AX column (2.1 × 100mm x 1.7μm); Flow rate: 0.3mL/min; Mobile phase A and B are water and methnaol, respectively, both with 0.1% formic acid; Gradient elution: from A/B (95/5) to A/B (100/0) in 7min, kept for 4 min, then back to A/B (95/5) in 0.1 min, and maintained for additional 1.9 min (13min in total).; Injection volume: 10 μL
Num peaks: 12
57.07026 8522
70.06511 67951
71.06615 14971
71.07042 5367
71.0858 5302
88.06017 138142
88.07574 137300
102.09143 19991
106.08646 52384
256.26401 53165
274.2749 337848
274.44 4396
Name: "N, N-bis (2-hydroxyethyl)dodecylamine"
PrecursorMZ: 296.2571
PrecursorType: [M+Na]+
IonMode: Positive
Formula: C16H35NO2
SMILES: CCCCCCCCCCCCN(CCO)CCO
InChI: 
InChIKey: NKFNBVMJTSYZDV-UHFFFAOYSA-N
RetentionTime: 4.6363
CCS: 
CollisionEnergy: 20-40 eV
InstrumentType: UPLC-QTOF-MS
Comment: PI: Cristina Nerin; Data collector: QiZhi Su, GUIA, University of Zaragoza, Spain; Collision energy: 20-40 V; Instrument: Waters HPLC-QTOF-MS (Xevo G2 QTof); Ionization: ESI; Deconvoluted by MS-DIAL; Column: Waters AtlantisTM premier BEH C18 AX column (2.1 × 100mm x 1.7μm); Flow rate: 0.3mL/min; Mobile phase A and B are water and methnaol, respectively, both with 0.1% formic acid; Gradient elution: from A/B (95/5) to A/B (100/0) in 7min, kept for 4 min, then back to A/B (95/5) in 0.1 min, and maintained for additional 1.9 min (13min in total).; Injection volume: 10 μL
Num peaks: 13
57.07013 8522
70.04784 69383
70.06493 67951
71.06901 5518
71.08579 5302
88.07568 137300
102.09129 19991
106.08632 52384
256.26352 53165
274.27402 330847
274.43887 4416
274.45789 4346
275.27689 44843
Name: Irgafos 38
PrecursorMZ: 515.364
PrecursorType: [M+H]+
IonMode: Positive
Formula: C32H51O3P
SMILES: CCOP(OC1=C(C=C(C=C1C)C(C)(C)C)C(C)(C)C)OC2=C(C=C(C=C2C)C(C)(C)C)C(C)(C)C
InChI: 
InChIKey: ZEFSGHVBJCEKAZ-UHFFFAOYSA-N
RetentionTime: 10.573
CCS: 
CollisionEnergy: 20-40 eV
InstrumentType: UPLC-QTOF-MS
Comment: PI: Cristina Nerin; Data collector: QiZhi Su, GUIA, University of Zaragoza, Spain; Collision energy: 20-40 V; Instrument: Waters HPLC-QTOF-MS (Xevo G2 QTof); Ionization: ESI; Deconvoluted by MS-DIAL; Column: Waters AtlantisTM premier BEH C18 AX column (2.1 × 100mm x 1.7μm); Flow rate: 0.3mL/min; Mobile phase A and B are water and methnaol, respectively, both with 0.1% formic acid; Gradient elution: from A/B (95/5) to A/B (100/0) in 7min, kept for 4 min, then back to A/B (95/5) in 0.1 min, and maintained for additional 1.9 min (13min in total).; Injection volume: 10 μL
Num peaks: 24
57.07033 929
105.07169 677
105.0805 648
109.06176 647
109.06839 642
161.134 2933
173.03676 8366
201.06853 5301
229.09785 718
229.11081 710
257.13168 8843
258.12247 647
258.13919 475
263.08368 33173
264.08875 2510
291.10864 1484
291.12122 1438
319.14587 32778
320.15039 3277
347.17844 807
375.2077 42059
376.21317 6782
377.21014 464
515.36383 32445
Name: 2-Ethylhexyl adipate
PrecursorMZ: 517.3707
PrecursorType: [M+H]+
IonMode: Positive
Formula: C14H26O4
SMILES: CCCCC(CC)COC(=O)CCCCC(=O)O
InChI: 
InChIKey: MBGYSHXGENGTBP-UHFFFAOYSA-N
RetentionTime: 10.573
CCS: 
CollisionEnergy: 20-40 eV
InstrumentType: UPLC-QTOF-MS
Comment: PI: Cristina Nerin; Data collector: QiZhi Su, GUIA, University of Zaragoza, Spain; Collision energy: 20-40 V; Instrument: Waters HPLC-QTOF-MS (Xevo G2 QTof); Ionization: ESI; Deconvoluted by MS-DIAL; Column: Waters AtlantisTM premier BEH C18 AX column (2.1 × 100mm x 1.7μm); Flow rate: 0.3mL/min; Mobile phase A and B are water and methnaol, respectively, both with 0.1% formic acid; Gradient elution: from A/B (95/5) to A/B (100/0) in 7min, kept for 4 min, then back to A/B (95/5) in 0.1 min, and maintained for additional 1.9 min (13min in total).; Injection volume: 10 μL
Num peaks: 26
57.07033 929
105.07169 677
105.0805 648
109.06176 647
109.06839 642
161.134 2933
173.03676 8366
201.06853 5301
229.09785 718
229.11081 710
257.13168 8843
258.12247 647
258.13919 475
263.08368 33173
264.08875 2510
291.10864 1484
291.12122 1438
319.14587 32778
320.15039 3277
347.17844 807
375.2077 42059
376.21317 6782
377.21014 464
515.36383 33451
516.36664 9154
517.3681 600
Name: "N, N-bis (2-hydroxyethyl)dodecylamine"
PrecursorMZ: 274.2775
PrecursorType: [M+H]+
IonMode: Positive
Formula: C16H35NO2
SMILES: CCCCCCCCCCCCN(CCO)CCO
InChI: 
InChIKey: NKFNBVMJTSYZDV-UHFFFAOYSA-N
RetentionTime: 4.784767
CCS: 
CollisionEnergy: 20-40 eV
InstrumentType: UPLC-QTOF-MS
Comment: PI: Cristina Nerin; Data collector: QiZhi Su, GUIA, University of Zaragoza, Spain; Collision energy: 20-40 V; Instrument: Waters HPLC-QTOF-MS (Xevo G2 QTof); Ionization: ESI; Deconvoluted by MS-DIAL; Column: Waters AtlantisTM premier BEH C18 AX column (2.1 × 100mm x 1.7μm); Flow rate: 0.3mL/min; Mobile phase A and B are water and methnaol, respectively, both with 0.1% formic acid; Gradient elution: from A/B (95/5) to A/B (100/0) in 7min, kept for 4 min, then back to A/B (95/5) in 0.1 min, and maintained for additional 1.9 min (13min in total).; Injection volume: 10 μL
Num peaks: 18
57.06982 10771
70.06485 107458
70.07777 107461
70.08413 107493
71.06882 17078
71.08537 16923
85.10153 5655
88.05814 184746
88.07549 184643
88.09277 184643
89.07974 5103
102.0913 54728
106.08607 88077
230.24728 7974
256.26321 77697
257.26666 11619
274.27396 433997
274.43948 8200
Name: "N, N-bis (2-hydroxyethyl)dodecylamine"
PrecursorMZ: 296.257
PrecursorType: [M+Na]+
IonMode: Positive
Formula: C16H35NO2
SMILES: CCCCCCCCCCCCN(CCO)CCO
InChI: 
InChIKey: NKFNBVMJTSYZDV-UHFFFAOYSA-N
RetentionTime: 4.784767
CCS: 
CollisionEnergy: 20-40 eV
InstrumentType: UPLC-QTOF-MS
Comment: PI: Cristina Nerin; Data collector: QiZhi Su, GUIA, University of Zaragoza, Spain; Collision energy: 20-40 V; Instrument: Waters HPLC-QTOF-MS (Xevo G2 QTof); Ionization: ESI; Deconvoluted by MS-DIAL; Column: Waters AtlantisTM premier BEH C18 AX column (2.1 × 100mm x 1.7μm); Flow rate: 0.3mL/min; Mobile phase A and B are water and methnaol, respectively, both with 0.1% formic acid; Gradient elution: from A/B (95/5) to A/B (100/0) in 7min, kept for 4 min, then back to A/B (95/5) in 0.1 min, and maintained for additional 1.9 min (13min in total).; Injection volume: 10 μL
Num peaks: 20
57.06982 10775
70.06485 107493
70.07777 107496
70.08413 107528
71.06882 17083
71.08537 16929
85.10153 5657
88.05814 184807
88.07549 184704
88.09277 184704
89.07974 5105
102.0913 54746
106.08607 88106
230.24728 7977
256.26321 77723
257.26666 11623
274.27396 399241
274.43948 6223
275.2771 69930
276.27966 5599
Name: levadopa
PrecursorMZ: 395.1466
PrecursorType: [2M+H]+
IonMode: Positive
Formula: C9H11NO4
SMILES: C1=CC(=C(C=C1CC(C(=O)O)N)O)O
InChI: 
InChIKey: WTDRDQBEARUVNC-LURJTMIESA-N
RetentionTime: 0.852
CCS: 
CollisionEnergy: 20-40 eV
InstrumentType: UPLC-QTOF-MS
Comment: PI: Cristina Nerin; Data collector: QiZhi Su, GUIA, University of Zaragoza, Spain; Collision energy: 20-40 V; Instrument: Waters HPLC-QTOF-MS (Xevo G2 QTof); Ionization: ESI; Deconvoluted by MS-DIAL; Column: Waters AtlantisTM premier BEH C18 AX column (2.1 × 100mm x 1.7μm); Flow rate: 0.3mL/min; Mobile phase A and B are water and methnaol, respectively, both with 0.1% formic acid; Gradient elution: from A/B (95/5) to A/B (100/0) in 7min, kept for 4 min, then back to A/B (95/5) in 0.1 min, and maintained for additional 1.9 min (13min in total).; Injection volume: 10 μL
Num peaks: 51
65.03912 4640
66.04102 250
77.0394 5119
78.03793 316
78.04507 316
79.05508 5928
80.04307 291
80.05941 316
81.033 723
81.03931 734
89.03952 3110
91.05541 1857
93.03422 13383
94.03845 574
106.06693 2835
107.04959 23548
107.06761 23725
108.05228 1187
108.06464 1208
109.01721 949
109.02987 954
111.04543 4745
116.04038 278
116.04824 311
116.05322 350
116.06191 349
117.02477 918
117.03411 952
117.05003 963
123.0465 617
134.06107 2959
135.02589 11172
135.04451 11042
136.04819 723
136.06921 343
139.03992 5333
140.02728 321
140.04225 390
140.05215 379
152.07147 11548
152.09018 11572
153.07419 712
153.09039 698
163.03636 559
163.04575 560
181.04993 3218
198.07724 14621
199.07143 879
199.08241 939
199.09869 812
395.14572 6410
Name: levadopa
PrecursorMZ: 198.0773
PrecursorType: [M+H]+
IonMode: Positive
Formula: C9H11NO4
SMILES: C1=CC(=C(C=C1CC(C(=O)O)N)O)O
InChI: 
InChIKey: WTDRDQBEARUVNC-LURJTMIESA-N
RetentionTime: 0.8558
CCS: 
CollisionEnergy: 20-40 eV
InstrumentType: UPLC-QTOF-MS
Comment: PI: Cristina Nerin; Data collector: QiZhi Su, GUIA, University of Zaragoza, Spain; Collision energy: 20-40 V; Instrument: Waters HPLC-QTOF-MS (Xevo G2 QTof); Ionization: ESI; Deconvoluted by MS-DIAL; Column: Waters AtlantisTM premier BEH C18 AX column (2.1 × 100mm x 1.7μm); Flow rate: 0.3mL/min; Mobile phase A and B are water and methnaol, respectively, both with 0.1% formic acid; Gradient elution: from A/B (95/5) to A/B (100/0) in 7min, kept for 4 min, then back to A/B (95/5) in 0.1 min, and maintained for additional 1.9 min (13min in total).; Injection volume: 10 μL
Num peaks: 47
65.03912 4642
66.03318 250
66.03943 250
77.03978 5128
78.03719 316
78.04523 316
78.04921 312
79.04335 5937
79.05531 5932
80.05881 315
81.01955 648
81.03409 723
81.04197 734
89.0388 3112
89.04403 3120
91.05526 1859
93.03439 13387
94.0332 573
94.0388 573
94.04751 577
106.06685 2834
107.05025 23578
108.0474 1186
108.05455 1187
109.02921 946
111.04465 4738
116.03762 272
116.04996 311
116.05701 360
117.03533 958
123.03902 608
123.04874 621
134.0619 2966
135.045 11054
136.03438 662
136.04918 730
136.06342 767
139.0403 5350
140.03174 356
140.04491 393
140.05072 386
140.06346 291
152.0724 11568
153.07643 708
163.04237 561
181.05243 3215
198.07828 15115
Name: "5,6-dimethylheptane-1,6-diamine"
PrecursorMZ: 159.1868
PrecursorType: [M+H]+
IonMode: Positive
Formula: C9H22N2
SMILES: CC(CCCCN)C(C)(C)N
InChI: 
InChIKey: HUXPKQXHDPXCMM-UHFFFAOYSA-N
RetentionTime: 0.50875
CCS: 
CollisionEnergy: 20-40 eV
InstrumentType: UPLC-QTOF-MS
Comment: PI: Cristina Nerin; Data collector: QiZhi Su, GUIA, University of Zaragoza, Spain; Collision energy: 20-40 V; Instrument: Waters HPLC-QTOF-MS (Xevo G2 QTof); Ionization: ESI; Deconvoluted by MS-DIAL; Column: Waters AtlantisTM premier BEH C18 AX column (2.1 × 100mm x 1.7μm); Flow rate: 0.3mL/min; Mobile phase A and B are water and methnaol, respectively, both with 0.1% formic acid; Gradient elution: from A/B (95/5) to A/B (100/0) in 7min, kept for 4 min, then back to A/B (95/5) in 0.1 min, and maintained for additional 1.9 min (13min in total).; Injection volume: 10 μL
Num peaks: 31
54.24247 25
57.06805 20
59.07179 22
65.03891 40
67.05611 20
69.06789 23
69.07289 70
72.08315 31
77.06631 38
79.04778 23
80.05434 23
83.08106 20
83.08593 28
84.07757 71
84.17012 24
84.95765 25
84.96455 21
88.05586 20
120.96062 20
121.97119 22
123.10923 22
130.07117 29
140.11531 39
140.14406 28
142.16235 237
143.16653 68
152.13242 42
154.16521 24
156.99562 21
159.18428 87
159.19353 51
Name: Tert-Butyldicyclohexylphosphine
PrecursorMZ: 255.2254
PrecursorType: [M+H]+
IonMode: Positive
Formula: C16H31P
SMILES: CC(C)(C)P(C1CCCCC1)C2CCCCC2
InChI: 
InChIKey: MQYZHXLHUNLBQH-UHFFFAOYSA-N
RetentionTime: 0.9394333
CCS: 
CollisionEnergy: 20-40 eV
InstrumentType: UPLC-QTOF-MS
Comment: PI: Cristina Nerin; Data collector: QiZhi Su, GUIA, University of Zaragoza, Spain; Collision energy: 20-40 V; Instrument: Waters HPLC-QTOF-MS (Xevo G2 QTof); Ionization: ESI; Deconvoluted by MS-DIAL; Column: Waters AtlantisTM premier BEH C18 AX column (2.1 × 100mm x 1.7μm); Flow rate: 0.3mL/min; Mobile phase A and B are water and methnaol, respectively, both with 0.1% formic acid; Gradient elution: from A/B (95/5) to A/B (100/0) in 7min, kept for 4 min, then back to A/B (95/5) in 0.1 min, and maintained for additional 1.9 min (13min in total).; Injection volume: 10 μL
Num peaks: 85
55.05273 391
55.05853 391
57.06672 169
57.0722 169
69.07118 1607
70.06556 87
70.07108 88
70.07642 88
71.05199 128
73.01931 84
73.03065 81
81.07176 123
83.05383 53
83.08674 3222
84.08368 161
84.08868 163
85.06305 71
86.06293 111
86.07099 111
90.02016 375
91.02235 116
91.03224 117
91.04677 121
97.1041 101
97.11222 95
98.05869 220
98.06548 220
98.09927 77
101.06998 44
102.01952 424
102.02551 423
104.03709 80
105.05137 46
112.06808 114
112.07859 118
112.08508 122
112.11222 144
115.04759 67
115.06734 61
116.03478 61
116.04024 57
116.0468 64
117.08414 701
118.04252 462
118.0522 475
118.05826 473
124.00488 64
125.12664 58
125.13798 53
126.13341 54
127.1292 42
129.07166 298
129.08183 316
129.08693 317
129.0968 299
140.14088 194
140.14993 194
142.14845 482
142.161 486
144.06789 46
145.02853 62
159.19002 77
168.14056 188
171.19363 45
173.10861 151
173.1174 151
177.05388 95
177.06688 91
197.14891 43
197.15492 42
199.16241 4167
200.14952 205
200.16724 385
211.14079 61
211.15919 169
211.16809 151
213.17686 42
229.16003 286
229.1769 405
229.19072 328
231.07323 54
231.08405 49
255.17812 613
255.19269 645
255.22578 1229
Name: Tert-Butyldicyclohexylphosphine
PrecursorMZ: 255.2258
PrecursorType: [M+H]+
IonMode: Positive
Formula: C16H31P
SMILES: CC(C)(C)P(C1CCCCC1)C2CCCCC2
InChI: 
InChIKey: MQYZHXLHUNLBQH-UHFFFAOYSA-N
RetentionTime: 2.863933
CCS: 
CollisionEnergy: 20-40 eV
InstrumentType: UPLC-QTOF-MS
Comment: PI: Cristina Nerin; Data collector: QiZhi Su, GUIA, University of Zaragoza, Spain; Collision energy: 20-40 V; Instrument: Waters HPLC-QTOF-MS (Xevo G2 QTof); Ionization: ESI; Deconvoluted by MS-DIAL; Column: Waters AtlantisTM premier BEH C18 AX column (2.1 × 100mm x 1.7μm); Flow rate: 0.3mL/min; Mobile phase A and B are water and methnaol, respectively, both with 0.1% formic acid; Gradient elution: from A/B (95/5) to A/B (100/0) in 7min, kept for 4 min, then back to A/B (95/5) in 0.1 min, and maintained for additional 1.9 min (13min in total).; Injection volume: 10 μL
Num peaks: 106
55.05658 48
57.15462 21
69.07537 42
72.93925 61
73.04867 53
77.03669 20
79.05812 56
81.07142 24
83.07602 36
83.0845 291
83.09165 364
83.86146 24
84.09073 33
85.02552 52
86.10697 26
88.07735 27
91.05403 23
91.06049 20
91.3786 70
92.04958 23
93.05792 23
98.02809 20
98.97623 58
99.0211 23
102.09209 32
105.0712 20
107.08645 26
108.04421 20
111.02348 44
112.90543 21
113.94756 26
115.05344 26
115.06271 22
116.94044 26
117.08441 144
117.09593 90
118.96825 21
120.08889 22
121.03199 61
128.06477 22
130.94547 27
131.00107 20
132.91341 24
134.06102 46
137.07098 25
137.91028 20
138.96962 33
138.99182 26
141.07658 20
141.15625 41
143.16983 52
146.93198 24
147.07181 23
147.12488 26
149.04132 26
149.07051 30
150.06081 24
152.07498 34
152.88631 27
153.1021 22
156.89438 20
159.18948 31
160.05214 20
163.98268 40
165.04684 23
166.09756 30
167.08286 20
167.88742 39
171.06743 20
171.17723 23
173.07329 32
177.04774 24
177.95285 22
178.07625 24
178.0844 21
185.11777 26
189.05099 36
190.70096 24
193.08942 28
194.03664 22
196.14586 26
199.02559 33
199.16258 910
199.17902 109
200.16765 117
202.17233 20
208.03368 25
209.16985 25
211.05681 22
211.07304 31
214.15678 20
218.0798 22
225.08786 27
227.19382 20
232.3398 20
236.07362 26
236.08365 36
237.09264 24
239.02155 21
242.05553 21
246.18661 21
250.85838 24
253.10245 21
255.1898 39
255.20761 35
255.22267 218
Name: sulfadimethoxine
PrecursorMZ: 311.0822
PrecursorType: [M+H]+
IonMode: Positive
Formula: C12H14N4O4S
SMILES: COC1=NC(=NC(=C1)NS(=O)(=O)C2=CC=C(C=C2)N)OC
InChI: 
InChIKey: ZZORFUFYDOWNEF-UHFFFAOYSA-N
RetentionTime: 4.5981
CCS: 
CollisionEnergy: 20-40 eV
InstrumentType: UPLC-QTOF-MS
Comment: PI: Cristina Nerin; Data collector: QiZhi Su, GUIA, University of Zaragoza, Spain; Collision energy: 20-40 V; Instrument: Waters HPLC-QTOF-MS (Xevo G2 QTof); Ionization: ESI; Deconvoluted by MS-DIAL; Column: Waters AtlantisTM premier BEH C18 AX column (2.1 × 100mm x 1.7μm); Flow rate: 0.3mL/min; Mobile phase A and B are water and methnaol, respectively, both with 0.1% formic acid; Gradient elution: from A/B (95/5) to A/B (100/0) in 7min, kept for 4 min, then back to A/B (95/5) in 0.1 min, and maintained for additional 1.9 min (13min in total).; Injection volume: 10 μL
Num peaks: 26
65.02563 6133
65.03893 6122
92.04981 135872
92.06618 135977
93.05415 8129
99.05627 2431
108.0448 130784
108.06208 130979
109.04861 5626
125.03979 3107
125.0587 3807
127.05107 10181
141.05409 7853
154.062 19706
155.06952 9385
156.01193 87268
156.07736 195106
157.01544 4952
157.08003 11719
158.01045 2052
173.05888 29354
218.02408 14669
230.08087 8376
245.10429 24184
246.10895 2202
311.08109 28593
Name: sulfadimethoxine
PrecursorMZ: 333.0646
PrecursorType: [M+Na]+
IonMode: Positive
Formula: C12H14N4O4S
SMILES: COC1=NC(=NC(=C1)NS(=O)(=O)C2=CC=C(C=C2)N)OC
InChI: 
InChIKey: ZZORFUFYDOWNEF-UHFFFAOYSA-N
RetentionTime: 4.643784
CCS: 
CollisionEnergy: 20-40 eV
InstrumentType: UPLC-QTOF-MS
Comment: PI: Cristina Nerin; Data collector: QiZhi Su, GUIA, University of Zaragoza, Spain; Collision energy: 20-40 V; Instrument: Waters HPLC-QTOF-MS (Xevo G2 QTof); Ionization: ESI; Deconvoluted by MS-DIAL; Column: Waters AtlantisTM premier BEH C18 AX column (2.1 × 100mm x 1.7μm); Flow rate: 0.3mL/min; Mobile phase A and B are water and methnaol, respectively, both with 0.1% formic acid; Gradient elution: from A/B (95/5) to A/B (100/0) in 7min, kept for 4 min, then back to A/B (95/5) in 0.1 min, and maintained for additional 1.9 min (13min in total).; Injection volume: 10 μL
Num peaks: 33
65.04001 659
92.04989 19044
93.05521 866
99.05503 373
108.04463 17665
109.0488 999
125.05721 421
127.05009 644
127.05776 381
129.08044 398
129.08849 561
141.05368 785
145.06802 357
147.04895 379
154.063 2505
155.07198 991
156.01221 12830
156.07779 33113
157.01955 368
157.08144 1350
173.05923 2824
177.05621 4671
199.16382 904
200.16747 334
211.16486 849
218.02589 1677
230.08661 648
231.06889 334
245.10429 2679
255.2278 1531
255.23833 361
257.08569 760
311.08109 3437
Name: Vitamine E (alpha tocapherol)
PrecursorMZ: 453.3715
PrecursorType: [M+Na]+
IonMode: Positive
Formula: C29H50O2
SMILES: CC1=C(C2=C(CCC(O2)(C)CCCC(C)CCCC(C)CCCC(C)C)C(=C1O)C)C
InChI: 
InChIKey: GVJHHUAWPYXKBD-UHFFFAOYSA-N
RetentionTime: 10.12695
CCS: 
CollisionEnergy: 20-40 eV
InstrumentType: UPLC-QTOF-MS
Comment: PI: Cristina Nerin; Data collector: QiZhi Su, GUIA, University of Zaragoza, Spain; Collision energy: 20-40 V; Instrument: Waters HPLC-QTOF-MS (Xevo G2 QTof); Ionization: ESI; Deconvoluted by MS-DIAL; Column: Waters AtlantisTM premier BEH C18 AX column (2.1 × 100mm x 1.7μm); Flow rate: 0.3mL/min; Mobile phase A and B are water and methnaol, respectively, both with 0.1% formic acid; Gradient elution: from A/B (95/5) to A/B (100/0) in 7min, kept for 4 min, then back to A/B (95/5) in 0.1 min, and maintained for additional 1.9 min (13min in total).; Injection volume: 10 μL
Num peaks: 13
136.08904 1718
137.09625 2915
137.10677 2936
149.09903 2015
163.11362 2072
164.08365 5948
165.09143 118644
166.09567 6435
177.09389 1720
184.0657 1312
191.10617 1564
205.12315 3905
429.37457 1598
Name: Vitamine E (alpha tocapherol)
PrecursorMZ: 431.3841
PrecursorType: [M+H]+
IonMode: Positive
Formula: C29H50O2
SMILES: CC1=C(C2=C(CCC(O2)(C)CCCC(C)CCCC(C)CCCC(C)C)C(=C1O)C)C
InChI: 
InChIKey: GVJHHUAWPYXKBD-UHFFFAOYSA-N
RetentionTime: 10.14218
CCS: 
CollisionEnergy: 20-40 eV
InstrumentType: UPLC-QTOF-MS
Comment: PI: Cristina Nerin; Data collector: QiZhi Su, GUIA, University of Zaragoza, Spain; Collision energy: 20-40 V; Instrument: Waters HPLC-QTOF-MS (Xevo G2 QTof); Ionization: ESI; Deconvoluted by MS-DIAL; Column: Waters AtlantisTM premier BEH C18 AX column (2.1 × 100mm x 1.7μm); Flow rate: 0.3mL/min; Mobile phase A and B are water and methnaol, respectively, both with 0.1% formic acid; Gradient elution: from A/B (95/5) to A/B (100/0) in 7min, kept for 4 min, then back to A/B (95/5) in 0.1 min, and maintained for additional 1.9 min (13min in total).; Injection volume: 10 μL
Num peaks: 37
81.06747 437
81.07288 446
81.08008 447
83.08616 546
83.09549 546
95.08578 445
111.12447 334
135.07938 426
138.10339 388
138.11699 347
149.09647 1051
159.11978 365
163.11205 1498
163.11931 1525
164.08376 3081
167.1046 374
175.11467 743
175.13342 580
177.09232 2038
177.10614 1996
177.12639 347
184.57765 346
187.1105 569
187.12231 577
191.10619 1175
191.11403 800
201.12692 371
201.1404 377
205.12366 4845
206.11061 330
219.14694 394
317.215 794
317.2265 722
429.3754 1816
429.39124 1406
430.37964 32806
431.38342 8283
Name: Curcumine
PrecursorMZ: 369.1333
PrecursorType: [M+H]+
IonMode: Positive
Formula: C21H20O6
SMILES: COC1=C(C=CC(=C1)C=CC(=O)CC(=O)C=CC2=CC(=C(C=C2)O)OC)O
InChI: 
InChIKey: VFLDPWHFBUODDF-FCXRPNKRSA-N
RetentionTime: 6.594433
CCS: 
CollisionEnergy: 20-40 eV
InstrumentType: UPLC-QTOF-MS
Comment: PI: Cristina Nerin; Data collector: QiZhi Su, GUIA, University of Zaragoza, Spain; Collision energy: 20-40 V; Instrument: Waters HPLC-QTOF-MS (Xevo G2 QTof); Ionization: ESI; Deconvoluted by MS-DIAL; Column: Waters AtlantisTM premier BEH C18 AX column (2.1 × 100mm x 1.7μm); Flow rate: 0.3mL/min; Mobile phase A and B are water and methnaol, respectively, both with 0.1% formic acid; Gradient elution: from A/B (95/5) to A/B (100/0) in 7min, kept for 4 min, then back to A/B (95/5) in 0.1 min, and maintained for additional 1.9 min (13min in total).; Injection volume: 10 μL
Num peaks: 92
63.02733 98
65.03966 108
69.0006 107
77.03802 97
79.05885 68
83.09357 89
84.96318 70
89.03944 1893
90.04519 80
91.0491 92
91.05762 281
95.08817 80
105.07117 163
106.0381 91
107.08654 91
115.05345 70
115.05971 133
116.05737 73
117.03543 2053
119.04868 365
123.04874 101
127.05581 100
128.06146 73
129.04939 86
131.04721 205
131.05804 161
133.06299 93
134.03561 282
136.05861 172
137.05763 64
139.06462 64
143.04495 87
143.05516 83
144.05141 82
145.03023 5537
145.06847 69
146.03627 944
146.04462 366
147.0434 642
147.05243 244
149.05713 165
149.06732 234
151.03812 77
151.07858 228
151.63882 74
153.72812 70
156.01323 118
159.05125 88
160.04559 75
160.05655 197
161.06142 1682
162.06895 99
165.06975 253
175.07378 439
177.05615 6197
177.07751 105
178.04907 81
178.06107 420
182.07748 179
185.06508 109
193.05791 67
193.0717 64
202.06453 86
203.05246 100
206.99854 63
210.0696 118
213.05634 120
214.99983 119
216.01776 77
221.06659 246
222.06554 109
223.06979 91
225.08388 86
225.09596 442
227.06741 75
229.05847 93
238.05524 75
245.09273 165
253.08228 435
253.09256 479
254.09999 85
255.10376 129
257.08865 67
285.10025 79
285.12122 274
290.0318 72
299.13986 93
313.008 76
339.13422 89
342.31467 76
365.1091 81
369.13687 1165
Name: "2-diphenylacetyl-1,3-indandione-1-hydrazone"
PrecursorMZ: 355.1443
PrecursorType: [M+H]+
IonMode: Positive
Formula: C23H18N2O2
SMILES: C1=CC=C(C=C1)C(C2=CC=CC=C2)C(=O)C3C(=NN)C4=CC=CC=C4C3=O
InChI: 
InChIKey: QBGMRRUHCFHZLC-NJNXFGOHSA-N
RetentionTime: 6.709133
CCS: 
CollisionEnergy: 20-40 eV
InstrumentType: UPLC-QTOF-MS
Comment: PI: Cristina Nerin; Data collector: QiZhi Su, GUIA, University of Zaragoza, Spain; Collision energy: 20-40 V; Instrument: Waters HPLC-QTOF-MS (Xevo G2 QTof); Ionization: ESI; Deconvoluted by MS-DIAL; Column: Waters AtlantisTM premier BEH C18 AX column (2.1 × 100mm x 1.7μm); Flow rate: 0.3mL/min; Mobile phase A and B are water and methnaol, respectively, both with 0.1% formic acid; Gradient elution: from A/B (95/5) to A/B (100/0) in 7min, kept for 4 min, then back to A/B (95/5) in 0.1 min, and maintained for additional 1.9 min (13min in total).; Injection volume: 10 μL
Num peaks: 127
77.04327 92
79.03085 114
79.03432 119
79.04465 144
83.08031 128
83.08708 125
83.10534 79
102.03026 110
102.0386 105
103.05022 96
105.02628 171
105.03626 112
105.04428 134
105.05527 122
117.05416 77
129.03627 102
129.05701 71
130.03082 306
130.0625 72
132.02979 394
132.04747 429
132.06216 418
133.08282 72
144.04485 147
144.05312 143
146.06279 331
147.03685 324
152.06155 93
161.10892 82
166.07518 117
167.09059 130
167.10576 237
168.09471 141
171.05136 79
179.0898 129
179.09692 181
187.0408 137
189.05492 124
189.06607 160
189.07959 155
190.05983 85
192.08829 245
193.09309 335
194.09456 87
204.06958 928
204.08594 970
205.08482 303
205.10048 217
206.07208 167
206.0907 509
206.10243 561
207.08647 157
207.10292 216
216.08417 174
216.09737 359
217.05386 93
217.09145 227
217.10121 436
218.09532 76
220.08467 277
221.07454 172
221.08562 223
221.10144 196
222.1114 144
224.99992 80
230.0723 73
231.08162 153
231.09767 253
232.07877 807
233.06152 122
233.08316 216
233.1153 80
241.08139 75
243.16518 76
243.19359 268
245.09528 76
249.10585 1624
250.09128 180
250.10519 255
250.11816 222
259.09067 372
260.0722 105
260.09695 776
261.07269 68
261.08255 107
261.1059 181
264.10333 73
266.10147 111
266.12372 71
277.0755 111
277.09296 162
278.0907 133
291.06329 71
291.10675 4027
292.11438 1104
293.10025 86
293.12033 167
294.09656 134
295.09851 151
295.11551 190
295.14642 97
301.08011 83
302.09784 103
302.1163 162
303.0929 147
303.10803 183
308.10617 426
308.1275 297
309.1347 182
310.11075 959
310.12646 83
311.11682 183
311.13461 225
318.10172 162
319.10495 854
319.12219 858
320.10959 6738
321.10437 3623
321.11844 3778
322.11853 468
322.13208 76
337.13593 487
338.10815 96
338.12799 214
338.14734 510
355.14508 477
355.15894 319
Name: "2-diphenylacetyl-1,3-indandione-1-hydrazone"
PrecursorMZ: 377.1275
PrecursorType: [M+Na]+
IonMode: Positive
Formula: C23H18N2O2
SMILES: C1=CC=C(C=C1)C(C2=CC=CC=C2)C(=O)C3C(=NN)C4=CC=CC=C4C3=O
InChI: 
InChIKey: QBGMRRUHCFHZLC-NJNXFGOHSA-N
RetentionTime: 6.712934
CCS: 
CollisionEnergy: 20-40 eV
InstrumentType: UPLC-QTOF-MS
Comment: PI: Cristina Nerin; Data collector: QiZhi Su, GUIA, University of Zaragoza, Spain; Collision energy: 20-40 V; Instrument: Waters HPLC-QTOF-MS (Xevo G2 QTof); Ionization: ESI; Deconvoluted by MS-DIAL; Column: Waters AtlantisTM premier BEH C18 AX column (2.1 × 100mm x 1.7μm); Flow rate: 0.3mL/min; Mobile phase A and B are water and methnaol, respectively, both with 0.1% formic acid; Gradient elution: from A/B (95/5) to A/B (100/0) in 7min, kept for 4 min, then back to A/B (95/5) in 0.1 min, and maintained for additional 1.9 min (13min in total).; Injection volume: 10 μL
Num peaks: 163
77.0384 91
77.0453 94
79.0298 76
102.02668 90
102.03387 88
102.03967 87
103.04613 88
103.05184 83
103.06025 74
104.04809 310
104.05626 316
105.03184 150
105.03991 161
116.04399 83
116.05228 82
128.04655 93
128.05974 82
129.03676 72
130.03258 941
131.02657 82
132.04446 439
132.05215 434
144.04546 133
146.05902 276
146.07353 312
161.10262 78
165.0697 355
165.09238 233
166.07011 83
166.08035 82
166.09001 78
167.07655 590
167.08775 615
168.0847 136
168.0995 132
179.08507 188
187.04866 167
187.06334 145
189.06821 131
190.06319 79
190.07315 99
190.08841 89
191.08817 775
192.0791 227
192.09193 226
193.07393 227
193.09286 375
203.07167 96
203.0834 90
204.08162 938
204.09549 884
205.06609 152
205.08208 276
205.09511 238
206.09804 861
206.10701 830
207.10445 216
207.11446 204
216.08223 343
217.07213 332
217.08182 435
217.09479 407
217.11244 126
220.07365 262
220.09003 274
221.07109 111
221.08775 217
222.0892 165
222.1019 182
225.00055 230
231.08763 530
231.10225 511
232.07808 2748
233.06749 432
233.08647 528
233.10124 432
234.08113 343
234.09427 387
242.06964 89
243.18491 255
243.20267 233
249.09172 1770
249.10611 1815
250.09416 159
250.10553 246
250.12447 215
259.07672 380
259.09042 353
260.09183 978
260.10538 931
261.08301 83
261.09747 166
261.11877 96
265.0968 487
265.11526 459
266.09113 78
266.10141 113
266.11932 101
277.0777 128
277.08667 161
277.10751 117
278.1055 134
290.10043 340
291.1051 3983
292.11313 3188
293.10056 1103
293.11719 1316
293.12802 945
294.09863 186
294.12524 422
294.13599 387
295.0986 126
295.11493 161
295.13611 80
301.09674 95
302.07581 105
302.09042 278
302.10263 276
302.12531 69
303.10672 150
307.1171 112
307.1333 82
308.1055 376
308.13037 271
308.14636 134
309.10571 111
309.12466 179
309.15085 114
310.12253 997
310.13577 988
311.12808 199
317.09158 72
318.09158 127
318.10544 192
318.12698 200
319.09244 1608
319.10577 1831
319.13382 406
320.10855 6788
321.11093 3697
321.12482 3572
322.11145 550
322.12265 609
322.14493 162
336.12582 123
336.14551 95
337.13467 2413
338.11978 158
338.14056 492
338.16623 68
355.13757 669
355.15469 578
356.15762 115
368.43073 77
374.10504 320
374.11746 390
374.13339 317
374.60004 103
374.61761 161
375.07895 367
376.06775 130
377.11996 567
377.13303 641
Name: "2,2'-Biquinoline"
PrecursorMZ: 279.0918
PrecursorType: [M+Na]+
IonMode: Positive
Formula: C18H12N2
SMILES: C1=CC=C2C(=C1)C=CC(=N2)C3=NC4=CC=CC=C4C=C3
InChI: 
InChIKey: WPTCSQBWLUUYDV-UHFFFAOYSA-N
RetentionTime: 7.429033
CCS: 
CollisionEnergy: 20-40 eV
InstrumentType: UPLC-QTOF-MS
Comment: PI: Cristina Nerin; Data collector: QiZhi Su, GUIA, University of Zaragoza, Spain; Collision energy: 20-40 V; Instrument: Waters HPLC-QTOF-MS (Xevo G2 QTof); Ionization: ESI; Deconvoluted by MS-DIAL; Column: Waters AtlantisTM premier BEH C18 AX column (2.1 × 100mm x 1.7μm); Flow rate: 0.3mL/min; Mobile phase A and B are water and methnaol, respectively, both with 0.1% formic acid; Gradient elution: from A/B (95/5) to A/B (100/0) in 7min, kept for 4 min, then back to A/B (95/5) in 0.1 min, and maintained for additional 1.9 min (13min in total).; Injection volume: 10 μL
Num peaks: 11
101.03925 34227
128.05031 544997
129.05336 48382
230.09737 12821
255.09306 29549
256.10065 81040
257.10953 1234788
257.19308 16381
257.26941 32183
258.1123 263742
259.11508 22178
Name: 4-Aminophenazone
PrecursorMZ: 226.0968
PrecursorType: [M+Na]+
IonMode: Positive
Formula: C11H13N3O
SMILES: CC1=C(C(=O)N(N1C)C2=CC=CC=C2)N
InChI: 
InChIKey: RLFWWDJHLFCNIJ-UHFFFAOYSA-N
RetentionTime: 2.151483
CCS: 
CollisionEnergy: 20-40 eV
InstrumentType: UPLC-QTOF-MS
Comment: PI: Cristina Nerin; Data collector: QiZhi Su, GUIA, University of Zaragoza, Spain; Collision energy: 20-40 V; Instrument: Waters HPLC-QTOF-MS (Xevo G2 QTof); Ionization: ESI; Deconvoluted by MS-DIAL; Column: Waters AtlantisTM premier BEH C18 AX column (2.1 × 100mm x 1.7μm); Flow rate: 0.3mL/min; Mobile phase A and B are water and methnaol, respectively, both with 0.1% formic acid; Gradient elution: from A/B (95/5) to A/B (100/0) in 7min, kept for 4 min, then back to A/B (95/5) in 0.1 min, and maintained for additional 1.9 min (13min in total).; Injection volume: 10 μL
Num peaks: 183
56.05025 961
56.16206 48
56.44208 54
57.04963 28
58.06606 61
62.32555 46
65.03349 32
65.06361 24
68.59174 44
70.05839 29
70.07594 65
73.07558 55
75.04301 39
76.02805 24
77.04007 907
78.03419 705
78.04139 139
79.03529 55
79.04373 27
80.05433 74
81.04568 40
82.06892 24
83.05437 81
83.06169 396
84.06079 24
84.95779 26
84.96124 49
85.0722 96
85.07822 171
89.03713 25
90.03377 56
90.04672 58
91.05323 258
92.0463 42
92.05148 68
92.0597 26
94.06706 1455
94.07417 237
95.06747 42
98.00185 33
101.03918 101
101.07811 26
102.03954 51
103.0427 59
103.05054 110
103.05991 183
104.04321 34
104.05349 563
105.04198 41
105.05019 57
106.0693 35
107.05178 33
108.03089 42
108.08264 24
111.05346 72
115.03542 45
115.04378 30
115.05102 71
115.05801 294
115.65427 34
116.04992 97
116.05842 24
117.05563 598
117.06474 317
118.05973 88
118.07235 368
118.08761 49
119.039 27
119.05447 44
119.0722 154
119.08934 29
120.05274 64
120.07596 33
120.54967 35
121.00954 42
121.53315 53
122.73689 26
123.02317 83
123.09099 33
127.04897 53
127.05724 33
128.05099 906
128.0598 271
128.06877 130
129.04897 43
129.05916 49
129.0659 24
130.06619 2030
131.05763 45
131.0667 131
131.07722 90
131.18417 24
132.00363 44
132.01666 25
132.0482 93
132.06117 24
132.08359 1511
133.07004 33
133.08298 85
135.24788 27
140.05219 90
140.14404 109
142.04472 27
142.05981 69
142.06645 112
143.06422 34
143.08354 49
143.85809 26
144.06122 34
144.08322 52
144.09427 41
145.07593 332
145.08731 46
146.06172 515
146.08237 26
150.07077 31
151.03604 24
152.06567 24
153.54077 47
155.05638 35
155.06247 46
156.03285 24
156.06427 81
157.02478 27
157.07669 2356
157.09186 110
157.65749 38
158.03899 64
158.05548 120
158.06734 178
158.07953 225
158.98943 27
159.02577 24
159.09215 1085
160.01405 44
160.06152 62
160.07849 117
160.09389 214
161.09816 145
161.10423 51
162.05333 26
162.0952 26
163.05392 28
163.56027 73
163.88936 34
169.07715 133
169.09012 26
171.0531 50
172.0631 95
172.07524 162
174.0847 97
177.10272 64
183.12181 39
184.00166 29
185.07175 94
185.72633 24
186.00478 24
187.05222 59
187.08765 222
187.10162 27
188.08829 139
188.10834 66
189.08623 115
189.0984 62
194.1274 36
199.52492 25
202.09338 51
202.10474 79
203.09987 25
203.10696 29
204.1118 113
204.12254 48
209.11034 26
209.15784 34
210.12846 64
214.10875 46
221.09229 26
223.02486 37
224.9695 30
225.03745 24
225.08153 45
226.08121 49
226.09749 267
Name: Benzoic acid
PrecursorMZ: 160.993
PrecursorType: [M+K]+
IonMode: Positive
Formula: C7H6O2
SMILES: C1=CC=C(C=C1)C(=O)O
InChI: 
InChIKey: WPYMKLBDIGXBTP-UHFFFAOYSA-N
RetentionTime: 5.314283
CCS: 
CollisionEnergy: 20-40 eV
InstrumentType: UPLC-QTOF-MS
Comment: PI: Cristina Nerin; Data collector: QiZhi Su, GUIA, University of Zaragoza, Spain; Collision energy: 20-40 V; Instrument: Waters HPLC-QTOF-MS (Xevo G2 QTof); Ionization: ESI; Deconvoluted by MS-DIAL; Column: Waters AtlantisTM premier BEH C18 AX column (2.1 × 100mm x 1.7μm); Flow rate: 0.3mL/min; Mobile phase A and B are water and methnaol, respectively, both with 0.1% formic acid; Gradient elution: from A/B (95/5) to A/B (100/0) in 7min, kept for 4 min, then back to A/B (95/5) in 0.1 min, and maintained for additional 1.9 min (13min in total).; Injection volume: 10 μL
Num peaks: 22
56.96675 91
69.06744 44
69.073 44
77.03446 167
77.03968 167
79.05159 49
79.06324 56
81.0709 86
105.03503 852
106.03883 62
106.04488 60
110.96598 291
110.97771 287
117.00227 3146
118.00672 146
120.99313 48
120.99992 54
132.97487 259
132.99924 47
134.97581 49
145.01097 44
160.99232 4206
Name: Benzoic acid
PrecursorMZ: 283.0305
PrecursorType: [2M+K]+
IonMode: Positive
Formula: C7H6O2
SMILES: C1=CC=C(C=C1)C(=O)O
InChI: 
InChIKey: WPYMKLBDIGXBTP-UHFFFAOYSA-N
RetentionTime: 5.314283
CCS: 
CollisionEnergy: 20-40 eV
InstrumentType: UPLC-QTOF-MS
Comment: PI: Cristina Nerin; Data collector: QiZhi Su, GUIA, University of Zaragoza, Spain; Collision energy: 20-40 V; Instrument: Waters HPLC-QTOF-MS (Xevo G2 QTof); Ionization: ESI; Deconvoluted by MS-DIAL; Column: Waters AtlantisTM premier BEH C18 AX column (2.1 × 100mm x 1.7μm); Flow rate: 0.3mL/min; Mobile phase A and B are water and methnaol, respectively, both with 0.1% formic acid; Gradient elution: from A/B (95/5) to A/B (100/0) in 7min, kept for 4 min, then back to A/B (95/5) in 0.1 min, and maintained for additional 1.9 min (13min in total).; Injection volume: 10 μL
Num peaks: 42
56.96675 91
77.03446 167
77.03968 167
79.05159 49
79.06324 56
81.0709 86
105.03503 852
106.03883 62
106.04488 60
110.96598 291
110.97771 287
117.00227 3146
118.00672 146
120.99313 48
120.99992 54
132.97487 259
132.99924 47
134.97581 49
160.99232 4627
161.98175 233
161.99843 244
162.98325 53
163.00507 56
164.98141 63
164.99263 67
178.99429 64
179.00475 66
179.01237 65
181.05347 145
181.06201 160
181.06943 161
195.03951 80
195.04941 47
216.93744 110
216.96645 99
225.05002 165
225.06226 156
226.00862 115
226.02946 64
251.05452 74
251.06512 66
283.03067 52
Name: Bis(2-ethylhexyl) maleate
PrecursorMZ: 363.2502
PrecursorType: [M+Na]+
IonMode: Positive
Formula: C20H36O4
SMILES: CCCCC(CC)COC(=O)C=CC(=O)OCC(CC)CCCC
InChI: 
InChIKey: ROPXFXOUUANXRR-YPKPFQOOSA-N
RetentionTime: 8.305667
CCS: 
CollisionEnergy: 20-40 eV
InstrumentType: UPLC-QTOF-MS
Comment: PI: Cristina Nerin; Data collector: QiZhi Su, GUIA, University of Zaragoza, Spain; Collision energy: 20-40 V; Instrument: Waters HPLC-QTOF-MS (Xevo G2 QTof); Ionization: ESI; Deconvoluted by MS-DIAL; Column: Waters AtlantisTM premier BEH C18 AX column (2.1 × 100mm x 1.7μm); Flow rate: 0.3mL/min; Mobile phase A and B are water and methnaol, respectively, both with 0.1% formic acid; Gradient elution: from A/B (95/5) to A/B (100/0) in 7min, kept for 4 min, then back to A/B (95/5) in 0.1 min, and maintained for additional 1.9 min (13min in total).; Injection volume: 10 μL
Num peaks: 13
71.00201 1361
71.01315 1460
71.086 2834
98.98937 25174
99.00735 25170
117.01868 2393
139.00075 3626
154.96617 3719
251.12703 10506
267.09109 5176
270.97092 1340
270.98569 1321
363.24878 107486
Name: Bis(2-ethylhexyl) maleate
PrecursorMZ: 379.2249
PrecursorType: [M+K]+
IonMode: Positive
Formula: C20H36O4
SMILES: CCCCC(CC)COC(=O)C=CC(=O)OCC(CC)CCCC
InChI: 
InChIKey: ROPXFXOUUANXRR-YPKPFQOOSA-N
RetentionTime: 8.309466
CCS: 
CollisionEnergy: 20-40 eV
InstrumentType: UPLC-QTOF-MS
Comment: PI: Cristina Nerin; Data collector: QiZhi Su, GUIA, University of Zaragoza, Spain; Collision energy: 20-40 V; Instrument: Waters HPLC-QTOF-MS (Xevo G2 QTof); Ionization: ESI; Deconvoluted by MS-DIAL; Column: Waters AtlantisTM premier BEH C18 AX column (2.1 × 100mm x 1.7μm); Flow rate: 0.3mL/min; Mobile phase A and B are water and methnaol, respectively, both with 0.1% formic acid; Gradient elution: from A/B (95/5) to A/B (100/0) in 7min, kept for 4 min, then back to A/B (95/5) in 0.1 min, and maintained for additional 1.9 min (13min in total).; Injection volume: 10 μL
Num peaks: 12
71.01293 1460
71.08508 2834
99.00769 25174
117.01943 2392
139.00134 3628
154.96527 3719
251.1256 10507
267.091 5176
270.97818 1321
363.24881 106104
364.2536 17389
365.25815 1288
Name: Bis(2-ethylhexyl) maleate
PrecursorMZ: 703.5109
PrecursorType: [2M+Na]+
IonMode: Positive
Formula: C20H36O4
SMILES: CCCCC(CC)COC(=O)C=CC(=O)OCC(CC)CCCC
InChI: 
InChIKey: ROPXFXOUUANXRR-YPKPFQOOSA-N
RetentionTime: 8.309466
CCS: 
CollisionEnergy: 20-40 eV
InstrumentType: UPLC-QTOF-MS
Comment: PI: Cristina Nerin; Data collector: QiZhi Su, GUIA, University of Zaragoza, Spain; Collision energy: 20-40 V; Instrument: Waters HPLC-QTOF-MS (Xevo G2 QTof); Ionization: ESI; Deconvoluted by MS-DIAL; Column: Waters AtlantisTM premier BEH C18 AX column (2.1 × 100mm x 1.7μm); Flow rate: 0.3mL/min; Mobile phase A and B are water and methnaol, respectively, both with 0.1% formic acid; Gradient elution: from A/B (95/5) to A/B (100/0) in 7min, kept for 4 min, then back to A/B (95/5) in 0.1 min, and maintained for additional 1.9 min (13min in total).; Injection volume: 10 μL
Num peaks: 15
71.01293 1460
71.08508 2834
99.00769 25174
117.01943 2392
139.00134 3628
154.96527 3719
251.1256 10507
267.091 5176
270.97818 1321
363.24881 106104
364.2536 17389
365.25815 1288
383.10947 1137
495.22574 1788
607.35199 1066
Name: Bis(2-ethylhexyl) maleate
PrecursorMZ: 341.2687
PrecursorType: [M+H]+
IonMode: Positive
Formula: C20H36O4
SMILES: CCCCC(CC)COC(=O)C=CC(=O)OCC(CC)CCCC
InChI: 
InChIKey: ROPXFXOUUANXRR-YPKPFQOOSA-N
RetentionTime: 8.313283
CCS: 
CollisionEnergy: 20-40 eV
InstrumentType: UPLC-QTOF-MS
Comment: PI: Cristina Nerin; Data collector: QiZhi Su, GUIA, University of Zaragoza, Spain; Collision energy: 20-40 V; Instrument: Waters HPLC-QTOF-MS (Xevo G2 QTof); Ionization: ESI; Deconvoluted by MS-DIAL; Column: Waters AtlantisTM premier BEH C18 AX column (2.1 × 100mm x 1.7μm); Flow rate: 0.3mL/min; Mobile phase A and B are water and methnaol, respectively, both with 0.1% formic acid; Gradient elution: from A/B (95/5) to A/B (100/0) in 7min, kept for 4 min, then back to A/B (95/5) in 0.1 min, and maintained for additional 1.9 min (13min in total).; Injection volume: 10 μL
Num peaks: 24
57.06748 548
57.07168 546
71.01358 1609
71.08618 2651
99.00751 28072
100.00887 435
100.01893 427
117.0194 2560
138.98428 3661
139.00156 3621
151.06058 336
151.06978 350
154.96585 3671
198.95636 348
198.97356 340
223.10289 316
251.12599 10466
252.12979 805
252.14529 770
252.95279 325
252.96962 343
267.09167 4784
270.97815 1320
303.08762 401
Name: Calcium stearate
PrecursorMZ: 607.4965
PrecursorType: [M+H]+
IonMode: Positive
Formula: C36H70O4
SMILES: CCCCCCCCCCCCCCCCCC(=O)[O-].CCCCCCCCCCCCCCCCCC(=O)[O-].[Ca+2]
InChI: 
InChIKey: CJZGTCYPCWQAJB-UHFFFAOYSA-L
RetentionTime: 9.182283
CCS: 
CollisionEnergy: 20-40 eV
InstrumentType: UPLC-QTOF-MS
Comment: PI: Cristina Nerin; Data collector: QiZhi Su, GUIA, University of Zaragoza, Spain; Collision energy: 20-40 V; Instrument: Waters HPLC-QTOF-MS (Xevo G2 QTof); Ionization: ESI; Deconvoluted by MS-DIAL; Column: Waters AtlantisTM premier BEH C18 AX column (2.1 × 100mm x 1.7μm); Flow rate: 0.3mL/min; Mobile phase A and B are water and methnaol, respectively, both with 0.1% formic acid; Gradient elution: from A/B (95/5) to A/B (100/0) in 7min, kept for 4 min, then back to A/B (95/5) in 0.1 min, and maintained for additional 1.9 min (13min in total).; Injection volume: 10 μL
Num peaks: 15
89.06133 135
89.0707 147
89.07773 161
265.01346 192
265.02792 180
281.05206 135
307.23093 133
307.24942 258
307.25931 259
323.22552 10210
324.21759 1221
324.23007 1286
325.23291 155
339.20087 176
607.52087 110
Name: Benzophenone
PrecursorMZ: 183.0811
PrecursorType: [M+H]+
IonMode: Positive
Formula: C13H10O
SMILES: C1=CC=C(C=C1)C(=O)C2=CC=CC=C2
InChI: 
InChIKey: RWCCWEUUXYIKHB-UHFFFAOYSA-N
RetentionTime: 6.4345
CCS: 
CollisionEnergy: 20-40 eV
InstrumentType: UPLC-QTOF-MS
Comment: PI: Cristina Nerin; Data collector: QiZhi Su, GUIA, University of Zaragoza, Spain; Collision energy: 20-40 V; Instrument: Waters HPLC-QTOF-MS (Xevo G2 QTof); Ionization: ESI; Deconvoluted by MS-DIAL; Column: Waters AtlantisTM premier BEH C18 AX column (2.1 × 100mm x 1.7μm); Flow rate: 0.3mL/min; Mobile phase A and B are water and methnaol, respectively, both with 0.1% formic acid; Gradient elution: from A/B (95/5) to A/B (100/0) in 7min, kept for 4 min, then back to A/B (95/5) in 0.1 min, and maintained for additional 1.9 min (13min in total).; Injection volume: 10 μL
Num peaks: 24
77.03875 26912
78.03934 1048
78.04413 1049
105.03339 40438
106.01898 1625
106.03835 1787
107.08759 596
111.01723 6998
111.51982 970
111.52444 970
117.00114 625
117.01244 604
120.02254 5674
120.04195 5675
120.5266 753
129.02936 2720
129.53183 413
138.01764 567
138.02985 590
138.03737 588
153.06519 412
153.075 411
165.06662 1390
165.07675 1389
Name: Ethyl 4-(dimethylamino)benzoate
PrecursorMZ: 216.101
PrecursorType: [M+Na]+
IonMode: Positive
Formula: C11H15NO2
SMILES: CCOC(=O)C1=CC=C(C=C1)N(C)C
InChI: 
InChIKey: FZUGPQWGEGAKET-UHFFFAOYSA-N
RetentionTime: 6.503033
CCS: 
CollisionEnergy: 20-40 eV
InstrumentType: UPLC-QTOF-MS
Comment: PI: Cristina Nerin; Data collector: QiZhi Su, GUIA, University of Zaragoza, Spain; Collision energy: 20-40 V; Instrument: Waters HPLC-QTOF-MS (Xevo G2 QTof); Ionization: ESI; Deconvoluted by MS-DIAL; Column: Waters AtlantisTM premier BEH C18 AX column (2.1 × 100mm x 1.7μm); Flow rate: 0.3mL/min; Mobile phase A and B are water and methnaol, respectively, both with 0.1% formic acid; Gradient elution: from A/B (95/5) to A/B (100/0) in 7min, kept for 4 min, then back to A/B (95/5) in 0.1 min, and maintained for additional 1.9 min (13min in total).; Injection volume: 10 μL
Num peaks: 18
77.03854 11096
79.04021 30242
79.05396 30219
106.06509 62051
107.07243 29782
134.06023 460340
135.04456 44237
135.06447 44058
148.07675 6888
150.0551 221235
151.06297 649134
152.06601 52075
164.07094 18118
166.08665 141875
167.08994 12005
179.09436 105261
180.09798 9111
194.11807 25266
Name: pentaerythritol triacetate
PrecursorMZ: 321.095
PrecursorType: [M+Na]+
IonMode: Positive
Formula: C14H18O7
SMILES: C=CC(=O)OCC(CO)(COC(=O)C=C)COC(=O)C=C
InChI: 
InChIKey: HVVWZTWDBSEWIH-UHFFFAOYSA-N
RetentionTime: 5.1011
CCS: 
CollisionEnergy: 20-40 eV
InstrumentType: UPLC-QTOF-MS
Comment: PI: Cristina Nerin; Data collector: QiZhi Su, GUIA, University of Zaragoza, Spain; Collision energy: 20-40 V; Instrument: Waters HPLC-QTOF-MS (Xevo G2 QTof); Ionization: ESI; Deconvoluted by MS-DIAL; Column: Waters AtlantisTM premier BEH C18 AX column (2.1 × 100mm x 1.7μm); Flow rate: 0.3mL/min; Mobile phase A and B are water and methnaol, respectively, both with 0.1% formic acid; Gradient elution: from A/B (95/5) to A/B (100/0) in 7min, kept for 4 min, then back to A/B (95/5) in 0.1 min, and maintained for additional 1.9 min (13min in total).; Injection volume: 10 μL
Num peaks: 38
55.01779 1003
55.02332 1005
55.03939 252
55.05503 148
73.02696 52
83.04891 4506
84.05344 163
88.0771 91
88.08514 94
110.97475 489
110.98296 489
125.0617 1185
126.05605 48
126.06525 52
155.05641 72
155.06642 125
155.07951 119
168.99791 69
169.01224 70
169.01915 47
197.95345 68
197.96826 75
227.0789 338
227.08862 395
227.10059 382
240.22049 170
240.23619 178
251.01393 139
251.0276 137
281.10175 54
281.11429 53
288.27689 90
288.29352 124
307.04285 289
307.05408 296
307.07629 50
308.05441 47
321.25226 62
Name: Ethyl 4-(dimethylamino)benzoate
PrecursorMZ: 194.1202
PrecursorType: [M+Na]+
IonMode: Positive
Formula: C11H15NO2
SMILES: CCOC(=O)C1=CC=C(C=C1)N(C)C
InChI: 
InChIKey: FZUGPQWGEGAKET-UHFFFAOYSA-N
RetentionTime: 6.506834
CCS: 
CollisionEnergy: 20-40 eV
InstrumentType: UPLC-QTOF-MS
Comment: PI: Cristina Nerin; Data collector: QiZhi Su, GUIA, University of Zaragoza, Spain; Collision energy: 20-40 V; Instrument: Waters HPLC-QTOF-MS (Xevo G2 QTof); Ionization: ESI; Deconvoluted by MS-DIAL; Column: Waters AtlantisTM premier BEH C18 AX column (2.1 × 100mm x 1.7μm); Flow rate: 0.3mL/min; Mobile phase A and B are water and methnaol, respectively, both with 0.1% formic acid; Gradient elution: from A/B (95/5) to A/B (100/0) in 7min, kept for 4 min, then back to A/B (95/5) in 0.1 min, and maintained for additional 1.9 min (13min in total).; Injection volume: 10 μL
Num peaks: 17
77.03854 11261
79.05421 30219
106.06492 62014
107.05459 29886
107.07259 29737
134.06018 460413
135.06418 44011
148.07616 6891
150.0551 221235
151.06288 649109
152.06602 52040
164.07133 18101
166.08656 141727
167.08919 11987
179.09431 105173
180.09749 9095
194.1178 26615
Name: Ac-Val-OH
PrecursorMZ: 160.098
PrecursorType: [M+H]+
IonMode: Positive
Formula: C7H13NO3
SMILES: CC(C)C(C(=O)O)NC(=O)C
InChI: 
InChIKey: IHYJTAOFMMMOPX-LURJTMIESA-N
RetentionTime: 3.8776
CCS: 
CollisionEnergy: 20-40 eV
InstrumentType: UPLC-QTOF-MS
Comment: PI: Cristina Nerin; Data collector: QiZhi Su, GUIA, University of Zaragoza, Spain; Collision energy: 20-40 V; Instrument: Waters HPLC-QTOF-MS (Xevo G2 QTof); Ionization: ESI; Deconvoluted by MS-DIAL; Column: Waters AtlantisTM premier BEH C18 AX column (2.1 × 100mm x 1.7μm); Flow rate: 0.3mL/min; Mobile phase A and B are water and methnaol, respectively, both with 0.1% formic acid; Gradient elution: from A/B (95/5) to A/B (100/0) in 7min, kept for 4 min, then back to A/B (95/5) in 0.1 min, and maintained for additional 1.9 min (13min in total).; Injection volume: 10 μL
Num peaks: 19
72.08194 4509
73.08341 98
96.07935 173
96.08882 60
97.99273 247
113.11137 63
114.08662 54
114.09485 157
115.98569 56
125.02908 104
138.01601 79
138.02406 321
143.03435 98
143.04291 189
152.03781 1279
154.00105 56
154.05424 437
154.06183 426
156.03859 47
Name: Glyceryl triacetate
PrecursorMZ: 241.0693
PrecursorType: [M+Na]+
IonMode: Positive
Formula: C9H14O6
SMILES: CC(=O)OCC(COC(=O)C)OC(=O)C
InChI: 
InChIKey: URAYPUMNDPQOKB-UHFFFAOYSA-N
RetentionTime: 4.1065
CCS: 
CollisionEnergy: 20-40 eV
InstrumentType: UPLC-QTOF-MS
Comment: PI: Cristina Nerin; Data collector: QiZhi Su, GUIA, University of Zaragoza, Spain; Collision energy: 20-40 V; Instrument: Waters HPLC-QTOF-MS (Xevo G2 QTof); Ionization: ESI; Deconvoluted by MS-DIAL; Column: Waters AtlantisTM premier BEH C18 AX column (2.1 × 100mm x 1.7μm); Flow rate: 0.3mL/min; Mobile phase A and B are water and methnaol, respectively, both with 0.1% formic acid; Gradient elution: from A/B (95/5) to A/B (100/0) in 7min, kept for 4 min, then back to A/B (95/5) in 0.1 min, and maintained for additional 1.9 min (13min in total).; Injection volume: 10 μL
Num peaks: 103
57.03223 23
58.06242 20
61.02996 26
69.0696 30
74.04916 37
74.05936 44
78.98663 57
87.02636 23
87.96307 33
91.05431 21
96.08565 21
97.01688 25
97.99761 47
98.09666 56
98.96886 40
98.97607 113
98.9833 94
99.96405 26
103.0043 81
105.0783 24
106.96288 30
106.9865 20
107.04471 90
110.85949 28
111.05289 26
113.10727 21
114.09166 28
114.94333 20
115.01984 53
116.05716 24
116.91985 20
117.04559 26
119.00733 22
121.08537 26
124.05023 22
124.99504 25
125.96694 20
128.97505 20
128.98849 27
129.1058 33
130.97937 22
130.99556 20
131.95247 45
133.90659 25
135.11981 34
140.97398 30
141.00217 26
142.00928 20
143.08727 54
145.00977 99
148.07106 24
153.98634 34
154.05365 58
154.93164 20
154.98772 21
155.00941 24
156.08633 32
157.96748 25
157.97612 28
159.0302 26
159.06624 240
159.07558 94
160.04385 23
160.06316 26
160.07512 44
160.10298 20
161.08311 22
161.13066 24
163.04347 21
168.05191 24
170.0862 50
173.9567 22
180.95677 26
181.00072 23
181.0383 32
181.96928 25
183.99365 21
184.79608 35
189.07956 28
190.04247 32
190.05035 30
192.92151 21
193.0276 52
194.03998 21
195.07898 20
198.03743 20
199.18776 24
204.92583 20
207.02008 22
211.3653 33
212.11548 21
214.15614 44
215.03333 25
222.96991 20
230.12599 23
232.9808 21
233.03081 38
235.03369 21
235.04362 20
235.85168 31
236.92744 47
237.12103 27
239.05396 21
Name: Nicotinamide
PrecursorMZ: 123.0558
PrecursorType: [M+H]+
IonMode: Positive
Formula: C6H6N2O
SMILES: C1=CC(=CN=C1)C(=O)N
InChI: 
InChIKey: DFPAKSUCGFBDDF-UHFFFAOYSA-N
RetentionTime: 0.8632833
CCS: 
CollisionEnergy: 20-40 eV
InstrumentType: UPLC-QTOF-MS
Comment: PI: Cristina Nerin; Data collector: QiZhi Su, GUIA, University of Zaragoza, Spain; Collision energy: 20-40 V; Instrument: Waters HPLC-QTOF-MS (Xevo G2 QTof); Ionization: ESI; Deconvoluted by MS-DIAL; Column: Waters AtlantisTM premier BEH C18 AX column (2.1 × 100mm x 1.7μm); Flow rate: 0.3mL/min; Mobile phase A and B are water and methnaol, respectively, both with 0.1% formic acid; Gradient elution: from A/B (95/5) to A/B (100/0) in 7min, kept for 4 min, then back to A/B (95/5) in 0.1 min, and maintained for additional 1.9 min (13min in total).; Injection volume: 10 μL
Num peaks: 10
78.03441 2148
79.03387 253
79.04213 252
80.04989 8892
81.04852 384
81.05507 382
81.06073 395
96.04717 377
106.02917 411
123.0566 6200
Name: Caprolactam
PrecursorMZ: 114.0916
PrecursorType: [M+H]+
IonMode: Positive
Formula: C6H11NO
SMILES: C1CCC(=O)NCC1
InChI: 
InChIKey: JBKVHLHDHHXQEQ-UHFFFAOYSA-N
RetentionTime: 3.096683
CCS: 
CollisionEnergy: 20-40 eV
InstrumentType: UPLC-QTOF-MS
Comment: PI: Cristina Nerin; Data collector: QiZhi Su, GUIA, University of Zaragoza, Spain; Collision energy: 20-40 V; Instrument: Waters HPLC-QTOF-MS (Xevo G2 QTof); Ionization: ESI; Deconvoluted by MS-DIAL; Column: Waters AtlantisTM premier BEH C18 AX column (2.1 × 100mm x 1.7μm); Flow rate: 0.3mL/min; Mobile phase A and B are water and methnaol, respectively, both with 0.1% formic acid; Gradient elution: from A/B (95/5) to A/B (100/0) in 7min, kept for 4 min, then back to A/B (95/5) in 0.1 min, and maintained for additional 1.9 min (13min in total).; Injection volume: 10 μL
Num peaks: 41
55.05341 22
67.05463 54
68.04804 24
68.06017 26
69.06893 230
69.075 107
70.02921 27
72.04322 22
73.28103 21
74.8958 76
74.93745 20
77.03727 44
77.04247 25
78.92641 30
79.05212 93
79.05698 74
79.06202 59
79.80373 24
80.05585 34
81.05627 25
81.96484 51
84.0376 21
84.95921 331
84.96452 97
85.53294 31
86.10062 60
88.95271 27
94.53844 39
95.05244 29
95.063 21
96.08057 504
97.06451 84
97.08707 23
100.07225 24
101.95343 47
101.95934 18
103.53262 33
105.0672 22
111.98297 20
113.00107 21
114.09346 916
Name: citronelal
PrecursorMZ: 331.2624
PrecursorType: [2M+Na]+
IonMode: Positive
Formula: C10H18O
SMILES: CC(CCC=C(C)C)CC=O
InChI: 
InChIKey: NEHNMFOYXAPHSD-UHFFFAOYSA-N
RetentionTime: 8.114917
CCS: 
CollisionEnergy: 20-40 eV
InstrumentType: UPLC-QTOF-MS
Comment: PI: Cristina Nerin; Data collector: QiZhi Su, GUIA, University of Zaragoza, Spain; Collision energy: 20-40 V; Instrument: Waters HPLC-QTOF-MS (Xevo G2 QTof); Ionization: ESI; Deconvoluted by MS-DIAL; Column: Waters AtlantisTM premier BEH C18 AX column (2.1 × 100mm x 1.7μm); Flow rate: 0.3mL/min; Mobile phase A and B are water and methnaol, respectively, both with 0.1% formic acid; Gradient elution: from A/B (95/5) to A/B (100/0) in 7min, kept for 4 min, then back to A/B (95/5) in 0.1 min, and maintained for additional 1.9 min (13min in total).; Injection volume: 10 μL
Num peaks: 1090
50.00153 28
50.29923 31
51.10717 22
51.18395 51
53.11793 20
53.20929 23
55.01871 25
55.04711 30
55.0571 29
55.21931 20
56.54087 24
57.03575 51
57.04277 60
57.06487 36
57.06993 34
57.07467 96
60.04338 23
60.07705 24
60.72118 20
61.20885 24
61.74183 22
63.35115 59
63.92037 57
64.90655 32
65.0365 90
65.33023 24
65.93519 30
66.04385 21
66.97182 30
67.05555 376
67.20979 26
67.73471 29
67.74439 20
69.01875 22
69.03693 20
69.07086 673
70.04062 73
70.06464 27
70.06907 21
70.97535 29
70.98405 172
71.01623 27
71.0473 20
71.05245 22
71.08016 28
71.08475 72
71.73741 23
71.81883 20
72.0413 20
72.04655 22
72.09095 46
72.73341 24
72.99419 32
73.04421 389
73.04909 1108
73.06873 38
73.83888 20
74.04575 47
74.06096 24
75.02724 79
75.04669 24
77.03195 24
77.03874 185
77.04892 19
78.48531 22
79.05128 200
79.06188 162
79.31049 30
79.34171 21
79.94571 22
80.05547 23
81.01698 26
81.02585 28
81.03472 51
81.0425 64
81.06832 455
81.07512 506
81.71799 27
81.95658 34
82.07103 35
82.07627 20
82.43929 23
83.04136 33
83.05247 26
83.05707 27
83.0811 129
83.08615 446
84.07887 21
84.08706 26
84.19154 33
84.93779 21
84.95907 535
85.02722 49
85.05544 20
85.06312 21
85.06729 29
85.09348 20
85.09648 42
85.10581 87
85.87375 30
86.06624 72
86.09837 151
86.97752 33
87.04401 20
87.05096 57
87.57906 27
87.89059 20
88.07744 30
88.13226 38
88.95415 73
89.05028 22
89.05863 283
89.06551 300
89.08031 21
89.86796 20
90.07043 22
90.1563 20
90.71009 30
91.05536 325
91.46149 31
91.53055 21
91.71295 20
92.05118 21
92.05733 49
92.06555 27
92.43886 43
93.00435 40
93.06982 376
93.07597 213
93.09684 29
93.51968 23
94.03977 35
94.08346 23
95.04475 100
95.05043 39
95.08714 1286
95.69621 68
96.07652 28
96.09149 29
96.81956 25
96.98227 25
97.05464 21
97.06402 87
97.07259 89
97.10034 284
97.10754 230
97.33824 30
97.94236 22
97.96452 27
98.0325 36
98.06419 36
98.07408 25
98.48908 37
98.96188 21
98.97426 20
99.05146 98
99.0597 35
99.07503 61
99.08388 51
99.61324 20
100.01757 22
100.0455 44
100.08401 25
100.11359 21
100.98451 23
101.02956 69
101.05942 29
101.06969 119
101.07474 109
101.48753 20
101.81765 33
101.94192 22
101.9967 33
102.01669 21
102.0357 31
102.07732 31
103.06 31
103.94676 41
103.95303 19
104.0598 20
104.11028 25
104.8292 24
104.9961 29
105.04137 32
105.06258 23
105.07027 93
105.07754 272
105.99795 24
106.03552 21
106.04225 20
106.0713 74
106.08678 36
106.81844 23
107.0121 21
107.04372 27
107.04721 64
107.05561 53
107.08563 548
108.03704 20
108.04979 104
108.08468 21
108.29961 51
108.99232 33
109.00501 25
109.02431 20
109.06442 131
109.10231 532
109.61517 28
110.02528 21
110.06139 20
110.12795 21
110.98856 24
111.04342 90
111.05438 29
111.07465 30
111.08038 41
111.08893 80
111.09439 23
111.12165 69
111.96541 22
112.05058 27
113.02488 20
113.03041 26
113.06424 35
113.22793 28
114.02806 26
114.09141 22
115.03561 32
116.02329 33
116.03876 36
116.0462 20
116.05807 65
116.58525 27
116.93882 24
117.08121 23
117.0929 36
118.07263 26
118.91612 21
119.0032 22
119.01391 22
119.02413 24
119.08552 254
119.09324 96
120.05015 93
120.05682 24
120.98395 21
121.02753 21
121.06106 47
121.09953 257
121.10827 244
121.19999 30
122.11311 27
123.012 44
123.02599 27
123.03721 75
123.04819 67
123.07672 43
123.08524 20
123.1167 142
123.12793 30
123.81705 22
123.98195 25
124.0171 23
124.07832 26
124.39351 25
124.97263 21
125.00632 20
125.02244 22
125.03318 21
125.06615 93
125.0821 23
125.09526 43
125.10649 77
125.13437 23
126.02442 93
126.08885 22
126.10275 21
127.08472 98
127.64754 26
128.04504 18
128.05443 88
128.06992 27
129.01474 20
129.05934 25
129.06578 45
130.07942 20
130.98233 44
131.01674 33
131.07596 95
131.08727 39
131.09526 101
131.27527 20
131.71275 37
132.06212 20
132.07271 31
132.08539 60
132.1012 20
132.12102 22
132.1292 23
132.9989 21
133.02002 22
133.02892 23
133.06537 21
133.07307 57
133.08351 95
133.09532 323
133.10611 226
133.75531 33
134.01678 22
134.05966 26
134.06897 24
134.11057 32
135.08232 25
135.11272 93
135.11876 268
135.12856 169
136.01509 48
136.06801 20
136.08678 22
136.12291 23
136.99532 29
137.03003 70
137.08679 24
137.10515 21
137.11772 32
137.12645 114
137.1364 125
137.76328 22
138.06227 29
138.09367 74
138.10429 21
138.16447 21
139.03674 51
139.04608 124
139.07982 93
139.11598 55
139.15018 23
139.97974 20
139.99586 46
140.02318 27
140.04375 75
141.02438 67
141.07068 24
141.09731 23
141.13225 67
141.16792 20
141.4342 39
142.05888 50
142.15576 42
142.36983 20
143.04362 24
143.07188 95
143.09113 53
143.10968 24
144.42723 28
145.01732 23
145.09642 50
145.10428 98
145.1118 27
146.04735 25
146.06355 92
146.25871 21
146.99316 22
147.06834 242
147.09946 21
147.11186 38
147.11891 91
147.12756 193
148.12299 41
149.02293 72
149.03188 20
149.04706 24
149.06293 86
149.07698 41
149.09218 21
149.12979 45
149.13907 128
149.20726 20
150.04047 20
150.10313 44
150.76369 28
150.99648 25
151.02948 20
151.04712 54
151.06465 23
151.0723 56
151.08459 20
151.1169 139
151.14635 99
151.15784 52
152.99692 53
153.03499 21
153.04349 29
153.06964 26
153.12405 20
153.13359 72
153.98569 25
154.05521 22
154.08473 22
154.09721 26
154.69943 22
154.98299 27
154.99767 39
155.02325 47
155.07796 41
155.12012 36
157.01675 20
157.09354 29
157.10184 49
158.11317 23
158.60107 22
159.04594 23
159.07684 106
159.09135 61
159.11607 86
159.22531 33
159.698 33
160.03854 62
160.04637 50
160.11836 25
160.58665 28
161.10435 52
161.12979 24
161.13956 92
162.96484 23
162.99402 20
163.00255 36
163.04674 29
163.06551 17
163.07291 45
163.15318 83
163.47868 33
164.56081 23
164.61057 37
164.87082 29
165.05632 23
165.10403 25
165.12189 23
165.1655 22
166.14563 28
166.16614 25
167.04039 149
167.07045 25
167.11565 24
167.14494 20
167.3848 28
167.61238 22
168.01994 29
168.03557 26
168.04591 29
168.06119 20
168.10103 32
168.5932 21
169.02922 35
169.04897 20
169.05617 41
169.08676 22
169.1109 146
169.18286 35
169.19398 71
169.62622 21
170.57649 54
170.73312 24
170.99054 21
172.8788 34
173.0463 27
173.07298 36
173.10822 28
173.12259 20
174.02863 25
174.13789 23
174.96474 20
175.00801 23
175.09813 21
175.10989 81
175.12987 23
175.15529 182
176.26103 33
177.0097 123
177.05704 47
177.06519 18
177.09192 46
177.11938 87
177.13148 182
177.17171 45
178.02345 41
178.10121 20
178.13585 25
178.16264 25
179.07988 22
179.16077 44
179.17491 35
179.97015 22
180.10455 23
180.11324 27
180.64464 30
180.87219 35
181.04868 49
181.05872 21
181.1259 21
181.13339 22
181.15996 61
181.28748 33
183.01962 35
183.0349 40
183.07164 43
183.10551 75
183.12579 27
184.99115 29
185.01868 44
185.0296 23
185.07169 69
185.08308 27
185.13354 34
185.20082 28
186.1394 34
186.61247 30
186.99689 24
187.15103 62
187.6619 21
188.97318 29
189.04866 67
189.15701 24
189.16827 41
189.48737 21
189.96983 23
190.11757 36
190.13647 50
190.15004 28
190.99966 123
191.02663 22
191.07455 49
191.08627 33
191.13402 20
191.56656 25
192.03941 33
192.06204 23
192.07124 35
192.08582 31
192.12668 53
192.15514 38
193.04224 22
193.06171 27
193.08484 19
193.09427 42
193.11836 50
193.12996 23
194.02701 24
194.11749 25
194.13756 21
194.65242 36
194.96661 27
195.0298 23
195.11122 28
195.12657 28
195.14993 27
195.17528 40
195.61967 33
196.03429 28
196.06093 21
196.08041 34
196.12302 20
197.01564 83
197.05096 42
197.0838 23
197.0961 56
197.10541 41
197.14151 21
198.04398 20
198.06429 22
199.02361 49
199.05707 35
199.09035 28
199.10204 37
199.15292 102
199.17667 23
200.03801 21
200.04916 33
200.06654 28
200.11858 51
200.38257 36
201.02361 71
201.10106 21
201.12331 63
201.17365 26
202.11755 42
203.02507 50
203.07513 26
203.1114 66
203.15477 54
203.16454 33
203.19368 41
204.14249 41
204.18909 26
205.03522 20
205.0499 36
205.07794 28
205.09229 47
205.10451 30
205.12425 96
206.13258 42
206.19426 21
207.03412 343
207.04492 155
207.06436 44
207.09055 21
207.10522 140
207.13185 20
207.14407 57
207.2791 28
208.04182 129
208.065 21
208.12206 58
209.04156 25
209.06122 33
209.07748 79
209.0938 95
209.11778 95
209.12538 57
209.16518 20
209.28056 25
210.01115 33
210.07593 24
210.08614 23
210.1418 49
210.1539 28
211.05345 76
211.06905 111
211.08887 28
211.09724 20
211.13806 24
212.12256 85
212.95985 92
213.03595 32
215.05211 21
215.13747 47
215.15813 23
215.18752 27
216.08577 27
216.11218 24
216.13345 23
217.00322 30
217.01999 38
217.05354 70
217.06114 20
217.18967 34
217.20126 76
217.61139 28
217.63527 24
218.06812 31
218.16772 40
218.20151 20
219.08105 38
219.10028 26
219.12976 44
219.14029 167
219.21346 24
219.47829 21
219.53973 22
219.99219 21
221.04416 20
221.05324 31
221.07437 48
221.0934 237
221.11421 21
221.14275 98
221.19254 23
222.08618 29
222.15588 63
222.17911 29
223.04523 30
223.07826 59
223.1109 54
223.12228 19
223.13713 23
223.20222 21
224.06084 41
224.08365 20
224.10382 44
224.13811 31
224.23987 24
225.09409 20
225.10748 49
225.11554 34
225.1572 45
226.02713 28
226.08336 36
226.62891 20
227.04938 20
227.06955 154
227.08604 20
227.10255 21
227.12993 20
227.16904 24
227.18167 46
228.07373 23
228.11397 23
229.06567 39
229.09344 24
229.13405 23
229.15242 24
229.16183 22
230.04428 20
230.07153 26
230.17221 29
230.63933 31
231.10658 24
231.19421 25
231.21686 52
232.04919 25
232.07613 26
233.07439 86
233.09071 20
233.12549 20
233.18192 73
233.5657 24
234.06793 42
234.09866 25
234.1288 28
234.14676 29
234.99739 32
235.05893 44
235.09312 20
235.11121 55
235.13034 65
235.14566 20
235.17836 38
235.19087 22
236.07248 21
236.08363 48
236.11101 21
236.15118 56
236.66196 34
237.07751 54
237.08725 47
237.10785 28
237.12938 32
237.13812 47
237.17982 20
238.07404 35
238.11047 21
238.16513 29
239.09494 200
239.106 190
239.12299 142
239.14748 45
239.1804 22
240.08853 21
240.11272 107
241.04317 30
241.06842 51
241.09315 79
241.10991 31
241.2063 21
242.09291 33
242.18156 27
242.53592 36
242.99586 30
243.01794 30
243.03123 27
243.10838 23
243.12395 22
243.17281 21
244.09709 40
244.13615 28
244.14693 73
244.59732 45
244.6647 25
245.02061 20
245.19432 77
246.12671 27
247.10252 63
247.11884 21
247.17693 43
247.1963 33
247.22188 20
248.18744 20
248.9409 22
248.9709 21
248.99603 45
249.08537 49
249.10915 24
249.12297 54
249.15242 73
249.18687 42
249.22665 27
249.55681 26
250.07687 26
250.0975 32
250.20361 21
250.97462 35
251.04092 22
251.06119 29
251.08792 21
251.1465 30
251.16959 69
251.1834 25
251.24042 68
251.6763 24
252.03615 24
252.06099 51
252.09634 20
252.10966 30
252.14661 66
252.95685 22
253.08994 21
253.10696 22
253.14606 60
253.16611 44
253.19453 84
254.20807 80
255.07065 44
255.10493 46
255.12219 21
255.23856 33
255.64124 26
256.2684 21
257.09741 21
257.25519 23
258.21149 22
259.14703 24
259.16205 74
259.17361 61
259.2525 20
259.51212 24
261.02933 20
261.10876 47
261.12317 27
261.14221 51
261.18997 52
261.21997 24
261.2641 26
262.08932 28
263.0481 21
263.09601 20
263.12891 77
263.15247 22
263.17099 22
263.19168 20
263.2179 22
263.23303 57
263.24179 31
264.1286 66
264.77838 27
265.01077 20
265.02945 52
265.05466 54
265.07843 20
265.1286 25
265.14059 23
265.15567 42
265.19153 149
265.20834 44
265.22632 70
266.14871 33
266.17801 41
266.2149 100
266.99097 58
267.00803 448
267.02185 71
267.10809 21
267.16406 25
267.22647 27
267.99606 47
268.00821 20
268.59421 25
269.13474 23
269.18976 30
269.65277 21
270.00003 33
270.13458 20
270.98004 30
271.08975 20
271.21158 20
271.23151 31
272.5152 22
273.03934 24
273.0553 23
273.14673 27
273.24878 20
273.26187 40
273.55927 34
274.19193 36
274.22546 56
274.27869 22
275.18796 20
275.2132 22
277.04288 78
277.11911 45
277.13885 73
277.18201 80
278.09485 27
278.27176 33
279.02234 27
279.04538 57
279.06912 76
279.10428 20
279.11472 24
279.13196 71
279.17102 87
279.2088 22
279.55722 24
280.11307 42
280.15067 26
280.54828 27
280.56305 45
280.66284 59
280.68323 21
281.0415 160
281.06 178
281.06946 58
281.08545 46
282.04935 55
282.06866 51
282.14178 25
282.19708 20
283.02814 24
283.05048 48
283.07663 23
283.08707 20
283.10956 36
283.12802 39
283.21487 29
283.28729 33
284.20987 25
285.04706 28
285.07816 23
285.10156 54
285.62231 21
286.55746 29
286.68304 37
287.14621 22
287.23636 45
288.07639 39
288.23157 26
288.71045 25
289.09598 24
289.10718 41
289.14365 63
289.1684 60
289.1868 35
289.63043 37
289.6701 45
290.10635 24
290.12564 20
290.97064 21
291.15533 42
291.20435 50
291.25403 25
291.26559 25
292.14911 28
292.16461 29
293.12311 33
293.18112 86
293.21152 75
294.15674 43
294.17487 26
294.19952 31
294.24316 20
294.64359 25
294.9422 23
295.10434 41
295.15927 43
295.20053 27
295.21716 26
295.66769 21
295.9295 20
296.11038 28
297.17123 46
297.24405 31
297.3223 27
297.63977 20
298.12234 24
298.1355 23
298.15433 32
300.58084 24
300.88626 41
301.10043 37
301.11639 22
301.20837 20
302.0152 22
302.56839 20
303.16144 43
303.17892 65
303.30939 34
303.74323 22
304.13647 21
304.21951 62
304.30173 23
304.86441 47
305.17639 113
305.18561 46
305.24951 23
306.16843 61
306.29028 21
307.02774 30
307.07681 20
307.09158 21
307.16876 70
307.20984 23
308.19263 22
308.22131 20
308.72531 22
309.01373 20
309.02747 23
309.16083 21
309.20621 29
309.29449 23
309.54382 25
309.72809 21
309.97375 25
310.11786 20
310.14246 21
310.18399 27
310.19403 20
310.30133 27
310.70551 60
311.12439 64
311.14764 27
311.28595 37
311.57635 22
311.99905 20
312.0249 23
312.11542 33
312.29929 32
312.63812 27
312.82104 27
312.91608 25
313.14166 24
313.24695 21
314.16568 23
314.17603 21
315.14032 64
315.18896 20
315.28833 25
316.0195 22
316.54831 24
317.0675 27
317.16187 23
317.18381 33
318.23276 24
318.34573 31
318.69455 20
319.11838 20
319.14377 21
319.19623 52
319.21051 21
319.27649 56
319.71436 26
320.26883 56
320.27731 21
321.134 20
321.15131 21
321.18689 51
321.20706 28
321.22949 25
321.99026 39
322.12292 20
322.68314 30
323.03061 21
323.13303 23
323.15533 20
323.17435 47
323.18787 48
323.22156 117
323.27554 28
324.98761 71
325.06152 32
325.13065 23
325.14178 21
325.1651 27
325.2934 27
326.06708 24
326.19324 22
326.97147 21
326.9826 25
327.04916 23
327.29892 24
327.34216 21
328.13315 20
328.23178 30
328.60635 29
328.77267 25
329.245 21
330.25137 20
330.31799 22
331.04883 22
331.19397 23
331.26636 357
331.2959 26
Name: Lauric acid diethanolamide
PrecursorMZ: 597.483
PrecursorType: [2M+Na]+
IonMode: Positive
Formula: C16H33NO3
SMILES: CCCCCCCCCCCC(=O)N(CCO)CCO
InChI: 
InChIKey: AOMUHOFOVNGZAN-UHFFFAOYSA-N
RetentionTime: 7.185633
CCS: 
CollisionEnergy: 20-40 eV
InstrumentType: UPLC-QTOF-MS
Comment: PI: Cristina Nerin; Data collector: QiZhi Su, GUIA, University of Zaragoza, Spain; Collision energy: 20-40 V; Instrument: Waters HPLC-QTOF-MS (Xevo G2 QTof); Ionization: ESI; Deconvoluted by MS-DIAL; Column: Waters AtlantisTM premier BEH C18 AX column (2.1 × 100mm x 1.7μm); Flow rate: 0.3mL/min; Mobile phase A and B are water and methnaol, respectively, both with 0.1% formic acid; Gradient elution: from A/B (95/5) to A/B (100/0) in 7min, kept for 4 min, then back to A/B (95/5) in 0.1 min, and maintained for additional 1.9 min (13min in total).; Injection volume: 10 μL
Num peaks: 50
57.07102 1029
68.0498 336
68.057 342
69.071 537
71.07275 1146
71.08642 1184
81.07016 1614
81.07909 1651
85.10256 658
88.06283 20447
88.07581 20505
95.08604 313
107.09046 1633
107.10724 1031
142.00182 1339
142.02028 1428
142.03429 1370
144.01746 1918
144.0345 1907
159.99402 496
160.00336 547
160.01012 532
160.01952 499
216.14267 345
226.21111 855
226.22258 976
227.20128 1252
239.13477 4130
249.09811 568
249.11769 653
270.24356 29788
271.24695 3333
272.24854 326
307.22821 7738
307.72775 2470
308.19257 541
308.22949 552
310.23572 23614
311.24167 2667
326.19888 2546
327.1983 382
327.21402 379
342.17819 1206
450.85138 4402
451.35245 1995
451.85324 395
526.3847 359
594.47937 312
597.46246 416
597.4823 381
Name: Lauric acid diethanolamide
PrecursorMZ: 575.5016
PrecursorType: [2M+H]+
IonMode: Positive
Formula: C16H33NO3
SMILES: CCCCCCCCCCCC(=O)N(CCO)CCO
InChI: 
InChIKey: AOMUHOFOVNGZAN-UHFFFAOYSA-N
RetentionTime: 7.197067
CCS: 
CollisionEnergy: 20-40 eV
InstrumentType: UPLC-QTOF-MS
Comment: PI: Cristina Nerin; Data collector: QiZhi Su, GUIA, University of Zaragoza, Spain; Collision energy: 20-40 V; Instrument: Waters HPLC-QTOF-MS (Xevo G2 QTof); Ionization: ESI; Deconvoluted by MS-DIAL; Column: Waters AtlantisTM premier BEH C18 AX column (2.1 × 100mm x 1.7μm); Flow rate: 0.3mL/min; Mobile phase A and B are water and methnaol, respectively, both with 0.1% formic acid; Gradient elution: from A/B (95/5) to A/B (100/0) in 7min, kept for 4 min, then back to A/B (95/5) in 0.1 min, and maintained for additional 1.9 min (13min in total).; Injection volume: 10 μL
Num peaks: 22
57.06929 2023
57.07313 2000
70.06509 38907
71.07014 4412
71.07558 4477
71.08615 4257
71.10418 4224
85.1022 3158
88.07576 130767
88.09547 131213
89.07928 4256
95.08626 6276
106.08648 196920
107.09045 3330
109.10202 2550
109.11485 2552
227.20107 57561
228.20557 6822
288.25439 18206
289.25586 2326
289.27505 2184
575.49896 9834
Name: Lauric acid diethanolamide
PrecursorMZ: 288.2553
PrecursorType: [M+H]+
IonMode: Positive
Formula: C16H33NO3
SMILES: CCCCCCCCCCCC(=O)N(CCO)CCO
InChI: 
InChIKey: AOMUHOFOVNGZAN-UHFFFAOYSA-N
RetentionTime: 7.200867
CCS: 
CollisionEnergy: 20-40 eV
InstrumentType: UPLC-QTOF-MS
Comment: PI: Cristina Nerin; Data collector: QiZhi Su, GUIA, University of Zaragoza, Spain; Collision energy: 20-40 V; Instrument: Waters HPLC-QTOF-MS (Xevo G2 QTof); Ionization: ESI; Deconvoluted by MS-DIAL; Column: Waters AtlantisTM premier BEH C18 AX column (2.1 × 100mm x 1.7μm); Flow rate: 0.3mL/min; Mobile phase A and B are water and methnaol, respectively, both with 0.1% formic acid; Gradient elution: from A/B (95/5) to A/B (100/0) in 7min, kept for 4 min, then back to A/B (95/5) in 0.1 min, and maintained for additional 1.9 min (13min in total).; Injection volume: 10 μL
Num peaks: 23
57.07046 3040
70.06508 38685
70.07749 38687
71.06913 5231
71.08607 5285
81.057 2140
81.06987 2177
81.07986 2168
85.10229 3559
85.11642 3558
88.07561 150653
89.06073 4088
89.07894 4176
95.08617 6758
106.08636 196903
107.08982 5517
109.1019 2536
227.20108 57978
228.20392 6562
239.13333 3861
270.24335 30230
271.24576 3426
288.254 17835
Name: Lauric acid diethanolamide
PrecursorMZ: 597.4814
PrecursorType: [2M+Na]+
IonMode: Positive
Formula: C16H33NO3
SMILES: CCCCCCCCCCCC(=O)N(CCO)CCO
InChI: 
InChIKey: AOMUHOFOVNGZAN-UHFFFAOYSA-N
RetentionTime: 7.2161
CCS: 
CollisionEnergy: 20-40 eV
InstrumentType: UPLC-QTOF-MS
Comment: PI: Cristina Nerin; Data collector: QiZhi Su, GUIA, University of Zaragoza, Spain; Collision energy: 20-40 V; Instrument: Waters HPLC-QTOF-MS (Xevo G2 QTof); Ionization: ESI; Deconvoluted by MS-DIAL; Column: Waters AtlantisTM premier BEH C18 AX column (2.1 × 100mm x 1.7μm); Flow rate: 0.3mL/min; Mobile phase A and B are water and methnaol, respectively, both with 0.1% formic acid; Gradient elution: from A/B (95/5) to A/B (100/0) in 7min, kept for 4 min, then back to A/B (95/5) in 0.1 min, and maintained for additional 1.9 min (13min in total).; Injection volume: 10 μL
Num peaks: 133
57.06782 23
57.07244 22
57.07873 22
69.07079 111
69.07613 104
70.85859 38
70.87268 46
71.06841 192
71.08602 228
79.05244 30
79.058 30
81.07078 49
86.09919 103
86.1084 105
86.46148 25
88.07583 240
88.12376 26
89.07997 148
89.08792 159
89.28161 22
90.07933 38
93.0676 61
93.07423 62
98.10385 23
98.11059 23
105.04041 29
106.08637 292
106.44714 20
106.45699 21
108.09167 88
108.10316 95
109.08842 92
110.11481 30
125.06307 23
126.0459 43
128.0632 20
141.99538 22
142.01886 122
142.02937 137
145.03392 21
155.9747 22
160.00121 348
160.01033 338
183.88457 20
190.00684 21
197.10339 20
198.10466 21
201.03362 22
213.10339 47
213.12137 49
215.10536 33
216.10382 20
217.13524 20
227.20087 946
229.20833 39
229.22493 51
240.12772 74
240.14243 79
241.12193 43
241.13625 28
247.10298 29
247.11472 36
250.10587 36
254.11172 20
255.01241 22
259.16965 43
259.18762 48
266.19366 26
268.10562 23
270.24332 1097
271.24722 297
278.18372 43
285.05933 20
285.06738 24
295.25824 40
295.27823 50
303.14557 20
304.43875 21
307.22763 851
307.73117 428
308.19089 61
308.20465 116
308.22064 275
308.23553 119
309.74533 33
310.23535 1956
311.23834 360
312.24469 35
317.21585 27
319.26257 32
319.72949 20
326.20135 78
327.18912 91
327.2059 33
327.22018 25
328.23703 34
340.17673 49
342.18326 71
343.17999 31
344.18695 22
346.17221 45
346.18649 49
364.16394 26
386.11163 22
397.22849 30
413.29376 69
420.35449 24
437.16156 21
442.83237 31
442.85547 82
443.84912 21
451.35349 154
451.84515 207
452.84351 40
452.86935 35
453.82657 25
453.84448 24
454.84631 28
456.85934 27
458.83377 107
462.34503 22
473.20285 20
526.35059 50
526.36993 80
527.36011 42
527.39301 25
576.93048 28
577.4823 51
585.50208 37
592.37695 28
594.97571 114
597.47711 681
597.5072 100
Name: Lauric acid diethanolamide
PrecursorMZ: 310.2364
PrecursorType: [M+Na]+
IonMode: Positive
Formula: C16H33NO3
SMILES: CCCCCCCCCCCC(=O)N(CCO)CCO
InChI: 
InChIKey: AOMUHOFOVNGZAN-UHFFFAOYSA-N
RetentionTime: 7.2199
CCS: 
CollisionEnergy: 20-40 eV
InstrumentType: UPLC-QTOF-MS
Comment: PI: Cristina Nerin; Data collector: QiZhi Su, GUIA, University of Zaragoza, Spain; Collision energy: 20-40 V; Instrument: Waters HPLC-QTOF-MS (Xevo G2 QTof); Ionization: ESI; Deconvoluted by MS-DIAL; Column: Waters AtlantisTM premier BEH C18 AX column (2.1 × 100mm x 1.7μm); Flow rate: 0.3mL/min; Mobile phase A and B are water and methnaol, respectively, both with 0.1% formic acid; Gradient elution: from A/B (95/5) to A/B (100/0) in 7min, kept for 4 min, then back to A/B (95/5) in 0.1 min, and maintained for additional 1.9 min (13min in total).; Injection volume: 10 μL
Num peaks: 8
88.07571 760
227.20091 992
270.24362 1994
271.24731 390
307.22656 1176
307.72849 550
307.74127 596
310.23569 27562
Name: Dibutyl adipate
PrecursorMZ: 281.1741
PrecursorType: [M+Na]+
IonMode: Positive
Formula: C14H26O4
SMILES: CCCCOC(=O)CCCCC(=O)OCCCC
InChI: 
InChIKey: XTJFFFGAUHQWII-UHFFFAOYSA-N
RetentionTime: 7.296033
CCS: 
CollisionEnergy: 20-40 eV
InstrumentType: UPLC-QTOF-MS
Comment: PI: Cristina Nerin; Data collector: QiZhi Su, GUIA, University of Zaragoza, Spain; Collision energy: 20-40 V; Instrument: Waters HPLC-QTOF-MS (Xevo G2 QTof); Ionization: ESI; Deconvoluted by MS-DIAL; Column: Waters AtlantisTM premier BEH C18 AX column (2.1 × 100mm x 1.7μm); Flow rate: 0.3mL/min; Mobile phase A and B are water and methnaol, respectively, both with 0.1% formic acid; Gradient elution: from A/B (95/5) to A/B (100/0) in 7min, kept for 4 min, then back to A/B (95/5) in 0.1 min, and maintained for additional 1.9 min (13min in total).; Injection volume: 10 μL
Num peaks: 41
55.0548 6055
56.05807 270
57.06674 453
57.07043 450
59.04719 607
59.05178 604
67.04759 456
67.0555 448
67.06216 448
73.04757 7427
73.06506 7403
74.05791 235
74.06998 245
83.04912 23392
84.05313 705
97.06454 986
101.04151 11752
101.0599 11662
102.06352 394
111.0442 22699
112.04891 844
112.06062 836
115.07613 3987
116.07578 237
116.08013 244
120.99625 397
123.01249 2277
123.01925 2281
129.05594 844
140.9987 408
141.00443 496
141.01891 468
141.02577 303
156.99025 254
167.00377 3215
185.01367 1742
213.05063 275
213.06754 241
241.07681 1906
257.04877 563
281.17807 1040
Name: Dibutyl adipate
PrecursorMZ: 259.1925
PrecursorType: [M+H]+
IonMode: Positive
Formula: C14H26O4
SMILES: CCCCOC(=O)CCCCC(=O)OCCCC
InChI: 
InChIKey: XTJFFFGAUHQWII-UHFFFAOYSA-N
RetentionTime: 7.29985
CCS: 
CollisionEnergy: 20-40 eV
InstrumentType: UPLC-QTOF-MS
Comment: PI: Cristina Nerin; Data collector: QiZhi Su, GUIA, University of Zaragoza, Spain; Collision energy: 20-40 V; Instrument: Waters HPLC-QTOF-MS (Xevo G2 QTof); Ionization: ESI; Deconvoluted by MS-DIAL; Column: Waters AtlantisTM premier BEH C18 AX column (2.1 × 100mm x 1.7μm); Flow rate: 0.3mL/min; Mobile phase A and B are water and methnaol, respectively, both with 0.1% formic acid; Gradient elution: from A/B (95/5) to A/B (100/0) in 7min, kept for 4 min, then back to A/B (95/5) in 0.1 min, and maintained for additional 1.9 min (13min in total).; Injection volume: 10 μL
Num peaks: 41
55.05447 5867
56.05452 263
56.05989 262
59.04992 604
67.05253 331
67.05762 331
73.06491 7343
74.05732 236
74.06814 244
74.08043 235
83.03384 23174
83.049 23123
84.04262 677
84.05103 672
84.05599 671
97.06549 948
97.07944 916
101.06016 11537
102.06178 377
111.04445 22529
112.04811 809
115.0619 3797
115.07659 3935
116.07616 232
116.08427 233
120.9989 362
123.0075 2152
123.01472 2131
129.05507 826
129.06522 839
129.07329 809
140.99461 400
141.00778 542
141.02419 337
167.00298 2883
185.01677 1662
213.05309 265
213.06714 246
241.07729 1678
257.03568 527
257.05133 534
Name: Dibutyl adipate
PrecursorMZ: 297.1502
PrecursorType: [M+K]+
IonMode: Positive
Formula: C14H26O4
SMILES: CCCCOC(=O)CCCCC(=O)OCCCC
InChI: 
InChIKey: XTJFFFGAUHQWII-UHFFFAOYSA-N
RetentionTime: 7.29985
CCS: 
CollisionEnergy: 20-40 eV
InstrumentType: UPLC-QTOF-MS
Comment: PI: Cristina Nerin; Data collector: QiZhi Su, GUIA, University of Zaragoza, Spain; Collision energy: 20-40 V; Instrument: Waters HPLC-QTOF-MS (Xevo G2 QTof); Ionization: ESI; Deconvoluted by MS-DIAL; Column: Waters AtlantisTM premier BEH C18 AX column (2.1 × 100mm x 1.7μm); Flow rate: 0.3mL/min; Mobile phase A and B are water and methnaol, respectively, both with 0.1% formic acid; Gradient elution: from A/B (95/5) to A/B (100/0) in 7min, kept for 4 min, then back to A/B (95/5) in 0.1 min, and maintained for additional 1.9 min (13min in total).; Injection volume: 10 μL
Num peaks: 38
55.05447 5955
56.05452 260
56.05989 258
59.04992 587
73.06491 7343
74.05732 234
74.06814 244
83.03384 23210
83.049 23126
84.04262 677
84.05103 672
84.05599 671
97.06549 949
97.07944 938
101.06016 11579
102.06178 380
111.04445 22395
112.04811 809
115.0619 3796
115.07659 3945
116.07616 238
116.08427 242
120.9989 362
123.0075 2152
123.01472 2131
129.05507 813
129.06522 825
129.07329 826
140.99461 373
141.00778 499
141.02419 325
167.00298 2793
185.01677 1616
213.05309 242
241.07729 1477
257.03568 477
257.05133 510
281.1727 925
Name: diisodecyl phthalate
PrecursorMZ: 469.3285
PrecursorType: [M+Na]+
IonMode: Positive
Formula: C28H46O4
SMILES: CC(C)CCCCCCCOC(=O)C1=CC=CC=C1C(=O)OCCCCCCCC(C)C
InChI: 
InChIKey: ZVFDTKUVRCTHQE-UHFFFAOYSA-N
RetentionTime: 9.117267
CCS: 
CollisionEnergy: 20-40 eV
InstrumentType: UPLC-QTOF-MS
Comment: PI: Cristina Nerin; Data collector: QiZhi Su, GUIA, University of Zaragoza, Spain; Collision energy: 20-40 V; Instrument: Waters HPLC-QTOF-MS (Xevo G2 QTof); Ionization: ESI; Deconvoluted by MS-DIAL; Column: Waters AtlantisTM premier BEH C18 AX column (2.1 × 100mm x 1.7μm); Flow rate: 0.3mL/min; Mobile phase A and B are water and methnaol, respectively, both with 0.1% formic acid; Gradient elution: from A/B (95/5) to A/B (100/0) in 7min, kept for 4 min, then back to A/B (95/5) in 0.1 min, and maintained for additional 1.9 min (13min in total).; Injection volume: 10 μL
Num peaks: 6
57.07024 4196
71.08566 17283
85.10122 30295
149.02339 44276
345.13715 12429
469.32764 371471
Name: diisodecyl phthalate
PrecursorMZ: 485.3032
PrecursorType: [M+K]+
IonMode: Positive
Formula: C28H46O4
SMILES: CC(C)CCCCCCCOC(=O)C1=CC=CC=C1C(=O)OCCCCCCCC(C)C
InChI: 
InChIKey: ZVFDTKUVRCTHQE-UHFFFAOYSA-N
RetentionTime: 9.121083
CCS: 
CollisionEnergy: 20-40 eV
InstrumentType: UPLC-QTOF-MS
Comment: PI: Cristina Nerin; Data collector: QiZhi Su, GUIA, University of Zaragoza, Spain; Collision energy: 20-40 V; Instrument: Waters HPLC-QTOF-MS (Xevo G2 QTof); Ionization: ESI; Deconvoluted by MS-DIAL; Column: Waters AtlantisTM premier BEH C18 AX column (2.1 × 100mm x 1.7μm); Flow rate: 0.3mL/min; Mobile phase A and B are water and methnaol, respectively, both with 0.1% formic acid; Gradient elution: from A/B (95/5) to A/B (100/0) in 7min, kept for 4 min, then back to A/B (95/5) in 0.1 min, and maintained for additional 1.9 min (13min in total).; Injection volume: 10 μL
Num peaks: 8
57.0702 3624
71.0854 17277
85.10104 30158
149.02327 44011
345.13669 10858
469.32742 358569
470.33032 101070
471.33496 11386
Name: diisodecyl phthalate
PrecursorMZ: 915.6672
PrecursorType: [2M+Na]+
IonMode: Positive
Formula: C28H46O4
SMILES: CC(C)CCCCCCCOC(=O)C1=CC=CC=C1C(=O)OCCCCCCCC(C)C
InChI: 
InChIKey: ZVFDTKUVRCTHQE-UHFFFAOYSA-N
RetentionTime: 9.148216
CCS: 
CollisionEnergy: 20-40 eV
InstrumentType: UPLC-QTOF-MS
Comment: PI: Cristina Nerin; Data collector: QiZhi Su, GUIA, University of Zaragoza, Spain; Collision energy: 20-40 V; Instrument: Waters HPLC-QTOF-MS (Xevo G2 QTof); Ionization: ESI; Deconvoluted by MS-DIAL; Column: Waters AtlantisTM premier BEH C18 AX column (2.1 × 100mm x 1.7μm); Flow rate: 0.3mL/min; Mobile phase A and B are water and methnaol, respectively, both with 0.1% formic acid; Gradient elution: from A/B (95/5) to A/B (100/0) in 7min, kept for 4 min, then back to A/B (95/5) in 0.1 min, and maintained for additional 1.9 min (13min in total).; Injection volume: 10 μL
Num peaks: 19
57.07023 1400
71.08582 5158
73.04694 1541
73.06669 1203
85.10105 8396
147.06688 2255
149.02365 8139
281.05237 8178
282.05466 1395
326.96591 1067
326.97742 1055
469.32779 80897
470.33142 23931
471.3353 2779
689.48456 7786
689.98804 7071
690.49207 3258
791.47418 3536
792.47766 1437
Name: diisodecyl phthalate
PrecursorMZ: 447.347
PrecursorType: [M+H]+
IonMode: Positive
Formula: C28H46O4
SMILES: CC(C)CCCCCCCOC(=O)C1=CC=CC=C1C(=O)OCCCCCCCC(C)C
InChI: 
InChIKey: ZVFDTKUVRCTHQE-UHFFFAOYSA-N
RetentionTime: 9.171066
CCS: 
CollisionEnergy: 20-40 eV
InstrumentType: UPLC-QTOF-MS
Comment: PI: Cristina Nerin; Data collector: QiZhi Su, GUIA, University of Zaragoza, Spain; Collision energy: 20-40 V; Instrument: Waters HPLC-QTOF-MS (Xevo G2 QTof); Ionization: ESI; Deconvoluted by MS-DIAL; Column: Waters AtlantisTM premier BEH C18 AX column (2.1 × 100mm x 1.7μm); Flow rate: 0.3mL/min; Mobile phase A and B are water and methnaol, respectively, both with 0.1% formic acid; Gradient elution: from A/B (95/5) to A/B (100/0) in 7min, kept for 4 min, then back to A/B (95/5) in 0.1 min, and maintained for additional 1.9 min (13min in total).; Injection volume: 10 μL
Num peaks: 33
57.07038 4810
65.03796 896
71.08558 18613
72.0901 811
73.04568 529
73.05037 867
77.04255 358
85.10075 31373
86.10339 1145
86.1089 464
93.03218 632
93.03741 425
95.08797 605
99.12016 331
109.1034 614
121.0302 1009
141.16226 580
147.06715 1607
149.02327 32626
150.02559 1302
197.12315 541
248.98953 424
281.05234 5269
282.05017 637
283.04651 423
301.14655 484
317.12769 393
326.97339 401
329.17038 1089
345.13651 8415
346.14392 1148
396.24048 585
447.34818 885
Name: diisodecyl phthalate
PrecursorMZ: 469.3276
PrecursorType: [M+Na]+
IonMode: Positive
Formula: C28H46O4
SMILES: CC(C)CCCCCCCOC(=O)C1=CC=CC=C1C(=O)OCCCCCCCC(C)C
InChI: 
InChIKey: ZVFDTKUVRCTHQE-UHFFFAOYSA-N
RetentionTime: 9.1939
CCS: 
CollisionEnergy: 20-40 eV
InstrumentType: UPLC-QTOF-MS
Comment: PI: Cristina Nerin; Data collector: QiZhi Su, GUIA, University of Zaragoza, Spain; Collision energy: 20-40 V; Instrument: Waters HPLC-QTOF-MS (Xevo G2 QTof); Ionization: ESI; Deconvoluted by MS-DIAL; Column: Waters AtlantisTM premier BEH C18 AX column (2.1 × 100mm x 1.7μm); Flow rate: 0.3mL/min; Mobile phase A and B are water and methnaol, respectively, both with 0.1% formic acid; Gradient elution: from A/B (95/5) to A/B (100/0) in 7min, kept for 4 min, then back to A/B (95/5) in 0.1 min, and maintained for additional 1.9 min (13min in total).; Injection volume: 10 μL
Num peaks: 7
57.06984 4625
71.08551 18989
85.10101 30654
149.02354 29902
345.1366 8666
466.31808 4336
469.32687 371262
Name: diisodecyl phthalate
PrecursorMZ: 915.6656
PrecursorType: [2M+Na]+
IonMode: Positive
Formula: C28H46O4
SMILES: CC(C)CCCCCCCOC(=O)C1=CC=CC=C1C(=O)OCCCCCCCC(C)C
InChI: 
InChIKey: ZVFDTKUVRCTHQE-UHFFFAOYSA-N
RetentionTime: 9.1939
CCS: 
CollisionEnergy: 20-40 eV
InstrumentType: UPLC-QTOF-MS
Comment: PI: Cristina Nerin; Data collector: QiZhi Su, GUIA, University of Zaragoza, Spain; Collision energy: 20-40 V; Instrument: Waters HPLC-QTOF-MS (Xevo G2 QTof); Ionization: ESI; Deconvoluted by MS-DIAL; Column: Waters AtlantisTM premier BEH C18 AX column (2.1 × 100mm x 1.7μm); Flow rate: 0.3mL/min; Mobile phase A and B are water and methnaol, respectively, both with 0.1% formic acid; Gradient elution: from A/B (95/5) to A/B (100/0) in 7min, kept for 4 min, then back to A/B (95/5) in 0.1 min, and maintained for additional 1.9 min (13min in total).; Injection volume: 10 μL
Num peaks: 14
71.08551 2795
71.1041 2807
85.10101 5107
466.31808 1575
469.32687 90285
470.33038 25535
471.33398 3436
643.46088 2279
689.48541 9547
689.98767 8780
690.48871 4041
690.99182 1239
791.47516 2690
792.47705 960
Name: diisodecyl phthalate
PrecursorMZ: 485.3035
PrecursorType: [M+K]+
IonMode: Positive
Formula: C28H46O4
SMILES: CC(C)CCCCCCCOC(=O)C1=CC=CC=C1C(=O)OCCCCCCCC(C)C
InChI: 
InChIKey: ZVFDTKUVRCTHQE-UHFFFAOYSA-N
RetentionTime: 9.197717
CCS: 
CollisionEnergy: 20-40 eV
InstrumentType: UPLC-QTOF-MS
Comment: PI: Cristina Nerin; Data collector: QiZhi Su, GUIA, University of Zaragoza, Spain; Collision energy: 20-40 V; Instrument: Waters HPLC-QTOF-MS (Xevo G2 QTof); Ionization: ESI; Deconvoluted by MS-DIAL; Column: Waters AtlantisTM premier BEH C18 AX column (2.1 × 100mm x 1.7μm); Flow rate: 0.3mL/min; Mobile phase A and B are water and methnaol, respectively, both with 0.1% formic acid; Gradient elution: from A/B (95/5) to A/B (100/0) in 7min, kept for 4 min, then back to A/B (95/5) in 0.1 min, and maintained for additional 1.9 min (13min in total).; Injection volume: 10 μL
Num peaks: 8
281.07736 198
317.16364 133
345.13852 382
466.31436 320
469.32712 12554
470.33032 6443
471.33353 579
485.30078 435
Name: "Tris(2,4-ditert-butylphenyl)phosphate (Oxidized Irgafos 168)"
PrecursorMZ: 685.4349
PrecursorType: [M+Na]+
IonMode: Positive
Formula: C42H63O4P
SMILES: CC(C)(C)C1=CC(=C(C=C1)OP(=O)(OC2=C(C=C(C=C2)C(C)(C)C)C(C)(C)C)OC3=C(C=C(C=C3)C(C)(C)C)C(C)(C)C)C(C)(C)C
InChI: 
InChIKey: AZSKHRTUXHLAHS-UHFFFAOYSA-N
RetentionTime: 10.21893
CCS: 
CollisionEnergy: 20-40 eV
InstrumentType: UPLC-QTOF-MS
Comment: PI: Cristina Nerin; Data collector: QiZhi Su, GUIA, University of Zaragoza, Spain; Collision energy: 20-40 V; Instrument: Waters HPLC-QTOF-MS (Xevo G2 QTof); Ionization: ESI; Deconvoluted by MS-DIAL; Column: Waters AtlantisTM premier BEH C18 AX column (2.1 × 100mm x 1.7μm); Flow rate: 0.3mL/min; Mobile phase A and B are water and methnaol, respectively, both with 0.1% formic acid; Gradient elution: from A/B (95/5) to A/B (100/0) in 7min, kept for 4 min, then back to A/B (95/5) in 0.1 min, and maintained for additional 1.9 min (13min in total).; Injection volume: 10 μL
Num peaks: 19
60.08063 2831
60.09883 2921
383.13956 1255
439.20312 8844
440.20984 2003
495.26541 40021
496.26999 10649
551.3277 21778
552.33191 6757
607.39026 12461
608.39435 1887
663.45197 35812
664.45538 14963
680.47992 2493
682.42535 19330
682.92773 16296
683.42853 6889
683.93402 1690
685.43433 120495
Name: 9-phenanthrol
PrecursorMZ: 195.0812
PrecursorType: [M+H]+
IonMode: Positive
Formula: C14H10O
SMILES: C1=CC=C2C(=C1)C=C(C3=CC=CC=C23)O
InChI: 
InChIKey: DZKIUEHLEXLYKM-UHFFFAOYSA-N
RetentionTime: 6.716883
CCS: 
CollisionEnergy: 20-40 eV
InstrumentType: UPLC-QTOF-MS
Comment: PI: Cristina Nerin; Data collector: QiZhi Su, GUIA, University of Zaragoza, Spain; Collision energy: 20-40 V; Instrument: Waters HPLC-QTOF-MS (Xevo G2 QTof); Ionization: ESI; Deconvoluted by MS-DIAL; Column: Waters AtlantisTM premier BEH C18 AX column (2.1 × 100mm x 1.7μm); Flow rate: 0.3mL/min; Mobile phase A and B are water and methnaol, respectively, both with 0.1% formic acid; Gradient elution: from A/B (95/5) to A/B (100/0) in 7min, kept for 4 min, then back to A/B (95/5) in 0.1 min, and maintained for additional 1.9 min (13min in total).; Injection volume: 10 μL
Num peaks: 35
61.36348 118
69.06805 116
79.05591 124
81.06664 104
83.05508 106
83.08675 118
91.05687 196
107.05139 167
111.0469 230
115.06118 127
124.00825 117
125.0636 125
128.05925 235
128.07053 249
141.07199 148
151.05519 1336
152.06244 4624
153.06453 748
153.07339 436
164.0647 143
165.07104 9945
166.07727 1970
167.08644 6717
168.0909 418
176.06177 2147
177.07019 3300
178.07155 246
178.08458 148
181.05518 107
181.06227 357
181.07056 202
193.06956 139
194.03952 137
194.07828 462
195.08289 278
Name: "Tris(2,4-ditert-butylphenyl)phosphate (Oxidized Irgafos 168)"
PrecursorMZ: 680.4814
PrecursorType: [M+NH4]+
IonMode: Positive
Formula: C42H63O4P
SMILES: CC(C)(C)C1=CC(=C(C=C1)OP(=O)(OC2=C(C=C(C=C2)C(C)(C)C)C(C)(C)C)OC3=C(C=C(C=C3)C(C)(C)C)C(C)(C)C)C(C)(C)C
InChI: 
InChIKey: AZSKHRTUXHLAHS-UHFFFAOYSA-N
RetentionTime: 10.23035
CCS: 
CollisionEnergy: 20-40 eV
InstrumentType: UPLC-QTOF-MS
Comment: PI: Cristina Nerin; Data collector: QiZhi Su, GUIA, University of Zaragoza, Spain; Collision energy: 20-40 V; Instrument: Waters HPLC-QTOF-MS (Xevo G2 QTof); Ionization: ESI; Deconvoluted by MS-DIAL; Column: Waters AtlantisTM premier BEH C18 AX column (2.1 × 100mm x 1.7μm); Flow rate: 0.3mL/min; Mobile phase A and B are water and methnaol, respectively, both with 0.1% formic acid; Gradient elution: from A/B (95/5) to A/B (100/0) in 7min, kept for 4 min, then back to A/B (95/5) in 0.1 min, and maintained for additional 1.9 min (13min in total).; Injection volume: 10 μL
Num peaks: 21
60.05112 251
60.06756 2835
60.08139 2685
60.09828 2702
147.11681 341
147.12354 341
383.14267 802
439.20367 5052
440.20706 729
495.26541 22456
496.27039 6251
497.27548 911
497.29599 358
551.32745 12313
552.33057 3932
553.34052 557
607.39032 3121
608.3941 1589
663.56586 234
664.45605 2423
680.47998 11483
Name: "Tris(2,4-ditert-butylphenyl)phosphate (Oxidized Irgafos 168)"
PrecursorMZ: 663.4521
PrecursorType: [M+H]+
IonMode: Positive
Formula: C42H63O4P
SMILES: CC(C)(C)C1=CC(=C(C=C1)OP(=O)(OC2=C(C=C(C=C2)C(C)(C)C)C(C)(C)C)OC3=C(C=C(C=C3)C(C)(C)C)C(C)(C)C)C(C)(C)C
InChI: 
InChIKey: AZSKHRTUXHLAHS-UHFFFAOYSA-N
RetentionTime: 10.24178
CCS: 
CollisionEnergy: 20-40 eV
InstrumentType: UPLC-QTOF-MS
Comment: PI: Cristina Nerin; Data collector: QiZhi Su, GUIA, University of Zaragoza, Spain; Collision energy: 20-40 V; Instrument: Waters HPLC-QTOF-MS (Xevo G2 QTof); Ionization: ESI; Deconvoluted by MS-DIAL; Column: Waters AtlantisTM premier BEH C18 AX column (2.1 × 100mm x 1.7μm); Flow rate: 0.3mL/min; Mobile phase A and B are water and methnaol, respectively, both with 0.1% formic acid; Gradient elution: from A/B (95/5) to A/B (100/0) in 7min, kept for 4 min, then back to A/B (95/5) in 0.1 min, and maintained for additional 1.9 min (13min in total).; Injection volume: 10 μL
Num peaks: 1
663.45184 858037
Name: "Tris(2,4-ditert-butylphenyl)phosphate (Oxidized Irgafos 168)"
PrecursorMZ: 663.4512
PrecursorType: [M+H]+
IonMode: Positive
Formula: C42H63O4P
SMILES: CC(C)(C)C1=CC(=C(C=C1)OP(=O)(OC2=C(C=C(C=C2)C(C)(C)C)C(C)(C)C)OC3=C(C=C(C=C3)C(C)(C)C)C(C)(C)C)C(C)(C)C
InChI: 
InChIKey: AZSKHRTUXHLAHS-UHFFFAOYSA-N
RetentionTime: 10.3103
CCS: 
CollisionEnergy: 20-40 eV
InstrumentType: UPLC-QTOF-MS
Comment: PI: Cristina Nerin; Data collector: QiZhi Su, GUIA, University of Zaragoza, Spain; Collision energy: 20-40 V; Instrument: Waters HPLC-QTOF-MS (Xevo G2 QTof); Ionization: ESI; Deconvoluted by MS-DIAL; Column: Waters AtlantisTM premier BEH C18 AX column (2.1 × 100mm x 1.7μm); Flow rate: 0.3mL/min; Mobile phase A and B are water and methnaol, respectively, both with 0.1% formic acid; Gradient elution: from A/B (95/5) to A/B (100/0) in 7min, kept for 4 min, then back to A/B (95/5) in 0.1 min, and maintained for additional 1.9 min (13min in total).; Injection volume: 10 μL
Num peaks: 5
439.20282 8646
495.26483 39967
496.26828 10950
551.32697 22510
663.4516 645656
Name: "Tris(2,4-ditert-butylphenyl)phosphate (Oxidized Irgafos 168)"
PrecursorMZ: 680.4796
PrecursorType: [M+NH4]+
IonMode: Positive
Formula: C42H63O4P
SMILES: CC(C)(C)C1=CC(=C(C=C1)OP(=O)(OC2=C(C=C(C=C2)C(C)(C)C)C(C)(C)C)OC3=C(C=C(C=C3)C(C)(C)C)C(C)(C)C)C(C)(C)C
InChI: 
InChIKey: AZSKHRTUXHLAHS-UHFFFAOYSA-N
RetentionTime: 10.32173
CCS: 
CollisionEnergy: 20-40 eV
InstrumentType: UPLC-QTOF-MS
Comment: PI: Cristina Nerin; Data collector: QiZhi Su, GUIA, University of Zaragoza, Spain; Collision energy: 20-40 V; Instrument: Waters HPLC-QTOF-MS (Xevo G2 QTof); Ionization: ESI; Deconvoluted by MS-DIAL; Column: Waters AtlantisTM premier BEH C18 AX column (2.1 × 100mm x 1.7μm); Flow rate: 0.3mL/min; Mobile phase A and B are water and methnaol, respectively, both with 0.1% formic acid; Gradient elution: from A/B (95/5) to A/B (100/0) in 7min, kept for 4 min, then back to A/B (95/5) in 0.1 min, and maintained for additional 1.9 min (13min in total).; Injection volume: 10 μL
Num peaks: 16
60.04617 422
60.0539 440
60.06173 6128
60.06689 5626
60.08114 5541
60.09471 5538
383.14072 1074
439.20334 8489
440.20822 1848
495.2655 39259
496.2692 10764
497.27234 1037
551.32739 22148
552.3302 5396
553.33423 804
680.47748 11282
Name: "Tris(2,4-ditert-butylphenyl)phosphate (Oxidized Irgafos 168)"
PrecursorMZ: 685.4337
PrecursorType: [M+Na]+
IonMode: Positive
Formula: C42H63O4P
SMILES: CC(C)(C)C1=CC(=C(C=C1)OP(=O)(OC2=C(C=C(C=C2)C(C)(C)C)C(C)(C)C)OC3=C(C=C(C=C3)C(C)(C)C)C(C)(C)C)C(C)(C)C
InChI: 
InChIKey: AZSKHRTUXHLAHS-UHFFFAOYSA-N
RetentionTime: 10.34457
CCS: 
CollisionEnergy: 20-40 eV
InstrumentType: UPLC-QTOF-MS
Comment: PI: Cristina Nerin; Data collector: QiZhi Su, GUIA, University of Zaragoza, Spain; Collision energy: 20-40 V; Instrument: Waters HPLC-QTOF-MS (Xevo G2 QTof); Ionization: ESI; Deconvoluted by MS-DIAL; Column: Waters AtlantisTM premier BEH C18 AX column (2.1 × 100mm x 1.7μm); Flow rate: 0.3mL/min; Mobile phase A and B are water and methnaol, respectively, both with 0.1% formic acid; Gradient elution: from A/B (95/5) to A/B (100/0) in 7min, kept for 4 min, then back to A/B (95/5) in 0.1 min, and maintained for additional 1.9 min (13min in total).; Injection volume: 10 μL
Num peaks: 20
60.08131 4954
147.1185 1277
355.07312 1299
383.14615 1462
439.2037 10932
440.20712 2129
495.26562 49319
496.26892 11527
551.32825 27763
552.33179 8468
607.38983 28684
608.39404 7507
663.45197 113279
664.45544 46554
665.45935 6805
680.4837 2129
682.42676 12738
682.92712 12073
683.42786 4957
685.43353 97622
Name: 1-hydroxypyrene
PrecursorMZ: 219.081
PrecursorType: [M+Na]+
IonMode: Positive
Formula: C16H10O
SMILES: C1=CC2=C3C(=C1)C=CC4=C(C=CC(=C43)C=C2)O
InChI: 
InChIKey: BIJNHUAPTJVVNQ-UHFFFAOYSA-N
RetentionTime: 7.1014
CCS: 
CollisionEnergy: 20-40 eV
InstrumentType: UPLC-QTOF-MS
Comment: PI: Cristina Nerin; Data collector: QiZhi Su, GUIA, University of Zaragoza, Spain; Collision energy: 20-40 V; Instrument: Waters HPLC-QTOF-MS (Xevo G2 QTof); Ionization: ESI; Deconvoluted by MS-DIAL; Column: Waters AtlantisTM premier BEH C18 AX column (2.1 × 100mm x 1.7μm); Flow rate: 0.3mL/min; Mobile phase A and B are water and methnaol, respectively, both with 0.1% formic acid; Gradient elution: from A/B (95/5) to A/B (100/0) in 7min, kept for 4 min, then back to A/B (95/5) in 0.1 min, and maintained for additional 1.9 min (13min in total).; Injection volume: 10 μL
Num peaks: 29
149.0282 129
149.04146 161
151.05792 233
176.06314 8827
177.06993 4125
178.06812 261
178.07655 305
178.09258 274
190.07642 3170
190.08913 3074
190.10854 197
191.08687 708
191.10779 189
200.06439 259
201.07088 3851
202.0705 789
202.07843 899
203.07616 144
203.08569 235
204.05928 6038
205.06573 7076
206.07164 912
206.07887 912
207.07237 181
207.0871 178
217.06699 859
218.07336 11028
219.0481 139
219.07994 4544
Name: Vanillin
PrecursorMZ: 153.0552
PrecursorType: [M+H]+
IonMode: Positive
Formula: C8H8O3
SMILES: COC1=C(C=CC(=C1)C=O)O
InChI: 
InChIKey: MWOOGOJBHIARFG-UHFFFAOYSA-N
RetentionTime: 3.99185
CCS: 
CollisionEnergy: 20-40 eV
InstrumentType: UPLC-QTOF-MS
Comment: PI: Cristina Nerin; Data collector: QiZhi Su, GUIA, University of Zaragoza, Spain; Collision energy: 20-40 V; Instrument: Waters HPLC-QTOF-MS (Xevo G2 QTof); Ionization: ESI; Deconvoluted by MS-DIAL; Column: Waters AtlantisTM premier BEH C18 AX column (2.1 × 100mm x 1.7μm); Flow rate: 0.3mL/min; Mobile phase A and B are water and methnaol, respectively, both with 0.1% formic acid; Gradient elution: from A/B (95/5) to A/B (100/0) in 7min, kept for 4 min, then back to A/B (95/5) in 0.1 min, and maintained for additional 1.9 min (13min in total).; Injection volume: 10 μL
Num peaks: 112
63.02149 21
65.03889 1078
66.04181 22
66.04825 24
66.97909 25
67.05456 25
70.10275 20
70.95182 20
71.04861 20
73.03242 25
73.05411 65
77.03082 20
77.03627 26
77.0463 26
78.04092 32
79.05486 60
80.04257 24
80.05877 31
80.96833 26
80.97757 28
81.03421 41
82.0499 44
82.95904 23
83.07785 33
84.95448 44
84.96246 43
85.04655 22
86.09565 29
86.10221 23
87.99519 20
88.07465 30
91.04842 27
92.96391 23
93.03487 829
93.05728 21
94.04344 27
94.06043 51
95.05087 53
95.05826 28
95.0835 28
96.08648 38
96.99212 27
97.03124 20
97.07708 20
97.94497 44
98.03627 26
99.0449 24
102.04445 21
102.05434 21
105.00823 42
105.03454 20
105.07594 86
106.00386 22
107.05048 29
107.90485 76
109.03257 106
109.06841 68
110.03379 53
110.97319 62
111.03961 23
113.07349 26
113.09453 22
113.96767 34
114.01265 23
114.08463 20
115.00877 57
116.97259 21
117.08027 33
118.04665 21
118.98433 22
121.06322 21
122.01089 23
122.98919 23
123.01199 19
123.01848 29
123.0251 26
123.04554 69
123.05712 20
124.05608 34
125.06551 140
125.96417 20
126.06521 22
126.94651 20
126.99403 81
127.0436 20
128.07251 20
129.99928 50
132.01321 51
133.06995 48
134.05997 37
134.09853 29
135.04611 29
135.05511 26
135.12384 23
136.0004 23
136.96848 22
138.03203 29
138.95248 24
139.01761 34
142.01187 21
144.05563 36
145.05821 25
146.11055 23
146.97804 92
146.99258 24
147.04208 20
147.07011 22
147.07956 20
147.98669 24
151.0417 178
152.03922 22
152.04837 85
Name: Lauric acid diethanolamide
PrecursorMZ: 310.2367
PrecursorType: [M+Na]+
IonMode: Positive
Formula: C16H33NO3
SMILES: CCCCCCCCCCCC(=O)N(CCO)CCO
InChI: 
InChIKey: AOMUHOFOVNGZAN-UHFFFAOYSA-N
RetentionTime: 7.181833
CCS: 
CollisionEnergy: 20-40 eV
InstrumentType: UPLC-QTOF-MS
Comment: PI: Cristina Nerin; Data collector: QiZhi Su, GUIA, University of Zaragoza, Spain; Collision energy: 20-40 V; Instrument: Waters HPLC-QTOF-MS (Xevo G2 QTof); Ionization: ESI; Deconvoluted by MS-DIAL; Column: Waters AtlantisTM premier BEH C18 AX column (2.1 × 100mm x 1.7μm); Flow rate: 0.3mL/min; Mobile phase A and B are water and methnaol, respectively, both with 0.1% formic acid; Gradient elution: from A/B (95/5) to A/B (100/0) in 7min, kept for 4 min, then back to A/B (95/5) in 0.1 min, and maintained for additional 1.9 min (13min in total).; Injection volume: 10 μL
Num peaks: 9
88.05637 3098
88.07597 2961
107.07324 312
107.09039 327
111.05646 2469
239.13312 853
270.24402 2944
307.22614 842
310.2359 25399
Name: Didecyl phthalate
PrecursorMZ: 447.3468
PrecursorType: [M+H]+
IonMode: Positive
Formula: C28H46O4
SMILES: CCCCCCCCCCOC(=O)C1=CC=CC=C1C(=O)OCCCCCCCCCC
InChI: 
InChIKey: PGIBJVOPLXHHGS-UHFFFAOYSA-N
RetentionTime: 9.534516
CCS: 
CollisionEnergy: 20-40 eV
InstrumentType: UPLC-QTOF-MS
Comment: PI: Cristina Nerin; Data collector: QiZhi Su, GUIA, University of Zaragoza, Spain; Collision energy: 20-40 V; Instrument: Waters HPLC-QTOF-MS (Xevo G2 QTof); Ionization: ESI; Deconvoluted by MS-DIAL; Column: Waters AtlantisTM premier BEH C18 AX column (2.1 × 100mm x 1.7μm); Flow rate: 0.3mL/min; Mobile phase A and B are water and methnaol, respectively, both with 0.1% formic acid; Gradient elution: from A/B (95/5) to A/B (100/0) in 7min, kept for 4 min, then back to A/B (95/5) in 0.1 min, and maintained for additional 1.9 min (13min in total).; Injection volume: 10 μL
Num peaks: 13
71.08569 3931
71.103 3936
73.02718 15781
73.04422 29056
73.04938 29057
73.06514 29337
85.10183 5973
149.0235 180129
150.02756 7941
221.09285 14918
345.13745 4570
357.08258 5863
447.34747 2571
Name: Didecyl phthalate
PrecursorMZ: 469.3284
PrecursorType: [M+Na]+
IonMode: Positive
Formula: C28H46O4
SMILES: CCCCCCCCCCOC(=O)C1=CC=CC=C1C(=O)OCCCCCCCCCC
InChI: 
InChIKey: PGIBJVOPLXHHGS-UHFFFAOYSA-N
RetentionTime: 9.568767
CCS: 
CollisionEnergy: 20-40 eV
InstrumentType: UPLC-QTOF-MS
Comment: PI: Cristina Nerin; Data collector: QiZhi Su, GUIA, University of Zaragoza, Spain; Collision energy: 20-40 V; Instrument: Waters HPLC-QTOF-MS (Xevo G2 QTof); Ionization: ESI; Deconvoluted by MS-DIAL; Column: Waters AtlantisTM premier BEH C18 AX column (2.1 × 100mm x 1.7μm); Flow rate: 0.3mL/min; Mobile phase A and B are water and methnaol, respectively, both with 0.1% formic acid; Gradient elution: from A/B (95/5) to A/B (100/0) in 7min, kept for 4 min, then back to A/B (95/5) in 0.1 min, and maintained for additional 1.9 min (13min in total).; Injection volume: 10 μL
Num peaks: 8
73.03048 5908
73.04708 5946
221.08682 4577
267.00079 7498
281.0531 3489
355.07025 14593
356.07291 3425
469.32846 254647
Name: Didecyl phthalate
PrecursorMZ: 469.3288
PrecursorType: [M+Na]+
IonMode: Positive
Formula: C28H46O4
SMILES: CCCCCCCCCCOC(=O)C1=CC=CC=C1C(=O)OCCCCCCCCCC
InChI: 
InChIKey: PGIBJVOPLXHHGS-UHFFFAOYSA-N
RetentionTime: 9.509767
CCS: 
CollisionEnergy: 20-40 eV
InstrumentType: UPLC-QTOF-MS
Comment: PI: Cristina Nerin; Data collector: QiZhi Su, GUIA, University of Zaragoza, Spain; Collision energy: 20-40 V; Instrument: Waters HPLC-QTOF-MS (Xevo G2 QTof); Ionization: ESI; Deconvoluted by MS-DIAL; Column: Waters AtlantisTM premier BEH C18 AX column (2.1 × 100mm x 1.7μm); Flow rate: 0.3mL/min; Mobile phase A and B are water and methnaol, respectively, both with 0.1% formic acid; Gradient elution: from A/B (95/5) to A/B (100/0) in 7min, kept for 4 min, then back to A/B (95/5) in 0.1 min, and maintained for additional 1.9 min (13min in total).; Injection volume: 10 μL
Num peaks: 4
345.13693 6313
466.31805 5208
466.82266 2876
469.32736 283086
Name: Didecyl phthalate
PrecursorMZ: 485.3033
PrecursorType: [M+K]+
IonMode: Positive
Formula: C28H46O4
SMILES: CCCCCCCCCCOC(=O)C1=CC=CC=C1C(=O)OCCCCCCCCCC
InChI: 
InChIKey: PGIBJVOPLXHHGS-UHFFFAOYSA-N
RetentionTime: 9.5288
CCS: 
CollisionEnergy: 20-40 eV
InstrumentType: UPLC-QTOF-MS
Comment: PI: Cristina Nerin; Data collector: QiZhi Su, GUIA, University of Zaragoza, Spain; Collision energy: 20-40 V; Instrument: Waters HPLC-QTOF-MS (Xevo G2 QTof); Ionization: ESI; Deconvoluted by MS-DIAL; Column: Waters AtlantisTM premier BEH C18 AX column (2.1 × 100mm x 1.7μm); Flow rate: 0.3mL/min; Mobile phase A and B are water and methnaol, respectively, both with 0.1% formic acid; Gradient elution: from A/B (95/5) to A/B (100/0) in 7min, kept for 4 min, then back to A/B (95/5) in 0.1 min, and maintained for additional 1.9 min (13min in total).; Injection volume: 10 μL
Num peaks: 14
65.02065 6870
65.03835 6852
71.08606 3399
85.10187 5439
93.03361 6102
121.0283 5546
149.02306 137687
150.00829 7657
150.02768 7625
345.13666 7902
466.31958 5122
469.3266 281645
470.32983 78221
471.3334 8254
Name: Didecyl phthalate
PrecursorMZ: 910.7191
PrecursorType: [2M+NH4]+
IonMode: Positive
Formula: C28H46O4
SMILES: CCCCCCCCCCOC(=O)C1=CC=CC=C1C(=O)OCCCCCCCCCC
InChI: 
InChIKey: PGIBJVOPLXHHGS-UHFFFAOYSA-N
RetentionTime: 9.544033
CCS: 
CollisionEnergy: 20-40 eV
InstrumentType: UPLC-QTOF-MS
Comment: PI: Cristina Nerin; Data collector: QiZhi Su, GUIA, University of Zaragoza, Spain; Collision energy: 20-40 V; Instrument: Waters HPLC-QTOF-MS (Xevo G2 QTof); Ionization: ESI; Deconvoluted by MS-DIAL; Column: Waters AtlantisTM premier BEH C18 AX column (2.1 × 100mm x 1.7μm); Flow rate: 0.3mL/min; Mobile phase A and B are water and methnaol, respectively, both with 0.1% formic acid; Gradient elution: from A/B (95/5) to A/B (100/0) in 7min, kept for 4 min, then back to A/B (95/5) in 0.1 min, and maintained for additional 1.9 min (13min in total).; Injection volume: 10 μL
Num peaks: 50
65.03851 18378
65.05849 3412
66.04208 221
77.03893 2722
79.04549 200
79.05287 196
79.05859 189
85.10144 1787
93.03373 17186
94.02633 501
94.03834 523
94.05126 645
111.12337 354
121.02868 13143
122.03152 519
133.02872 428
135.04404 1066
150.02747 5614
163.03932 1118
238.09038 392
247.06213 312
289.16727 507
289.18259 646
295.11948 1099
317.64362 265
318.19315 262
404.72461 185
447.34659 2448
448.34564 626
448.36136 504
458.34512 318
474.3027 702
474.32614 332
474.82004 336
475.29691 204
503.27902 199
643.46185 350
644.47913 289
645.52148 352
651.30927 666
651.33813 679
659.43237 248
681.47742 204
681.50525 233
682.49982 327
691.48499 457
697.47211 241
697.97125 405
791.48059 916
792.45099 269
Name: Didecyl phthalate
PrecursorMZ: 915.6686
PrecursorType: [2M+Na]+
IonMode: Positive
Formula: C28H46O4
SMILES: CCCCCCCCCCOC(=O)C1=CC=CC=C1C(=O)OCCCCCCCCCC
InChI: 
InChIKey: PGIBJVOPLXHHGS-UHFFFAOYSA-N
RetentionTime: 9.578283
CCS: 
CollisionEnergy: 20-40 eV
InstrumentType: UPLC-QTOF-MS
Comment: PI: Cristina Nerin; Data collector: QiZhi Su, GUIA, University of Zaragoza, Spain; Collision energy: 20-40 V; Instrument: Waters HPLC-QTOF-MS (Xevo G2 QTof); Ionization: ESI; Deconvoluted by MS-DIAL; Column: Waters AtlantisTM premier BEH C18 AX column (2.1 × 100mm x 1.7μm); Flow rate: 0.3mL/min; Mobile phase A and B are water and methnaol, respectively, both with 0.1% formic acid; Gradient elution: from A/B (95/5) to A/B (100/0) in 7min, kept for 4 min, then back to A/B (95/5) in 0.1 min, and maintained for additional 1.9 min (13min in total).; Injection volume: 10 μL
Num peaks: 19
71.08592 2293
73.03493 3133
73.04681 3113
85.10146 3362
149.02356 30156
150.02667 3047
267.00003 2591
345.13699 5701
355.07101 1471
466.31805 2370
466.82178 2071
469.32812 135001
470.33179 42186
471.33652 4770
643.46033 3333
689.48584 13926
689.98956 13289
690.4892 5074
791.47815 3145
Name: Dibutylamine
PrecursorMZ: 130.1595
PrecursorType: [M+H]+
IonMode: Positive
Formula: C8H19N
SMILES: CCCCNCCCC
InChI: 
InChIKey: JQVDAXLFBXTEQA-UHFFFAOYSA-N
RetentionTime: 0.8671167
CCS: 
CollisionEnergy: 20-40 eV
InstrumentType: UPLC-QTOF-MS
Comment: PI: Cristina Nerin; Data collector: QiZhi Su, GUIA, University of Zaragoza, Spain; Collision energy: 20-40 V; Instrument: Waters HPLC-QTOF-MS (Xevo G2 QTof); Ionization: ESI; Deconvoluted by MS-DIAL; Column: Waters AtlantisTM premier BEH C18 AX column (2.1 × 100mm x 1.7μm); Flow rate: 0.3mL/min; Mobile phase A and B are water and methnaol, respectively, both with 0.1% formic acid; Gradient elution: from A/B (95/5) to A/B (100/0) in 7min, kept for 4 min, then back to A/B (95/5) in 0.1 min, and maintained for additional 1.9 min (13min in total).; Injection volume: 10 μL
Num peaks: 3
57.06926 381
74.09801 610
130.16005 3633
Name: Diethyl Sebacate
PrecursorMZ: 259.1918
PrecursorType: [M+H]+
IonMode: Positive
Formula: C14H26O4
SMILES: CCOC(=O)CCCCCCCCC(=O)OCC
InChI: 
InChIKey: ONKUXPIBXRRIDU-UHFFFAOYSA-N
RetentionTime: 7.22735
CCS: 
CollisionEnergy: 20-40 eV
InstrumentType: UPLC-QTOF-MS
Comment: PI: Cristina Nerin; Data collector: QiZhi Su, GUIA, University of Zaragoza, Spain; Collision energy: 20-40 V; Instrument: Waters HPLC-QTOF-MS (Xevo G2 QTof); Ionization: ESI; Deconvoluted by MS-DIAL; Column: Waters AtlantisTM premier BEH C18 AX column (2.1 × 100mm x 1.7μm); Flow rate: 0.3mL/min; Mobile phase A and B are water and methnaol, respectively, both with 0.1% formic acid; Gradient elution: from A/B (95/5) to A/B (100/0) in 7min, kept for 4 min, then back to A/B (95/5) in 0.1 min, and maintained for additional 1.9 min (13min in total).; Injection volume: 10 μL
Num peaks: 60
55.0546 4296
67.05404 11772
68.05198 496
68.05843 496
69.0353 830
69.04522 821
69.06976 48702
70.07341 1842
70.07919 1843
70.08756 1800
71.05058 597
73.06433 807
77.02178 4823
77.0387 4911
79.05403 31620
80.05811 1535
80.06508 1534
81.06989 19762
81.08635 19767
82.0742 895
83.03606 6155
83.04956 6137
83.08294 645
83.08949 635
83.09775 636
87.03989 493
87.04739 499
91.05429 10648
92.05674 577
92.0624 577
93.06982 45476
94.07409 1985
95.08559 17695
96.09046 746
97.0653 11116
97.10162 14263
97.11797 14258
98.06505 540
98.0723 537
98.10152 654
98.10827 652
101.05334 599
101.06155 612
105.07092 2835
107.08615 4801
111.11704 2458
119.07913 710
119.08736 705
121.08221 30778
121.10127 30545
122.10432 1856
131.08598 4263
139.11192 13431
140.11646 793
149.09763 1659
167.03807 968
223.04601 824
223.0647 2277
223.08014 2140
241.0761 647
Name: Diethyl Sebacate
PrecursorMZ: 281.174
PrecursorType: [M+Na]+
IonMode: Positive
Formula: C14H26O4
SMILES: CCOC(=O)CCCCCCCCC(=O)OCC
InChI: 
InChIKey: ONKUXPIBXRRIDU-UHFFFAOYSA-N
RetentionTime: 7.231167
CCS: 
CollisionEnergy: 20-40 eV
InstrumentType: UPLC-QTOF-MS
Comment: PI: Cristina Nerin; Data collector: QiZhi Su, GUIA, University of Zaragoza, Spain; Collision energy: 20-40 V; Instrument: Waters HPLC-QTOF-MS (Xevo G2 QTof); Ionization: ESI; Deconvoluted by MS-DIAL; Column: Waters AtlantisTM premier BEH C18 AX column (2.1 × 100mm x 1.7μm); Flow rate: 0.3mL/min; Mobile phase A and B are water and methnaol, respectively, both with 0.1% formic acid; Gradient elution: from A/B (95/5) to A/B (100/0) in 7min, kept for 4 min, then back to A/B (95/5) in 0.1 min, and maintained for additional 1.9 min (13min in total).; Injection volume: 10 μL
Num peaks: 57
55.05445 4256
67.05435 11775
67.07222 11806
68.05629 493
68.06105 493
69.03493 855
69.06974 48763
69.08468 48771
70.07407 1857
71.04739 602
71.05301 604
73.0653 847
77.02583 4806
77.03899 4789
79.05415 31428
80.05871 1529
81.06977 19660
82.06597 850
82.0732 847
83.04992 6212
83.07144 537
83.08549 636
87.04552 504
91.05452 10564
92.05825 573
93.06978 45253
94.06178 1937
94.07426 1942
94.08083 1933
95.06713 18246
95.08547 17873
96.08978 762
97.06516 11211
97.08781 14284
97.10133 14344
97.1161 14338
98.06998 509
98.10545 672
98.11778 667
101.06088 630
101.07607 587
105.07071 2830
107.08585 4826
111.11809 2518
119.08939 704
121.1011 30579
122.10131 1819
122.10755 1821
131.0853 4204
139.112 13647
140.11641 799
149.09666 1710
167.03061 1431
167.04079 1361
223.06618 2926
241.07736 1001
269.10696 1363
Name: Diethyl Sebacate
PrecursorMZ: 297.1488
PrecursorType: [M+K]+
IonMode: Positive
Formula: C14H26O4
SMILES: CCOC(=O)CCCCCCCCC(=O)OCC
InChI: 
InChIKey: ONKUXPIBXRRIDU-UHFFFAOYSA-N
RetentionTime: 7.231167
CCS: 
CollisionEnergy: 20-40 eV
InstrumentType: UPLC-QTOF-MS
Comment: PI: Cristina Nerin; Data collector: QiZhi Su, GUIA, University of Zaragoza, Spain; Collision energy: 20-40 V; Instrument: Waters HPLC-QTOF-MS (Xevo G2 QTof); Ionization: ESI; Deconvoluted by MS-DIAL; Column: Waters AtlantisTM premier BEH C18 AX column (2.1 × 100mm x 1.7μm); Flow rate: 0.3mL/min; Mobile phase A and B are water and methnaol, respectively, both with 0.1% formic acid; Gradient elution: from A/B (95/5) to A/B (100/0) in 7min, kept for 4 min, then back to A/B (95/5) in 0.1 min, and maintained for additional 1.9 min (13min in total).; Injection volume: 10 μL
Num peaks: 57
55.05445 4256
67.05435 11775
67.07222 11806
68.05629 493
68.06105 493
69.03493 855
69.06974 48763
69.08468 48771
70.07407 1857
71.04739 602
71.05301 604
73.0653 847
77.02583 4806
77.03899 4789
79.05415 31428
80.05871 1529
81.06977 19660
82.06597 850
82.0732 847
83.04992 6212
83.07144 537
83.08549 636
87.04552 504
91.05452 10564
92.05825 573
93.06978 45253
94.06178 1937
94.07426 1942
94.08083 1933
95.06713 18246
95.08547 17873
96.08978 762
97.06516 11211
97.08781 14284
97.10133 14344
97.1161 14338
98.06998 509
98.10545 672
98.11778 667
101.06088 630
101.07607 587
105.07071 2830
107.08585 4826
111.11809 2518
119.08939 704
121.1011 30579
122.10131 1819
122.10755 1821
131.0853 4204
139.112 13647
140.11641 799
149.09666 1710
167.03061 1431
167.04079 1361
223.06618 2926
241.07736 1001
269.10696 1363
Name: Ethylene glycol monoricinoleate
PrecursorMZ: 365.2657
PrecursorType: [M+Na]+
IonMode: Positive
Formula: C20H38O4
SMILES: CCCCCCC(CC=CCCCCCCCC(=O)OCCO)O
InChI: 
InChIKey: XLMXUUQMSMKFMH-UZRURVBFSA-N
RetentionTime: 7.5205
CCS: 
CollisionEnergy: 20-40 eV
InstrumentType: UPLC-QTOF-MS
Comment: PI: Cristina Nerin; Data collector: QiZhi Su, GUIA, University of Zaragoza, Spain; Collision energy: 20-40 V; Instrument: Waters HPLC-QTOF-MS (Xevo G2 QTof); Ionization: ESI; Deconvoluted by MS-DIAL; Column: Waters AtlantisTM premier BEH C18 AX column (2.1 × 100mm x 1.7μm); Flow rate: 0.3mL/min; Mobile phase A and B are water and methnaol, respectively, both with 0.1% formic acid; Gradient elution: from A/B (95/5) to A/B (100/0) in 7min, kept for 4 min, then back to A/B (95/5) in 0.1 min, and maintained for additional 1.9 min (13min in total).; Injection volume: 10 μL
Num peaks: 163
57.06662 70
57.07431 76
68.06014 31
69.03157 48
69.03827 49
73.06028 32
77.0316 113
77.04001 116
77.04752 119
79.05398 85
79.05886 84
80.06017 55
81.06964 125
82.06351 63
82.07504 63
84.09386 40
85.06767 33
91.05524 553
91.06643 584
94.06389 109
94.07404 115
94.07883 112
95.08608 146
96.08517 204
96.09161 204
96.09572 204
97.10369 52
104.05855 40
105.07214 295
106.0611 72
106.06551 88
106.0743 85
108.09339 31
109.06337 31
109.10223 1067
110.10372 89
110.10965 85
110.11806 87
110.97724 32
111.07948 101
111.08578 101
113.09394 32
115.06044 34
119.0744 267
119.08819 302
120.09098 43
121.02348 38
122.10504 69
122.11577 66
123.07452 56
123.08999 59
123.11777 36
127.11166 35
131.07574 54
131.08797 47
133.02631 61
133.0354 56
134.06729 32
134.07521 36
135.04927 44
135.0808 39
135.11652 252
147.1189 301
148.12004 36
149.13113 183
149.14134 186
153.05592 36
157.11472 30
161.08992 45
161.09639 47
162.13181 34
165.13033 39
167.03401 52
169.10269 38
176.01743 41
176.02797 36
177.1571 59
177.17201 49
181.07625 41
181.08847 32
182.05444 36
182.11931 56
182.17111 30
187.10411 29
187.14615 58
189.15788 79
189.16888 90
190.17068 30
191.11284 89
191.13039 92
195.06497 90
195.09975 33
195.10831 29
195.17868 31
203.01479 38
203.03238 54
203.17201 37
207.05006 34
209.07393 63
209.0867 83
209.09662 77
221.08359 32
221.10484 30
221.19339 32
223.07584 155
223.09032 488
223.10374 450
224.09375 134
224.10777 126
224.1317 29
225.08881 38
225.11032 29
232.07587 30
237.06955 38
249.11984 42
251.12212 69
251.13667 98
251.1463 85
253.1107 36
263.12396 51
263.14014 52
263.22559 148
263.2402 147
279.08878 29
289.09241 50
293.1832 43
296.09805 30
303.21689 226
303.24426 37
304.2178 111
304.2348 127
305.21918 45
305.23312 59
311.10287 29
311.31061 44
319.15305 32
319.19656 1797
320.19254 177
320.20377 174
321.18991 75
321.2121 164
321.23132 59
331.1268 31
333.16135 79
333.1813 47
334.16138 43
334.173 38
335.10858 35
335.14676 160
335.16611 536
335.18396 527
335.20563 108
335.23541 36
336.17838 77
336.19351 50
337.18469 169
337.20801 1221
338.19714 205
338.21289 204
339.17267 40
353.17276 86
362.25369 56
365.2666 2819
Name: Luperox 101
PrecursorMZ: 313.2362
PrecursorType: [M+Na]+
IonMode: Positive
Formula: C16H34O4
SMILES: CC(C)(C)OOC(C)(C)CCC(C)(C)OOC(C)(C)C
InChI: 
InChIKey: DMWVYCCGCQPJEA-UHFFFAOYSA-N
RetentionTime: 7.539533
CCS: 
CollisionEnergy: 20-40 eV
InstrumentType: UPLC-QTOF-MS
Comment: PI: Cristina Nerin; Data collector: QiZhi Su, GUIA, University of Zaragoza, Spain; Collision energy: 20-40 V; Instrument: Waters HPLC-QTOF-MS (Xevo G2 QTof); Ionization: ESI; Deconvoluted by MS-DIAL; Column: Waters AtlantisTM premier BEH C18 AX column (2.1 × 100mm x 1.7μm); Flow rate: 0.3mL/min; Mobile phase A and B are water and methnaol, respectively, both with 0.1% formic acid; Gradient elution: from A/B (95/5) to A/B (100/0) in 7min, kept for 4 min, then back to A/B (95/5) in 0.1 min, and maintained for additional 1.9 min (13min in total).; Injection volume: 10 μL
Num peaks: 313
53.43031 36
55.02596 35
55.05214 68
55.0553 132
55.06055 55
56.79193 52
56.9628 37
57.07027 54
57.92821 38
59.04987 39
63.85619 37
67.05433 2365
67.34816 41
68.05235 52
68.06412 43
68.99812 38
69.00439 70
69.07087 1250
70.07341 67
70.0816 87
70.98296 43
71.05057 79
71.08829 152
71.24301 65
73.05137 79
74.84533 42
77.03408 40
77.04184 68
79.05546 1798
80.02316 60
81.00682 36
81.06022 88
81.07068 3259
82.07551 114
83.04984 167
83.08659 614
84.96649 148
85.02885 116
85.06248 94
85.107 37
85.40099 43
87.04025 47
89.06176 330
89.06917 275
90.05834 35
90.96054 36
91.05625 1327
91.13577 40
91.57223 44
93.07117 1725
93.36549 60
94.06995 43
95.02161 166
95.04475 45
95.05073 82
95.08591 2801
95.09731 97
95.97143 34
96.08926 153
96.98577 70
97.05632 40
97.06142 162
97.06656 234
97.09717 260
97.10199 137
97.10957 109
98.05231 77
98.1072 65
99.0466 277
99.07925 47
99.08578 111
100.99549 221
101.06503 43
102.09236 37
102.99894 44
103.05116 45
103.05698 48
105.06493 193
105.07139 327
105.07823 115
107.05033 56
107.0604 56
107.08463 389
107.09237 361
108.97326 35
109.07359 52
109.10188 1087
109.76537 33
111.00356 105
111.04697 171
111.08315 38
111.11932 49
114.03946 105
116.05743 60
117.0699 164
117.07529 52
117.08708 51
117.54479 41
119.08723 848
120.09436 57
121.06361 60
121.09165 73
121.10345 783
122.10358 47
123.07661 41
123.11557 172
123.12447 68
123.60652 49
124.0867 33
125.02299 50
125.06406 76
125.09287 37
125.10138 83
127.12027 33
129.02246 109
129.0735 43
131.01801 66
131.078 42
131.08345 112
131.09641 46
133.08617 103
133.09164 283
133.1044 828
133.99168 48
134.06137 59
135.08437 46
135.10587 62
135.11816 473
136.29826 62
136.86327 36
137.13089 63
137.13808 110
138.68156 48
139.05066 48
139.10864 43
139.11682 53
139.98169 35
140.61963 48
140.97945 48
142.57024 57
143.10774 45
143.33049 61
144.09656 48
144.5778 74
144.81821 40
145.01846 479
145.03043 171
147.05026 41
147.06056 48
147.11798 439
148.13477 52
149.01889 57
149.10379 55
149.13269 285
149.14429 100
150.99886 37
151.08286 52
151.10811 50
151.14949 101
153.03056 76
155.07605 46
156.07538 34
156.08888 101
159.09706 94
159.10954 57
160.1282 60
160.96275 33
160.97603 55
160.99486 177
161.06252 94
161.13797 422
162.07253 41
162.13524 45
162.99657 45
163.10735 42
163.13881 38
163.1469 227
164.1151 43
165.02798 43
165.06279 36
165.13609 35
165.16263 75
165.17308 50
167.0966 88
168.0831 55
170.1125 64
170.8326 97
171.11427 47
171.12471 77
173.08348 34
173.60199 53
175.14351 187
176.0275 41
176.09004 57
177.02332 43
177.09554 105
177.11267 44
177.17247 56
178.09546 65
179.07819 58
181.12155 107
183.10791 44
184.0842 90
185.07532 52
185.13786 49
187.1181 45
189.03076 65
189.04013 105
189.05437 123
189.05983 50
189.16228 40
189.1703 50
191.08751 33
193.10408 76
194.04366 47
194.11125 40
196.10388 44
197.08125 47
197.11464 110
197.12982 38
198.06706 33
199.0363 52
200.15952 34
201.12987 54
202.09541 37
203.1523 41
204.10651 34
204.11743 62
204.13301 96
205.06351 100
205.12874 38
209.0876 45
209.09563 63
209.12042 66
211.08035 37
211.25069 115
213.14284 158
217.18414 43
219.18179 58
222.97037 33
223.08339 40
223.09836 375
223.10764 643
224.11084 83
226.0961 42
227.19746 47
229.07745 86
232.75706 55
233.06773 144
233.13182 35
233.15309 65
234.10101 39
235.11894 49
237.05434 41
237.12582 80
238.0686 65
243.06944 46
245.22466 235
246.17297 37
246.2383 43
249.00288 39
249.11751 53
249.55707 46
251.0985 48
251.16264 44
251.9704 38
253.11993 56
254.28154 46
258.05096 73
261.12097 51
263.23788 165
263.25519 35
264.59854 40
265.08917 37
266.17178 37
267.19684 50
268.11002 37
269.08475 63
269.10486 40
269.17841 64
271.13446 37
272.08081 39
274.04056 34
277.21924 69
278.09552 69
279.14716 34
279.23679 55
281.12695 33
281.14035 33
283.11063 104
283.15097 93
285.17456 54
286.12567 33
288.03403 37
289.60022 35
291.19089 68
292.13184 39
293.14609 54
293.17554 62
295.17221 71
301.19559 35
302.35046 33
303.20248 47
303.2254 244
305.23203 43
307.12881 53
307.26532 335
311.11591 41
311.15451 323
311.18362 49
312.16275 51
313.23691 36
313.25073 96
Name: 4-(Dodecyloxy)benzoic acid
PrecursorMZ: 307.2275
PrecursorType: [M+H]+
IonMode: Positive
Formula: C19H30O3
SMILES: CCCCCCCCCCCCOC1=CC=C(C=C1)C(=O)O
InChI: 
InChIKey: ALQLYJHDBAKLBB-UHFFFAOYSA-N
RetentionTime: 8.9154
CCS: 
CollisionEnergy: 20-40 eV
InstrumentType: UPLC-QTOF-MS
Comment: PI: Cristina Nerin; Data collector: QiZhi Su, GUIA, University of Zaragoza, Spain; Collision energy: 20-40 V; Instrument: Waters HPLC-QTOF-MS (Xevo G2 QTof); Ionization: ESI; Deconvoluted by MS-DIAL; Column: Waters AtlantisTM premier BEH C18 AX column (2.1 × 100mm x 1.7μm); Flow rate: 0.3mL/min; Mobile phase A and B are water and methnaol, respectively, both with 0.1% formic acid; Gradient elution: from A/B (95/5) to A/B (100/0) in 7min, kept for 4 min, then back to A/B (95/5) in 0.1 min, and maintained for additional 1.9 min (13min in total).; Injection volume: 10 μL
Num peaks: 44
67.05381 424
67.0587 426
71.08604 171
73.04784 197
77.03978 941
81.0559 726
81.07053 750
81.07797 745
91.05224 231
91.05859 247
91.077 134
93.03311 389
93.04088 400
93.08376 200
95.04971 6633
95.086 865
96.05511 299
105.07359 176
109.09596 230
109.10076 225
109.10998 236
111.12047 142
111.13009 136
121.02934 6179
121.10041 180
121.10764 163
122.03057 326
123.10613 163
123.11621 149
123.12191 144
139.04031 3774
140.04402 263
140.05649 258
149.12309 141
149.1355 131
161.12953 154
161.13606 152
161.14499 147
245.21382 238
245.22989 253
263.24786 218
307.22729 11444
307.26627 265
307.28381 210
Name: 4-(Dodecyloxy)benzoic acid
PrecursorMZ: 613.4488
PrecursorType: [2M+H]+
IonMode: Positive
Formula: C19H30O3
SMILES: CCCCCCCCCCCCOC1=CC=C(C=C1)C(=O)O
InChI: 
InChIKey: ALQLYJHDBAKLBB-UHFFFAOYSA-N
RetentionTime: 8.9154
CCS: 
CollisionEnergy: 20-40 eV
InstrumentType: UPLC-QTOF-MS
Comment: PI: Cristina Nerin; Data collector: QiZhi Su, GUIA, University of Zaragoza, Spain; Collision energy: 20-40 V; Instrument: Waters HPLC-QTOF-MS (Xevo G2 QTof); Ionization: ESI; Deconvoluted by MS-DIAL; Column: Waters AtlantisTM premier BEH C18 AX column (2.1 × 100mm x 1.7μm); Flow rate: 0.3mL/min; Mobile phase A and B are water and methnaol, respectively, both with 0.1% formic acid; Gradient elution: from A/B (95/5) to A/B (100/0) in 7min, kept for 4 min, then back to A/B (95/5) in 0.1 min, and maintained for additional 1.9 min (13min in total).; Injection volume: 10 μL
Num peaks: 76
65.03981 99
65.04503 100
67.05381 432
67.0587 435
71.08604 171
73.04784 219
73.06719 166
77.03978 941
81.0559 736
81.07053 756
81.07797 752
91.05224 211
91.05859 223
91.077 134
93.03311 389
93.04088 400
93.08376 200
95.04971 6633
95.086 886
96.05511 299
105.07359 180
109.09596 267
109.10076 259
109.10998 266
111.12047 142
111.13009 136
119.0882 106
121.02934 6179
121.10041 127
121.10764 163
122.03057 330
123.10613 166
123.11621 155
123.12191 150
135.11853 107
135.12607 99
139.04031 3774
140.04402 266
140.05649 265
147.10789 130
147.11874 136
149.12309 156
149.1355 139
161.12953 142
161.13606 138
161.14499 139
221.07603 139
221.08777 108
233.07959 224
237.0782 170
237.08969 185
245.21382 246
245.22989 240
263.22589 105
263.24786 270
291.23599 118
307.22729 9743
307.26627 214
307.28381 256
308.20822 247
308.23206 1035
308.24792 1261
308.27252 108
309.2439 125
324.25613 529
325.26031 103
329.19739 288
330.20206 192
330.21848 155
347.24741 123
347.26385 108
356.0723 121
391.28339 510
445.12878 1157
613.4411 322
613.46381 488
Name: 4-(Dodecyloxy)benzoic acid
PrecursorMZ: 324.2552
PrecursorType: [M+NH4]+
IonMode: Positive
Formula: C19H30O3
SMILES: CCCCCCCCCCCCOC1=CC=C(C=C1)C(=O)O
InChI: 
InChIKey: ALQLYJHDBAKLBB-UHFFFAOYSA-N
RetentionTime: 8.923
CCS: 
CollisionEnergy: 20-40 eV
InstrumentType: UPLC-QTOF-MS
Comment: PI: Cristina Nerin; Data collector: QiZhi Su, GUIA, University of Zaragoza, Spain; Collision energy: 20-40 V; Instrument: Waters HPLC-QTOF-MS (Xevo G2 QTof); Ionization: ESI; Deconvoluted by MS-DIAL; Column: Waters AtlantisTM premier BEH C18 AX column (2.1 × 100mm x 1.7μm); Flow rate: 0.3mL/min; Mobile phase A and B are water and methnaol, respectively, both with 0.1% formic acid; Gradient elution: from A/B (95/5) to A/B (100/0) in 7min, kept for 4 min, then back to A/B (95/5) in 0.1 min, and maintained for additional 1.9 min (13min in total).; Injection volume: 10 μL
Num peaks: 42
60.07846 240
60.08389 252
69.04939 91
71.08591 220
71.09381 223
72.09145 47
79.07785 69
93.0336 399
94.0423 84
96.05337 285
114.08334 46
132.99699 169
133.06648 109
153.05174 71
173.05771 47
179.05817 44
217.17859 45
221.09373 91
221.10904 53
222.07347 68
222.08908 55
237.10789 100
239.06613 58
255.12241 46
289.21964 4218
290.20203 248
290.21774 543
290.2305 523
295.1019 75
295.11652 71
308.23349 231
309.21588 131
309.23483 120
311.08423 69
311.10059 65
317.15112 50
321.22522 557
321.24423 610
322.25586 83
324.22467 56
324.24985 223
324.26483 190
Name: Luperox 101
PrecursorMZ: 329.2093
PrecursorType: [M+K]+
IonMode: Positive
Formula: C16H34O4
SMILES: CC(C)(C)OOC(C)(C)CCC(C)(C)OOC(C)(C)C
InChI: 
InChIKey: DMWVYCCGCQPJEA-UHFFFAOYSA-N
RetentionTime: 8.923
CCS: 
CollisionEnergy: 20-40 eV
InstrumentType: UPLC-QTOF-MS
Comment: PI: Cristina Nerin; Data collector: QiZhi Su, GUIA, University of Zaragoza, Spain; Collision energy: 20-40 V; Instrument: Waters HPLC-QTOF-MS (Xevo G2 QTof); Ionization: ESI; Deconvoluted by MS-DIAL; Column: Waters AtlantisTM premier BEH C18 AX column (2.1 × 100mm x 1.7μm); Flow rate: 0.3mL/min; Mobile phase A and B are water and methnaol, respectively, both with 0.1% formic acid; Gradient elution: from A/B (95/5) to A/B (100/0) in 7min, kept for 4 min, then back to A/B (95/5) in 0.1 min, and maintained for additional 1.9 min (13min in total).; Injection volume: 10 μL
Num peaks: 43
60.07846 240
60.08389 252
69.04939 91
71.08591 220
71.09381 223
72.09145 47
79.07785 69
93.0336 399
94.0423 84
96.05337 285
114.08334 46
132.99699 169
133.06648 109
153.05174 71
173.05771 47
179.05817 44
217.17859 45
221.09373 91
221.10904 53
222.07347 68
222.08908 55
237.10789 100
239.06613 58
255.12241 46
289.21964 4218
290.20203 248
290.21774 543
290.2305 523
295.1019 75
295.11652 71
308.23349 231
309.21588 131
309.23483 120
311.08423 69
311.10059 65
317.15112 50
321.22522 557
321.24423 610
322.25586 83
324.22467 56
324.24985 528
324.26483 482
329.20981 1703
Name: 4-(Dodecyloxy)benzoic acid
PrecursorMZ: 635.4299
PrecursorType: [2M+Na]+
IonMode: Positive
Formula: C19H30O3
SMILES: CCCCCCCCCCCCOC1=CC=C(C=C1)C(=O)O
InChI: 
InChIKey: ALQLYJHDBAKLBB-UHFFFAOYSA-N
RetentionTime: 8.923
CCS: 
CollisionEnergy: 20-40 eV
InstrumentType: UPLC-QTOF-MS
Comment: PI: Cristina Nerin; Data collector: QiZhi Su, GUIA, University of Zaragoza, Spain; Collision energy: 20-40 V; Instrument: Waters HPLC-QTOF-MS (Xevo G2 QTof); Ionization: ESI; Deconvoluted by MS-DIAL; Column: Waters AtlantisTM premier BEH C18 AX column (2.1 × 100mm x 1.7μm); Flow rate: 0.3mL/min; Mobile phase A and B are water and methnaol, respectively, both with 0.1% formic acid; Gradient elution: from A/B (95/5) to A/B (100/0) in 7min, kept for 4 min, then back to A/B (95/5) in 0.1 min, and maintained for additional 1.9 min (13min in total).; Injection volume: 10 μL
Num peaks: 89
60.07846 360
60.08389 351
65.03595 78
71.08591 220
71.09381 223
72.09145 47
77.03743 164
77.04391 164
79.07785 69
81.03596 43
93.0336 60
94.02964 88
94.0423 84
96.05337 124
96.05943 158
101.05867 246
111.08366 71
113.09865 148
114.08334 46
123.0915 49
131.07419 68
131.08386 77
131.09142 74
131.10017 56
133.06648 109
153.05174 71
173.05771 47
207.08583 54
217.17859 45
222.07347 71
222.08908 63
237.10789 100
255.12241 47
289.21964 4218
290.20203 249
290.21774 548
290.2305 528
295.1019 76
307.22733 171
308.21185 237
308.23349 359
309.21588 131
309.23483 110
324.22467 56
324.24985 62
325.24463 56
329.20981 1429
331.22272 78
345.17581 44
346.1788 779
349.28119 47
367.30243 43
369.12198 77
402.16797 47
405.34369 45
475.2774 43
485.3913 1877
489.38373 46
491.35538 61
519.41016 52
523.46429 47
523.49377 53
529.43323 136
531.39001 55
540.31201 83
540.80139 90
540.83051 79
551.50702 65
575.51208 57
577.53534 49
599.51111 52
601.45056 382
602.45007 86
602.48438 139
603.46075 122
603.49463 143
604.48669 44
613.41986 146
613.44305 266
614.43201 123
614.46417 189
615.44171 50
618.5127 59
630.4693 141
630.51544 56
632.93066 63
632.948 64
635.40088 220
635.42371 425
Name: Trolox
PrecursorMZ: 268.1568
PrecursorType: [M+NH4]+
IonMode: Positive
Formula: C14H18O4
SMILES: CC1=C(C2=C(CCC(O2)(C)C(=O)O)C(=C1O)C)C
InChI: 
InChIKey: GLEVLJDDWXEYCO-UHFFFAOYSA-N
RetentionTime: 6.3926
CCS: 
CollisionEnergy: 20-40 eV
InstrumentType: UPLC-QTOF-MS
Comment: PI: Cristina Nerin; Data collector: QiZhi Su, GUIA, University of Zaragoza, Spain; Collision energy: 20-40 V; Instrument: Waters HPLC-QTOF-MS (Xevo G2 QTof); Ionization: ESI; Deconvoluted by MS-DIAL; Column: Waters AtlantisTM premier BEH C18 AX column (2.1 × 100mm x 1.7μm); Flow rate: 0.3mL/min; Mobile phase A and B are water and methnaol, respectively, both with 0.1% formic acid; Gradient elution: from A/B (95/5) to A/B (100/0) in 7min, kept for 4 min, then back to A/B (95/5) in 0.1 min, and maintained for additional 1.9 min (13min in total).; Injection volume: 10 μL
Num peaks: 88
77.03977 362
77.04584 362
81.06513 513
81.07225 499
93.05865 249
93.07156 253
95.04855 307
95.05384 307
95.08392 191
95.09055 190
103.0498 191
103.05915 197
107.08839 113
108.08499 226
108.09158 230
108.09789 226
109.09679 942
109.10535 939
115.05025 516
115.05812 519
116.05552 132
116.0676 133
117.05872 640
117.07273 656
120.08286 190
121.06605 5610
122.07449 1365
128.04536 167
131.04779 134
135.04237 139
135.05251 207
136.08948 3125
137.09381 2762
137.10103 2761
138.10719 194
141.06696 333
141.07524 327
142.06544 275
142.07697 251
142.08455 247
144.09227 142
144.10225 130
145.11267 183
147.05269 136
147.12047 133
149.05582 140
149.06766 114
154.07869 115
154.08525 111
157.10126 140
157.11282 109
159.11444 772
159.12125 780
161.08253 948
161.0966 759
163.12279 225
164.0842 7243
165.09158 10761
172.09323 349
173.11569 380
175.05785 705
175.07678 354
176.08083 570
177.08348 178
177.14084 475
185.09444 134
185.10651 151
187.11345 162
188.11333 122
188.11978 122
189.09261 1901
190.10037 328
203.1049 597
203.11337 564
204.11797 155
205.12376 3635
206.12785 892
206.14117 860
217.08432 395
217.09558 446
232.09225 216
232.10999 312
232.12285 293
250.10081 250
250.11963 443
251.12102 257
251.13728 243
268.16928 209
Name: Trolox
PrecursorMZ: 251.1279
PrecursorType: [M+H]+
IonMode: Positive
Formula: C14H18O4
SMILES: CC1=C(C2=C(CCC(O2)(C)C(=O)O)C(=C1O)C)C
InChI: 
InChIKey: GLEVLJDDWXEYCO-UHFFFAOYSA-N
RetentionTime: 6.3964
CCS: 
CollisionEnergy: 20-40 eV
InstrumentType: UPLC-QTOF-MS
Comment: PI: Cristina Nerin; Data collector: QiZhi Su, GUIA, University of Zaragoza, Spain; Collision energy: 20-40 V; Instrument: Waters HPLC-QTOF-MS (Xevo G2 QTof); Ionization: ESI; Deconvoluted by MS-DIAL; Column: Waters AtlantisTM premier BEH C18 AX column (2.1 × 100mm x 1.7μm); Flow rate: 0.3mL/min; Mobile phase A and B are water and methnaol, respectively, both with 0.1% formic acid; Gradient elution: from A/B (95/5) to A/B (100/0) in 7min, kept for 4 min, then back to A/B (95/5) in 0.1 min, and maintained for additional 1.9 min (13min in total).; Injection volume: 10 μL
Num peaks: 99
77.03934 757
77.04509 757
79.04381 356
79.05046 355
79.05574 355
81.06475 513
81.07258 499
91.03564 1209
91.05553 1665
93.07021 342
95.03603 119
95.08364 191
95.08956 191
103.04952 298
103.0558 304
103.06467 306
104.06174 115
105.07057 1138
107.08188 314
107.08894 304
108.09631 225
109.09177 953
109.10291 940
115.05709 301
117.05632 364
117.07098 376
117.0834 360
121.06515 6094
121.10417 162
122.07123 1359
122.07948 1362
128.05695 374
128.0652 380
130.06946 135
130.07724 136
130.08479 158
131.08528 129
131.0921 144
135.03885 151
135.04788 173
136.08922 3867
137.09703 2740
138.09752 198
138.11394 181
141.06613 274
141.07378 314
142.06471 207
142.08153 169
142.10316 124
144.08632 157
144.09625 168
145.06726 371
145.07463 394
146.07918 110
147.08029 333
147.09509 296
147.10866 183
147.12007 112
149.04868 170
149.06764 175
157.06273 114
157.07278 121
157.08751 267
159.07347 196
159.08476 173
159.09148 181
159.12175 778
161.09142 445
161.09976 443
164.08386 7240
165.09172 10813
172.07703 382
172.09154 421
174.07487 155
175.07845 581
175.1142 380
176.07886 565
176.08603 564
177.13739 478
185.09918 203
185.10808 208
187.11328 281
188.11978 130
189.09415 2142
189.11429 291
190.10013 323
203.1073 582
203.11655 561
204.11279 147
204.12822 163
205.12343 3556
206.12334 884
206.1338 871
217.08566 376
232.10982 318
250.09659 131
250.11351 456
250.12215 425
251.12914 253
Name: Trolox
PrecursorMZ: 523.229
PrecursorType: [2M+Na]+
IonMode: Positive
Formula: C14H18O4
SMILES: CC1=C(C2=C(CCC(O2)(C)C(=O)O)C(=C1O)C)C
InChI: 
InChIKey: GLEVLJDDWXEYCO-UHFFFAOYSA-N
RetentionTime: 6.3964
CCS: 
CollisionEnergy: 20-40 eV
InstrumentType: UPLC-QTOF-MS
Comment: PI: Cristina Nerin; Data collector: QiZhi Su, GUIA, University of Zaragoza, Spain; Collision energy: 20-40 V; Instrument: Waters HPLC-QTOF-MS (Xevo G2 QTof); Ionization: ESI; Deconvoluted by MS-DIAL; Column: Waters AtlantisTM premier BEH C18 AX column (2.1 × 100mm x 1.7μm); Flow rate: 0.3mL/min; Mobile phase A and B are water and methnaol, respectively, both with 0.1% formic acid; Gradient elution: from A/B (95/5) to A/B (100/0) in 7min, kept for 4 min, then back to A/B (95/5) in 0.1 min, and maintained for additional 1.9 min (13min in total).; Injection volume: 10 μL
Num peaks: 149
65.04108 82
69.03168 76
69.03797 82
69.06673 89
69.07284 91
77.03934 744
77.04509 744
79.04381 330
79.05046 327
79.05574 327
80.06423 115
81.07258 530
83.0497 416
91.03564 1435
91.05553 1647
93.03357 184
93.04073 185
93.07021 302
95.03603 119
95.05102 105
103.04952 298
103.0558 304
103.06467 305
104.06174 119
105.07057 1138
107.08188 419
107.08894 410
108.09631 222
109.09177 80
111.04617 89
115.05709 279
116.05165 91
116.06358 87
117.05632 338
117.07098 365
117.0834 356
118.06624 84
118.0789 84
119.06923 543
119.0858 558
120.08303 77
121.06515 5600
122.07123 196
122.07948 230
128.05695 434
128.0652 430
129.07269 79
130.06946 154
130.07724 153
130.08479 147
131.05011 79
131.08528 116
131.0921 130
132.04726 78
132.09322 76
135.03885 210
135.04788 232
136.08922 3771
137.09703 297
138.09752 204
138.11394 187
141.06613 344
141.07378 354
142.06471 852
142.08153 764
142.10316 89
143.09383 91
145.06726 364
145.07463 388
146.06175 127
146.07117 144
146.07918 188
147.08029 319
147.09509 289
147.10866 208
148.09149 86
149.04868 129
149.06764 138
154.07297 89
157.08751 441
157.09955 283
159.07347 199
159.08476 173
159.09148 177
159.11157 73
159.12175 124
160.08746 179
160.09947 312
160.11456 147
161.07076 74
161.09142 424
161.09976 423
163.06935 98
163.0831 95
164.08386 7250
165.09172 2226
171.07321 101
171.08418 105
172.07703 462
172.09154 450
174.06473 141
174.07487 165
175.07845 745
175.1142 387
176.07886 579
176.08603 578
177.08003 77
177.09187 91
177.13739 494
178.12448 82
178.13593 79
185.09918 156
185.10808 184
187.11328 405
188.07669 298
188.08914 254
188.11978 204
189.09415 2181
189.11429 341
189.13237 90
190.10013 718
203.1073 947
203.11655 931
204.11279 187
204.12822 203
205.12343 5059
215.10297 76
215.11589 83
217.08566 428
218.08742 104
231.10658 95
232.10982 319
249.12363 78
250.11351 453
250.12215 434
251.10835 121
251.12914 225
273.12341 77
306.05222 125
307.04199 128
307.0553 97
307.07126 125
359.1347 244
367.11554 251
367.1333 105
391.09933 94
398.16498 164
405.12311 89
523.22327 154
Name: Trolox
PrecursorMZ: 539.198
PrecursorType: [2M+K]+
IonMode: Positive
Formula: C14H18O4
SMILES: CC1=C(C2=C(CCC(O2)(C)C(=O)O)C(=C1O)C)C
InChI: 
InChIKey: GLEVLJDDWXEYCO-UHFFFAOYSA-N
RetentionTime: 6.41925
CCS: 
CollisionEnergy: 20-40 eV
InstrumentType: UPLC-QTOF-MS
Comment: PI: Cristina Nerin; Data collector: QiZhi Su, GUIA, University of Zaragoza, Spain; Collision energy: 20-40 V; Instrument: Waters HPLC-QTOF-MS (Xevo G2 QTof); Ionization: ESI; Deconvoluted by MS-DIAL; Column: Waters AtlantisTM premier BEH C18 AX column (2.1 × 100mm x 1.7μm); Flow rate: 0.3mL/min; Mobile phase A and B are water and methnaol, respectively, both with 0.1% formic acid; Gradient elution: from A/B (95/5) to A/B (100/0) in 7min, kept for 4 min, then back to A/B (95/5) in 0.1 min, and maintained for additional 1.9 min (13min in total).; Injection volume: 10 μL
Num peaks: 75
69.03208 135
69.03709 173
69.05231 117
83.04445 154
83.05006 154
92.0573 141
92.06189 141
92.06915 135
93.00336 54
111.04801 129
116.05479 77
116.06604 76
117.07065 204
117.07868 204
119.03886 70
119.04723 67
119.05328 59
124.9706 146
124.99716 69
128.0481 67
132.98335 53
141.05872 245
141.0732 277
141.07962 268
142.08058 186
145.06512 214
145.07358 213
147.06453 204
147.09674 210
151.06825 76
152.05981 53
152.0677 54
152.07433 64
158.10779 80
159.08156 66
160.07872 247
160.09123 241
167.0806 57
167.09633 73
175.11113 425
175.1235 440
176.98666 226
176.998 221
189.13405 59
217.06168 56
221.00612 60
221.0141 69
271.05463 55
271.07327 67
289.07709 5096
290.06396 487
290.08307 332
291.0668 54
291.08667 63
305.05093 60
306.04276 181
306.05627 230
307.05508 163
308.04709 56
359.116 201
359.13599 259
359.15085 200
375.11307 1954
381.1615 91
382.17285 89
391.07529 64
391.09698 272
392.07272 68
393.08957 51
398.12311 100
443.18384 64
453.15723 330
469.1217 119
469.13721 144
539.19617 1393
Name: Dimetyl sebacate
PrecursorMZ: 231.1607
PrecursorType: [M+H]+
IonMode: Positive
Formula: C12H22O4
SMILES: COC(=O)CCCCCCCCC(=O)OC
InChI: 
InChIKey: ALOUNLDAKADEEB-UHFFFAOYSA-N
RetentionTime: 6.720483
CCS: 
CollisionEnergy: 20-40 eV
InstrumentType: UPLC-QTOF-MS
Comment: PI: Cristina Nerin; Data collector: QiZhi Su, GUIA, University of Zaragoza, Spain; Collision energy: 20-40 V; Instrument: Waters HPLC-QTOF-MS (Xevo G2 QTof); Ionization: ESI; Deconvoluted by MS-DIAL; Column: Waters AtlantisTM premier BEH C18 AX column (2.1 × 100mm x 1.7μm); Flow rate: 0.3mL/min; Mobile phase A and B are water and methnaol, respectively, both with 0.1% formic acid; Gradient elution: from A/B (95/5) to A/B (100/0) in 7min, kept for 4 min, then back to A/B (95/5) in 0.1 min, and maintained for additional 1.9 min (13min in total).; Injection volume: 10 μL
Num peaks: 54
55.0552 2201
67.05468 4497
69.06974 20503
70.06072 998
70.07401 998
70.0836 994
71.04114 329
71.05075 323
71.06186 340
73.06537 837
77.03909 2993
78.04363 268
79.0358 15874
79.05453 15777
80.04392 860
80.06012 872
81.0703 7373
83.04983 2024
91.05474 6740
92.05916 386
93.06979 20795
94.06512 1050
94.07323 1039
94.0806 1039
95.07181 6686
95.08614 6520
96.08597 476
96.09068 468
97.06578 3878
97.10216 1898
98.06373 246
98.07235 246
103.05381 249
103.06034 209
105.05647 1453
105.06693 1593
105.07298 1558
105.07746 1541
106.07653 212
107.07327 306
107.08597 540
111.11244 725
111.11948 746
115.05774 253
116.04664 229
119.08759 307
121.101 7898
122.10654 575
131.08566 643
140.10959 217
140.11562 220
140.12711 215
149.09767 674
209.13554 446
Name: Dimetyl sebacate
PrecursorMZ: 253.1425
PrecursorType: [M+Na]+
IonMode: Positive
Formula: C12H22O4
SMILES: COC(=O)CCCCCCCCC(=O)OC
InChI: 
InChIKey: ALOUNLDAKADEEB-UHFFFAOYSA-N
RetentionTime: 6.720483
CCS: 
CollisionEnergy: 20-40 eV
InstrumentType: UPLC-QTOF-MS
Comment: PI: Cristina Nerin; Data collector: QiZhi Su, GUIA, University of Zaragoza, Spain; Collision energy: 20-40 V; Instrument: Waters HPLC-QTOF-MS (Xevo G2 QTof); Ionization: ESI; Deconvoluted by MS-DIAL; Column: Waters AtlantisTM premier BEH C18 AX column (2.1 × 100mm x 1.7μm); Flow rate: 0.3mL/min; Mobile phase A and B are water and methnaol, respectively, both with 0.1% formic acid; Gradient elution: from A/B (95/5) to A/B (100/0) in 7min, kept for 4 min, then back to A/B (95/5) in 0.1 min, and maintained for additional 1.9 min (13min in total).; Injection volume: 10 μL
Num peaks: 49
55.01155 224
55.01671 224
55.0552 1589
67.05468 6393
69.06974 20353
70.06072 998
70.07401 998
70.0836 994
71.04114 329
71.05075 323
71.06186 340
73.06537 837
77.03909 2993
78.04363 268
79.0358 15874
79.05453 15777
80.04392 860
80.06012 354
81.0703 5641
83.04983 1580
91.05474 6740
93.06979 20795
94.06512 1050
94.07323 1039
94.0806 1039
95.07181 5146
95.08614 5143
96.08597 476
96.09068 468
97.06578 4160
97.10216 1968
98.06373 246
98.07235 246
103.05381 248
105.05647 1453
105.06693 1593
105.07298 1558
105.07746 1541
106.07653 212
107.07327 268
107.08597 255
111.11244 818
111.11948 818
119.08759 269
121.101 8676
131.08566 762
149.09767 674
209.12502 385
209.13554 446
Name: 5-Methylfurfural
PrecursorMZ: 111.0447
PrecursorType: [M+H]+
IonMode: Positive
Formula: C6H6O2
SMILES: CC1=CC=C(O1)C=O
InChI: 
InChIKey: OUDFNZMQXZILJD-UHFFFAOYSA-N
RetentionTime: 3.599633
CCS: 
CollisionEnergy: 20-40 eV
InstrumentType: UPLC-QTOF-MS
Comment: PI: Cristina Nerin; Data collector: QiZhi Su, GUIA, University of Zaragoza, Spain; Collision energy: 20-40 V; Instrument: Waters HPLC-QTOF-MS (Xevo G2 QTof); Ionization: ESI; Deconvoluted by MS-DIAL; Column: Waters AtlantisTM premier BEH C18 AX column (2.1 × 100mm x 1.7μm); Flow rate: 0.3mL/min; Mobile phase A and B are water and methnaol, respectively, both with 0.1% formic acid; Gradient elution: from A/B (95/5) to A/B (100/0) in 7min, kept for 4 min, then back to A/B (95/5) in 0.1 min, and maintained for additional 1.9 min (13min in total).; Injection volume: 10 μL
Num peaks: 21
61.02898 71
73.06599 21
81.07479 40
84.95251 20
84.97316 39
91.05428 51
91.06486 79
92.06525 25
93.05295 22
93.07195 33
95.04685 22
95.0873 35
97.25615 20
97.93518 29
98.06921 30
100.35283 28
102.08878 26
106.0368 23
109.02476 35
109.03001 20
110.94377 21
Name: butyl 4-hydroxybenzoate
PrecursorMZ: 195.1026
PrecursorType: [M+H]+
IonMode: Positive
Formula: C11H14O3
SMILES: CCCCOC(=O)C1=CC=C(C=C1)O
InChI: 
InChIKey: QFOHBWFCKVYLES-UHFFFAOYSA-N
RetentionTime: 7.8485
CCS: 
CollisionEnergy: 20-40 eV
InstrumentType: UPLC-QTOF-MS
Comment: PI: Cristina Nerin; Data collector: QiZhi Su, GUIA, University of Zaragoza, Spain; Collision energy: 20-40 V; Instrument: Waters HPLC-QTOF-MS (Xevo G2 QTof); Ionization: ESI; Deconvoluted by MS-DIAL; Column: Waters AtlantisTM premier BEH C18 AX column (2.1 × 100mm x 1.7μm); Flow rate: 0.3mL/min; Mobile phase A and B are water and methnaol, respectively, both with 0.1% formic acid; Gradient elution: from A/B (95/5) to A/B (100/0) in 7min, kept for 4 min, then back to A/B (95/5) in 0.1 min, and maintained for additional 1.9 min (13min in total).; Injection volume: 10 μL
Num peaks: 602
50.61333 21
50.84966 49
51.32236 35
51.3748 20
52.01755 21
52.30905 24
52.6757 21
52.76921 22
53.03916 46
54.12924 20
54.37181 24
54.39745 30
54.52228 25
54.634 38
54.98869 27
55.01605 24
55.06298 33
55.20306 20
55.27168 20
56.42605 23
56.57072 51
57.06898 78
58.0662 21
58.21462 25
58.22542 26
58.25538 26
58.34483 30
58.42798 25
58.86876 21
58.95344 49
59.03465 37
59.05015 89
59.21922 68
59.41182 29
59.61896 24
59.73662 22
60.07841 46
60.56099 25
60.94086 35
61.15835 20
61.26632 20
61.36285 22
63.56475 129
63.92784 20
64.16915 35
64.22822 20
64.44807 20
65.94122 23
66.27764 20
67.04615 24
67.05554 514
67.13917 26
67.54206 45
67.71829 22
68.04962 21
68.0597 67
69.0289 21
69.04715 38
69.0704 587
69.07871 40
69.21769 25
69.86105 33
69.9718 26
70.07275 26
70.34079 26
70.98575 23
71.04943 139
71.05489 50
71.08011 43
71.08772 164
72.09432 20
72.49894 20
72.57369 21
72.59895 31
72.65295 28
73.02921 51
73.03434 70
73.0473 26
73.06541 56
73.0704 36
73.275 25
74.05474 40
74.52148 22
75.00221 27
75.04389 28
75.0524 21
75.31499 23
77.04377 376
78.13995 31
78.26083 21
78.45425 26
79.05705 180
79.52917 20
79.89158 22
81.03481 32
81.04778 25
81.06533 91
81.07223 602
81.19553 22
81.55375 23
82.07142 44
83.04436 27
83.0517 109
83.08012 39
83.08826 393
84.3341 21
84.76111 23
84.95461 20
84.96131 92
85.02822 96
85.06792 60
85.07345 18
85.10558 160
85.59774 34
86.0603 33
86.07233 26
86.10786 25
86.4052 22
86.92487 21
86.95441 47
87.02802 22
87.04498 28
87.05145 56
87.07914 20
87.10213 20
87.83896 57
87.85603 26
87.90795 20
88.1507 21
88.44472 25
88.70986 20
89.05966 550
89.06622 315
89.9912 23
90.05515 19
90.06191 92
90.39678 20
91.05621 445
91.40382 55
91.96028 27
92.05609 29
92.92418 34
93.00972 67
93.03095 77
93.03896 27
93.0659 158
93.07292 474
93.09037 24
94.04281 22
94.08443 40
94.38 20
95.04201 66
95.04771 186
95.05689 32
95.086 584
95.09602 34
96.05039 21
96.09097 50
96.88641 20
96.98885 25
97.04813 28
97.0558 23
97.06374 90
97.06898 50
97.10497 258
97.97616 22
97.99004 57
97.99806 26
98.02259 23
98.06729 21
98.96899 24
98.98547 38
99.04299 80
99.04726 26
99.08971 35
99.12379 21
99.93471 20
100.08044 20
100.11101 38
100.23824 21
100.36351 20
100.93771 48
100.9439 18
100.96246 21
100.99202 84
101.00439 30
101.04308 28
101.06141 21
101.09773 30
101.577 37
101.64122 21
102.035 33
102.05977 20
103.54272 20
104.04854 28
104.10792 20
104.14787 24
105.02858 73
105.03327 59
105.04004 19
105.06047 31
105.06922 207
105.79034 20
106.03531 20
106.06842 47
106.0799 108
107.01019 33
107.03017 22
107.05125 71
107.07351 76
107.08878 284
107.29111 25
107.72079 27
108.03835 21
108.05556 20
108.07919 30
108.08745 50
109.02561 22
109.03902 38
109.06596 121
109.07267 26
109.09704 47
109.10413 197
110.05855 23
111.00496 29
111.01508 26
111.036 53
111.04745 49
111.07841 21
111.08195 51
111.11751 20
112.0644 25
112.10133 20
112.17788 21
112.3901 23
112.99493 75
113.02977 33
113.09674 59
113.12425 21
113.1314 32
113.52638 26
114.03455 80
114.16285 54
114.95694 26
115.00837 24
115.02158 41
115.04417 24
115.05709 46
115.06232 27
115.07213 21
115.07957 88
115.09795 29
116.05553 28
116.87717 23
117.04993 30
117.06757 72
117.09617 40
117.98602 20
118.01844 26
118.09724 25
118.65529 24
118.92637 21
119.0197 21
119.06452 22
119.08365 150
119.73463 38
120.09413 33
121.02934 248
121.03707 151
121.04694 21
121.06052 25
121.06676 43
121.09461 133
121.10242 211
121.10783 217
121.11609 32
121.67863 22
121.76941 21
121.988 27
122.03492 27
122.06433 20
122.08179 25
122.1076 28
122.29137 20
122.92027 20
122.99474 44
123.00894 20
123.06291 37
123.07679 40
123.12093 171
123.12892 36
123.9693 32
124.01845 23
124.04588 29
124.1144 23
125.03516 50
125.06754 25
125.07955 21
125.09689 84
125.12247 20
125.98902 21
126.03035 22
127.07377 43
127.09412 21
127.11031 26
127.56586 23
128.98407 33
129.05339 51
129.06891 101
131.01601 63
131.07344 70
131.08575 101
131.97276 30
132.08408 25
132.16771 32
132.34561 33
132.63611 34
132.98982 35
132.99487 21
133.08649 1206
133.10634 141
133.11792 41
133.97858 45
134.06689 57
134.10138 71
134.10757 24
134.98883 24
135.01822 49
135.03267 20
135.06143 24
135.0744 44
135.08502 80
135.11549 20
135.12369 36
135.6579 40
136.448 31
137.06509 34
137.09042 21
137.09874 44
137.10728 33
137.54521 22
138.37469 24
138.95584 21
138.98216 20
138.99261 27
139.03836 110
139.07402 26
139.10579 21
139.14624 23
139.81984 23
140.0118 22
140.03484 25
140.07867 24
140.14 33
140.96744 24
140.97409 53
141.07083 54
141.09145 20
141.97746 34
142.02641 32
142.0705 25
142.07974 30
142.97862 20
143.08719 55
143.09296 42
143.10875 21
144.06265 35
144.07567 25
144.09886 27
145.02417 35
145.06494 37
145.07767 33
145.09575 74
145.10416 172
145.11137 88
145.97168 20
146.02153 35
146.05617 25
146.07367 24
146.09601 20
146.59064 25
147.00215 28
147.04033 29
147.062 21
147.06908 68
147.1158 93
147.6705 20
148.02304 23
148.08357 31
148.42387 27
148.94864 31
149.01909 54
149.02798 21
149.07091 20
149.09061 72
149.10574 95
149.12534 33
149.13364 104
149.37836 24
149.43958 36
149.4996 48
149.55995 23
149.95284 33
150.02551 24
150.06085 47
150.07216 33
150.09843 24
150.13741 42
151.01067 20
151.02409 21
151.05664 41
151.07297 50
151.10172 20
152.03107 20
152.05124 23
152.98842 21
152.99684 56
153.01027 20
153.02388 103
153.03407 24
153.05647 55
153.06868 33
153.13168 85
154.02042 22
154.07414 22
154.13579 48
155.00368 21
155.03957 75
155.0853 25
155.11443 20
155.17967 29
156.00626 25
156.01465 29
157.05919 28
157.08185 42
157.09908 27
157.1125 26
157.16121 25
158.02383 20
159.11722 22
159.60956 56
160.04756 94
160.08141 18
160.08705 49
160.11978 45
161.05882 22
161.08485 25
161.10229 41
161.13106 83
161.14088 86
162.06761 23
162.10147 21
162.13307 20
162.71782 24
163.05359 125
163.07932 50
163.10011 24
163.13802 56
163.14919 43
163.59366 104
164.14772 20
164.58994 22
164.87422 23
164.88303 25
165.01712 20
165.04875 55
165.06509 66
165.07971 23
165.09406 29
165.51984 20
165.93832 41
166.00429 28
166.0927 82
166.44182 23
167.03896 43
167.04868 25
167.1071 20
167.14133 20
167.30099 36
168.08943 22
168.14447 56
169.10948 21
169.19228 36
169.20183 76
170.01752 26
170.06267 26
170.88274 20
170.92822 20
170.98978 23
171.00072 23
171.01129 21
171.03534 71
171.10782 67
171.63817 32
172.06454 33
172.12906 21
172.23358 39
173.00902 68
173.09772 36
173.12323 27
173.13594 81
174.07333 26
174.20818 24
174.57051 25
174.6136 20
174.99667 22
175.05722 65
175.08286 44
175.09172 59
175.11568 20
175.12639 20
175.13869 24
175.81966 20
176.01997 21
176.04608 19
176.05391 43
176.08607 22
176.09967 27
176.99109 20
177.00447 28
177.03201 27
177.04012 20
177.06723 72
177.08083 136
177.09444 139
177.11655 174
177.134 74
177.16345 27
177.17093 22
178.06898 24
178.08047 37
178.10889 37
178.12045 73
178.89529 23
179.06334 27
179.07616 25
179.0992 78
179.11287 101
180.03905 21
180.07887 77
180.08946 33
180.60823 26
180.86505 24
180.99744 22
181.06923 67
181.08305 96
181.09425 27
181.12512 21
181.14386 25
181.16119 40
181.19612 22
181.35217 32
182.06773 33
182.10864 21
183.03448 20
183.06752 33
183.07576 34
183.08585 39
183.16942 21
184.02919 34
184.11792 21
184.22527 24
185.00624 21
185.02242 53
185.13507 26
185.99335 20
186.10832 23
186.77489 23
187.05075 26
187.10565 25
188.06313 22
188.10654 64
188.61436 21
189.03114 33
189.04375 20
189.05571 85
189.13203 44
190.03456 20
190.08734 42
190.11095 22
190.16757 28
191.00002 20
191.05048 21
191.09981 34
191.1505 30
191.17982 30
191.59807 27
193.01471 23
193.08907 55
193.10358 20
193.11334 49
193.12357 51
193.19504 38
194.04176 33
194.1689 23
194.57457 20
195.06145 25
195.1015 121
195.11716 29
195.12425 21
195.14636 27
195.1711 20
Name: "Bisphenol A (2,3-dihydroxypropyl) glycidyl ether (BADGE-glycidyl)"
PrecursorMZ: 397.1361
PrecursorType: [M+K]+
IonMode: Positive
Formula: C21H26O5
SMILES: CC(C)(C1=CC=C(C=C1)OCC2CO2)C3=CC=C(C=C3)OCC(CO)O
InChI: 
InChIKey: NBLIPZBCGXIEFO-UHFFFAOYSA-N
RetentionTime: 6.26315
CCS: 
CollisionEnergy: 20-40 eV
InstrumentType: UPLC-QTOF-MS
Comment: PI: Cristina Nerin; Data collector: QiZhi Su, GUIA, University of Zaragoza, Spain; Collision energy: 20-40 V; Instrument: Waters HPLC-QTOF-MS (Xevo G2 QTof); Ionization: ESI; Deconvoluted by MS-DIAL; Column: Waters AtlantisTM premier BEH C18 AX column (2.1 × 100mm x 1.7μm); Flow rate: 0.3mL/min; Mobile phase A and B are water and methnaol, respectively, both with 0.1% formic acid; Gradient elution: from A/B (95/5) to A/B (100/0) in 7min, kept for 4 min, then back to A/B (95/5) in 0.1 min, and maintained for additional 1.9 min (13min in total).; Injection volume: 10 μL
Num peaks: 126
57.02958 70
77.03829 361
77.04385 361
78.03604 58
78.04256 58
79.0534 199
79.05803 199
79.06508 203
81.06169 41
81.07092 38
81.0784 38
91.05521 998
92.05458 78
92.06096 78
94.02586 37
95.08972 46
103.0528 86
103.06081 74
104.06637 50
105.06323 752
105.07089 755
105.07741 756
106.06666 60
106.07817 60
107.0866 91
107.09229 100
115.05614 225
116.0519 71
116.06207 68
117.07026 53
118.06624 106
118.07639 93
119.04228 63
119.05073 75
119.05563 64
121.10238 43
128.04652 142
128.05975 166
128.06688 164
129.07332 111
130.07629 192
131.03613 55
131.0508 91
131.07675 148
131.08556 123
133.06071 101
133.06914 111
136.08513 1716
137.09358 106
143.08203 44
143.08932 44
144.05949 75
146.06181 89
146.07146 90
147.08179 175
148.0804 102
148.09711 112
149.04907 80
149.0723 93
153.06161 81
153.07204 60
157.06256 129
159.07623 104
159.08803 99
160.04524 43
160.06334 58
160.08325 70
161.08171 127
161.09756 55
161.10808 49
161.12358 103
162.10258 71
162.10938 71
167.07393 35
173.09738 697
174.08676 270
174.101 60
175.06291 68
175.0733 87
175.10556 160
175.1144 168
175.55409 40
175.56419 40
176.07227 42
181.05463 91
181.06273 93
184.05865 182
184.06801 178
187.11388 35
189.09082 106
189.10515 92
191.10799 464
192.11584 36
193.11456 39
193.12906 48
203.09183 57
207.11867 46
209.11812 353
211.13396 37
218.0712 35
247.13919 66
248.13661 40
251.1167 38
265.12439 86
265.1394 63
265.1485 44
279.13861 36
293.08298 36
323.08936 171
323.10333 170
335.08447 38
341.16077 73
341.19098 55
343.14044 84
350.11246 37
358.18384 52
359.16867 516
359.18295 93
370.16058 102
377.24136 49
386.14694 36
395.08844 42
395.10541 35
397.13205 3466
397.15451 664
397.47241 54
Name: "Bisphenol A (2,3-dihydroxypropyl) glycidyl ether (BADGE-glycidyl)"
PrecursorMZ: 381.1674
PrecursorType: [M+Na]+
IonMode: Positive
Formula: C21H26O5
SMILES: CC(C)(C1=CC=C(C=C1)OCC2CO2)C3=CC=C(C=C3)OCC(CO)O
InChI: 
InChIKey: NBLIPZBCGXIEFO-UHFFFAOYSA-N
RetentionTime: 6.270767
CCS: 
CollisionEnergy: 20-40 eV
InstrumentType: UPLC-QTOF-MS
Comment: PI: Cristina Nerin; Data collector: QiZhi Su, GUIA, University of Zaragoza, Spain; Collision energy: 20-40 V; Instrument: Waters HPLC-QTOF-MS (Xevo G2 QTof); Ionization: ESI; Deconvoluted by MS-DIAL; Column: Waters AtlantisTM premier BEH C18 AX column (2.1 × 100mm x 1.7μm); Flow rate: 0.3mL/min; Mobile phase A and B are water and methnaol, respectively, both with 0.1% formic acid; Gradient elution: from A/B (95/5) to A/B (100/0) in 7min, kept for 4 min, then back to A/B (95/5) in 0.1 min, and maintained for additional 1.9 min (13min in total).; Injection volume: 10 μL
Num peaks: 36
77.0397 1677
79.05612 442
91.0563 2417
95.05023 3370
105.0691 608
105.07558 801
107.04948 33439
108.05276 1264
115.0549 1666
117.07085 1606
133.06416 1309
135.08067 44065
136.08481 2766
145.06624 2054
147.07767 767
147.08521 905
161.09604 1641
173.09727 9902
174.10066 829
184.06587 507
190.06743 664
191.10744 10065
192.1132 809
199.07242 1159
209.11784 30849
210.12233 2360
265.14584 562
323.09406 445
323.10681 595
341.17783 477
359.18378 574
376.21323 714
378.15118 1043
378.16464 1901
378.65991 1214
381.16962 4200
Name: "Bisphenol A (2,3-dihydroxypropyl) glycidyl ether (BADGE-glycidyl)"
PrecursorMZ: 376.2129
PrecursorType: [M+NH4]+
IonMode: Positive
Formula: C21H26O5
SMILES: CC(C)(C1=CC=C(C=C1)OCC2CO2)C3=CC=C(C=C3)OCC(CO)O
InChI: 
InChIKey: NBLIPZBCGXIEFO-UHFFFAOYSA-N
RetentionTime: 6.2822
CCS: 
CollisionEnergy: 20-40 eV
InstrumentType: UPLC-QTOF-MS
Comment: PI: Cristina Nerin; Data collector: QiZhi Su, GUIA, University of Zaragoza, Spain; Collision energy: 20-40 V; Instrument: Waters HPLC-QTOF-MS (Xevo G2 QTof); Ionization: ESI; Deconvoluted by MS-DIAL; Column: Waters AtlantisTM premier BEH C18 AX column (2.1 × 100mm x 1.7μm); Flow rate: 0.3mL/min; Mobile phase A and B are water and methnaol, respectively, both with 0.1% formic acid; Gradient elution: from A/B (95/5) to A/B (100/0) in 7min, kept for 4 min, then back to A/B (95/5) in 0.1 min, and maintained for additional 1.9 min (13min in total).; Injection volume: 10 μL
Num peaks: 27
77.04063 1550
79.05667 1487
91.05489 2874
91.06063 787
95.04573 1086
95.05067 3309
105.07103 944
107.04937 45511
108.05303 1721
115.05499 2174
117.07062 2282
133.06577 2424
135.08067 65350
136.08469 3381
145.06616 2765
147.08308 3042
161.09604 1525
161.10501 839
173.09692 18269
174.10147 1309
191.10753 20680
192.11093 1853
199.07005 1779
209.11815 64071
210.12247 4731
341.17795 1321
359.1954 1106
Name: "Bisphenol A (2,3-dihydroxypropyl) glycidyl ether (BADGE-glycidyl)"
PrecursorMZ: 359.1855
PrecursorType: [M+H]+
IonMode: Positive
Formula: C21H26O5
SMILES: CC(C)(C1=CC=C(C=C1)OCC2CO2)C3=CC=C(C=C3)OCC(CO)O
InChI: 
InChIKey: NBLIPZBCGXIEFO-UHFFFAOYSA-N
RetentionTime: 6.305033
CCS: 
CollisionEnergy: 20-40 eV
InstrumentType: UPLC-QTOF-MS
Comment: PI: Cristina Nerin; Data collector: QiZhi Su, GUIA, University of Zaragoza, Spain; Collision energy: 20-40 V; Instrument: Waters HPLC-QTOF-MS (Xevo G2 QTof); Ionization: ESI; Deconvoluted by MS-DIAL; Column: Waters AtlantisTM premier BEH C18 AX column (2.1 × 100mm x 1.7μm); Flow rate: 0.3mL/min; Mobile phase A and B are water and methnaol, respectively, both with 0.1% formic acid; Gradient elution: from A/B (95/5) to A/B (100/0) in 7min, kept for 4 min, then back to A/B (95/5) in 0.1 min, and maintained for additional 1.9 min (13min in total).; Injection volume: 10 μL
Num peaks: 19
79.05564 1229
79.06818 1236
107.04926 1594
133.06569 2860
133.07263 2818
135.06146 27535
135.08083 27051
136.08488 2401
173.09706 28726
174.10077 2233
191.10733 38698
192.11111 3022
209.11772 101068
210.12151 9158
247.13722 1026
265.1275 1419
265.14404 1595
341.17838 2663
359.18716 2282
Name: "Bisphenol A (2,3-dihydroxypropyl) glycidyl ether (BADGE-glycidyl)"
PrecursorMZ: 717.3624
PrecursorType: [2M+H]+
IonMode: Positive
Formula: C21H26O5
SMILES: CC(C)(C1=CC=C(C=C1)OCC2CO2)C3=CC=C(C=C3)OCC(CO)O
InChI: 
InChIKey: NBLIPZBCGXIEFO-UHFFFAOYSA-N
RetentionTime: 6.308833
CCS: 
CollisionEnergy: 20-40 eV
InstrumentType: UPLC-QTOF-MS
Comment: PI: Cristina Nerin; Data collector: QiZhi Su, GUIA, University of Zaragoza, Spain; Collision energy: 20-40 V; Instrument: Waters HPLC-QTOF-MS (Xevo G2 QTof); Ionization: ESI; Deconvoluted by MS-DIAL; Column: Waters AtlantisTM premier BEH C18 AX column (2.1 × 100mm x 1.7μm); Flow rate: 0.3mL/min; Mobile phase A and B are water and methnaol, respectively, both with 0.1% formic acid; Gradient elution: from A/B (95/5) to A/B (100/0) in 7min, kept for 4 min, then back to A/B (95/5) in 0.1 min, and maintained for additional 1.9 min (13min in total).; Injection volume: 10 μL
Num peaks: 21
107.04903 8028
133.06529 2309
133.07741 2351
135.08069 32220
161.09593 1218
173.09666 27077
174.09984 2140
191.10712 38568
192.11073 3004
209.11787 101160
210.12218 9140
265.14767 1538
341.17764 2663
359.18646 2540
399.21854 2752
549.27972 3024
549.30457 1423
567.29736 4245
568.30206 1165
717.36182 27112
717.86194 2613
Name: "Bisphenol A (2,3-dihydroxypropyl) glycidyl ether (BADGE-glycidyl)"
PrecursorMZ: 376.2129
PrecursorType: [M+NH4]+
IonMode: Positive
Formula: C21H26O5
SMILES: CC(C)(C1=CC=C(C=C1)OCC2CO2)C3=CC=C(C=C3)OCC(CO)O
InChI: 
InChIKey: NBLIPZBCGXIEFO-UHFFFAOYSA-N
RetentionTime: 6.327883
CCS: 
CollisionEnergy: 20-40 eV
InstrumentType: UPLC-QTOF-MS
Comment: PI: Cristina Nerin; Data collector: QiZhi Su, GUIA, University of Zaragoza, Spain; Collision energy: 20-40 V; Instrument: Waters HPLC-QTOF-MS (Xevo G2 QTof); Ionization: ESI; Deconvoluted by MS-DIAL; Column: Waters AtlantisTM premier BEH C18 AX column (2.1 × 100mm x 1.7μm); Flow rate: 0.3mL/min; Mobile phase A and B are water and methnaol, respectively, both with 0.1% formic acid; Gradient elution: from A/B (95/5) to A/B (100/0) in 7min, kept for 4 min, then back to A/B (95/5) in 0.1 min, and maintained for additional 1.9 min (13min in total).; Injection volume: 10 μL
Num peaks: 26
77.03885 1754
79.05497 1352
91.05527 2899
95.05 3773
105.07201 1658
107.04932 44647
108.05372 1805
115.05591 1795
117.07128 2462
133.06712 2836
135.08076 64642
136.08528 3913
145.06535 2860
147.08162 2860
161.09904 2202
173.09698 16610
174.10379 744
191.10707 22303
192.11328 1381
199.07341 1685
209.11789 61599
210.12256 5336
341.16995 789
341.18567 885
359.19031 1307
376.20947 829
Name: "Bisphenol A (2,3-dihydroxypropyl) glycidyl ether (BADGE-glycidyl)"
PrecursorMZ: 381.1676
PrecursorType: [M+Na]+
IonMode: Positive
Formula: C21H26O5
SMILES: CC(C)(C1=CC=C(C=C1)OCC2CO2)C3=CC=C(C=C3)OCC(CO)O
InChI: 
InChIKey: NBLIPZBCGXIEFO-UHFFFAOYSA-N
RetentionTime: 6.3431
CCS: 
CollisionEnergy: 20-40 eV
InstrumentType: UPLC-QTOF-MS
Comment: PI: Cristina Nerin; Data collector: QiZhi Su, GUIA, University of Zaragoza, Spain; Collision energy: 20-40 V; Instrument: Waters HPLC-QTOF-MS (Xevo G2 QTof); Ionization: ESI; Deconvoluted by MS-DIAL; Column: Waters AtlantisTM premier BEH C18 AX column (2.1 × 100mm x 1.7μm); Flow rate: 0.3mL/min; Mobile phase A and B are water and methnaol, respectively, both with 0.1% formic acid; Gradient elution: from A/B (95/5) to A/B (100/0) in 7min, kept for 4 min, then back to A/B (95/5) in 0.1 min, and maintained for additional 1.9 min (13min in total).; Injection volume: 10 μL
Num peaks: 104
65.03468 64
65.04259 69
77.03983 298
79.04498 241
79.05757 246
91.05447 282
95.04802 344
95.05444 345
95.07471 56
98.98166 180
98.99461 181
105.05563 135
105.06606 136
105.07279 133
107.04912 4213
107.07691 72
107.08746 74
108.05334 240
109.05988 54
109.09959 66
112.99164 127
113.00656 111
115.05576 198
117.06884 272
117.0795 260
121.02534 137
121.05782 137
121.06737 109
122.069 74
122.07579 74
122.0826 69
127.04784 86
127.05539 83
129.0701 74
132.05769 58
132.06915 56
132.99443 69
133.00107 70
133.06505 75
135.08052 5194
136.0847 300
145.06551 193
145.08707 121
145.09969 113
147.08055 116
147.09268 122
149.08359 85
149.09554 71
149.10326 76
158.06778 52
158.07774 67
161.09816 391
162.0434 100
162.0549 106
175.05858 206
175.08406 119
176.99104 141
181.05255 79
181.06296 86
184.0571 424
184.06799 420
184.56844 55
189.02406 185
190.06389 254
190.08223 263
190.56659 77
190.57652 81
199.06793 810
199.07767 838
199.5658 269
199.57637 271
210.12314 57
225.13312 66
225.14938 114
225.16101 97
236.08427 66
267.07275 59
279.06992 52
279.07999 68
307.11685 66
311.29068 90
311.3002 94
323.09628 399
335.08444 55
339.06 96
339.07782 102
341.1701 85
341.18329 55
343.13937 75
343.16162 97
363.15073 63
376.19647 182
376.21597 195
377.20496 54
377.21744 56
378.16006 1248
378.66068 467
378.68652 71
379.11575 234
379.12924 246
379.16199 190
379.17883 142
381.16699 5014
381.18109 1721
Name: Trolox
PrecursorMZ: 273.1107
PrecursorType: [M+Na]+
IonMode: Positive
Formula: C14H18O4
SMILES: CC1=C(C2=C(CCC(O2)(C)C(=O)O)C(=C1O)C)C
InChI: 
InChIKey: GLEVLJDDWXEYCO-UHFFFAOYSA-N
RetentionTime: 6.388783
CCS: 
CollisionEnergy: 20-40 eV
InstrumentType: UPLC-QTOF-MS
Comment: PI: Cristina Nerin; Data collector: QiZhi Su, GUIA, University of Zaragoza, Spain; Collision energy: 20-40 V; Instrument: Waters HPLC-QTOF-MS (Xevo G2 QTof); Ionization: ESI; Deconvoluted by MS-DIAL; Column: Waters AtlantisTM premier BEH C18 AX column (2.1 × 100mm x 1.7μm); Flow rate: 0.3mL/min; Mobile phase A and B are water and methnaol, respectively, both with 0.1% formic acid; Gradient elution: from A/B (95/5) to A/B (100/0) in 7min, kept for 4 min, then back to A/B (95/5) in 0.1 min, and maintained for additional 1.9 min (13min in total).; Injection volume: 10 μL
Num peaks: 172
55.04343 106
55.05066 106
55.05604 106
55.05917 106
65.03731 237
65.04224 235
67.05059 973
67.05714 969
69.03316 162
69.04299 162
77.03548 683
77.04032 680
79.05489 843
79.0619 844
81.06117 502
81.06812 513
81.07362 524
83.05285 179
91.05446 1893
92.05178 282
92.05978 282
92.0677 287
93.02501 114
93.06128 682
93.07084 701
94.07069 133
94.078 133
95.03603 300
95.05141 311
95.08844 202
103.04157 194
103.05289 124
103.05706 124
103.06351 118
104.07129 104
105.07063 1544
107.04984 1385
107.06577 1508
107.08228 493
107.08997 495
108.04457 113
108.05961 114
109.05962 142
109.07022 149
109.09595 933
109.10194 930
115.042 470
115.05018 495
115.05711 492
116.05341 108
116.05904 122
116.06615 113
117.07164 671
117.07906 664
119.08337 1904
119.09028 1933
119.09486 1895
120.0873 167
120.09438 164
121.02724 273
121.06544 1023
121.09084 584
121.1008 397
121.11015 419
122.07042 1350
122.07829 1345
123.07581 256
123.08775 270
123.09768 192
124.99217 424
124.99953 380
125.06266 197
128.06409 342
129.06952 1354
130.07666 267
130.08653 257
131.05023 133
131.08669 526
131.09435 526
132.04601 156
132.05609 155
133.08595 262
133.09641 266
133.10693 257
135.08168 2617
135.09558 2664
136.08894 849
137.04741 125
137.05832 127
137.09676 2720
138.09465 182
138.10634 189
142.07709 202
142.08444 215
143.08437 294
143.09569 245
144.07738 213
144.08969 653
144.09624 657
144.10808 715
145.06569 326
145.08879 217
145.0957 196
145.10811 189
146.06627 251
146.07991 235
147.06937 638
147.08238 623
149.05913 179
149.07289 139
149.09789 2925
149.11334 2954
150.09848 230
157.06581 259
157.07614 273
157.10382 187
158.07353 123
158.08331 133
159.07544 191
159.08423 215
159.11554 761
159.12318 733
159.13307 370
160.0856 258
160.09723 260
161.05817 382
161.0663 392
161.08278 920
161.09903 565
162.06741 123
162.0724 125
162.09445 253
162.10088 233
162.10942 233
163.07225 281
163.08223 281
163.11148 243
163.127 219
165.09238 10336
166.09067 582
166.0979 576
166.10892 561
169.10814 144
172.08971 724
173.06473 111
175.07854 3118
175.11487 134
176.06717 430
176.08505 585
176.98956 293
177.08827 298
177.09785 341
177.13 516
177.13965 508
187.11417 786
188.08662 308
189.09322 438
190.10078 3236
199.06929 152
203.10605 116
203.1149 121
205.12379 5066
206.13031 834
225.14923 111
231.09473 137
231.11565 113
249.11362 121
250.12189 282
261.05258 105
263.03625 119
273.09695 194
273.11398 782
Name: Diisooctyl phthalate
PrecursorMZ: 413.2664
PrecursorType: [M+H]+
IonMode: Positive
Formula: C24H38O4
SMILES: CC(C)CCCCCOC(=O)C1=CC=CC=C1C(=O)OCCCCCC(C)C
InChI: 
InChIKey: IJFPVINAQGWBRJ-UHFFFAOYSA-N
RetentionTime: 8.503866
CCS: 
CollisionEnergy: 20-40 eV
InstrumentType: UPLC-QTOF-MS
Comment: PI: Cristina Nerin; Data collector: QiZhi Su, GUIA, University of Zaragoza, Spain; Collision energy: 20-40 V; Instrument: Waters HPLC-QTOF-MS (Xevo G2 QTof); Ionization: ESI; Deconvoluted by MS-DIAL; Column: Waters AtlantisTM premier BEH C18 AX column (2.1 × 100mm x 1.7μm); Flow rate: 0.3mL/min; Mobile phase A and B are water and methnaol, respectively, both with 0.1% formic acid; Gradient elution: from A/B (95/5) to A/B (100/0) in 7min, kept for 4 min, then back to A/B (95/5) in 0.1 min, and maintained for additional 1.9 min (13min in total).; Injection volume: 10 μL
Num peaks: 5
71.07084 17641
71.08575 17634
149.02354 13402
317.10638 3676
413.26523 272658
Name: Diisooctyl phthalate
PrecursorMZ: 391.2848
PrecursorType: [M+H]+
IonMode: Positive
Formula: C24H38O4
SMILES: CC(C)CCCCCOC(=O)C1=CC=CC=C1C(=O)OCCCCCC(C)C
InChI: 
InChIKey: IJFPVINAQGWBRJ-UHFFFAOYSA-N
RetentionTime: 8.526716
CCS: 
CollisionEnergy: 20-40 eV
InstrumentType: UPLC-QTOF-MS
Comment: PI: Cristina Nerin; Data collector: QiZhi Su, GUIA, University of Zaragoza, Spain; Collision energy: 20-40 V; Instrument: Waters HPLC-QTOF-MS (Xevo G2 QTof); Ionization: ESI; Deconvoluted by MS-DIAL; Column: Waters AtlantisTM premier BEH C18 AX column (2.1 × 100mm x 1.7μm); Flow rate: 0.3mL/min; Mobile phase A and B are water and methnaol, respectively, both with 0.1% formic acid; Gradient elution: from A/B (95/5) to A/B (100/0) in 7min, kept for 4 min, then back to A/B (95/5) in 0.1 min, and maintained for additional 1.9 min (13min in total).; Injection volume: 10 μL
Num peaks: 19
57.07049 3588
57.07647 520
65.03936 2257
71.08555 25013
72.09105 763
81.07061 378
93.03522 2213
95.08707 659
109.10321 461
121.02963 1984
149.02362 34783
150.0273 1611
169.09175 456
273.11993 979
301.14349 1821
303.13257 765
317.10675 9647
318.10623 413
318.12128 477
Name: Diisooctyl phthalate
PrecursorMZ: 429.242
PrecursorType: [M+K]+
IonMode: Positive
Formula: C24H38O4
SMILES: CC(C)CCCCCOC(=O)C1=CC=CC=C1C(=O)OCCCCCC(C)C
InChI: 
InChIKey: IJFPVINAQGWBRJ-UHFFFAOYSA-N
RetentionTime: 8.530517
CCS: 
CollisionEnergy: 20-40 eV
InstrumentType: UPLC-QTOF-MS
Comment: PI: Cristina Nerin; Data collector: QiZhi Su, GUIA, University of Zaragoza, Spain; Collision energy: 20-40 V; Instrument: Waters HPLC-QTOF-MS (Xevo G2 QTof); Ionization: ESI; Deconvoluted by MS-DIAL; Column: Waters AtlantisTM premier BEH C18 AX column (2.1 × 100mm x 1.7μm); Flow rate: 0.3mL/min; Mobile phase A and B are water and methnaol, respectively, both with 0.1% formic acid; Gradient elution: from A/B (95/5) to A/B (100/0) in 7min, kept for 4 min, then back to A/B (95/5) in 0.1 min, and maintained for additional 1.9 min (13min in total).; Injection volume: 10 μL
Num peaks: 7
71.08556 16472
71.10155 16475
149.02357 22862
317.10687 7361
413.26581 236785
414.26874 56361
415.27386 4971
Name: Diisooctyl phthalate
PrecursorMZ: 803.5424
PrecursorType: [2M+Na]+
IonMode: Positive
Formula: C24H38O4
SMILES: CC(C)CCCCCOC(=O)C1=CC=CC=C1C(=O)OCCCCCC(C)C
InChI: 
InChIKey: IJFPVINAQGWBRJ-UHFFFAOYSA-N
RetentionTime: 8.530517
CCS: 
CollisionEnergy: 20-40 eV
InstrumentType: UPLC-QTOF-MS
Comment: PI: Cristina Nerin; Data collector: QiZhi Su, GUIA, University of Zaragoza, Spain; Collision energy: 20-40 V; Instrument: Waters HPLC-QTOF-MS (Xevo G2 QTof); Ionization: ESI; Deconvoluted by MS-DIAL; Column: Waters AtlantisTM premier BEH C18 AX column (2.1 × 100mm x 1.7μm); Flow rate: 0.3mL/min; Mobile phase A and B are water and methnaol, respectively, both with 0.1% formic acid; Gradient elution: from A/B (95/5) to A/B (100/0) in 7min, kept for 4 min, then back to A/B (95/5) in 0.1 min, and maintained for additional 1.9 min (13min in total).; Injection volume: 10 μL
Num peaks: 13
65.03797 1824
71.08556 13418
71.10155 13423
93.03291 1771
93.03803 1771
149.02357 23782
317.10687 4549
413.26581 164028
414.26874 38409
415.27386 3450
559.36743 2678
605.39099 1925
707.38428 2939
Name: "Bisphenol A bis (2,3-dihydroxypropyl) ether (BADGE-diol)"
PrecursorMZ: 377.1958
PrecursorType: [M+H]+
IonMode: Positive
Formula: C21H28O6
SMILES: CC(C)(C1=CC=C(C=C1)OCC(CO)O)C2=CC=C(C=C2)OCC(CO)O
InChI: 
InChIKey: NISVZEWKUNUGQQ-UHFFFAOYSA-N
RetentionTime: 5.6195
CCS: 
CollisionEnergy: 20-40 eV
InstrumentType: UPLC-QTOF-MS
Comment: PI: Cristina Nerin; Data collector: QiZhi Su, GUIA, University of Zaragoza, Spain; Collision energy: 20-40 V; Instrument: Waters HPLC-QTOF-MS (Xevo G2 QTof); Ionization: ESI; Deconvoluted by MS-DIAL; Column: Waters AtlantisTM premier BEH C18 AX column (2.1 × 100mm x 1.7μm); Flow rate: 0.3mL/min; Mobile phase A and B are water and methnaol, respectively, both with 0.1% formic acid; Gradient elution: from A/B (95/5) to A/B (100/0) in 7min, kept for 4 min, then back to A/B (95/5) in 0.1 min, and maintained for additional 1.9 min (13min in total).; Injection volume: 10 μL
Num peaks: 8
95.0507 764
107.04939 4198
108.05349 554
135.08087 26685
136.08438 1133
209.11824 39096
210.12201 3731
377.1962 31468
Name: "Bisphenol A bis (2,3-dihydroxypropyl) ether (BADGE-diol)"
PrecursorMZ: 753.3825
PrecursorType: [2M+H]+
IonMode: Positive
Formula: C21H28O6
SMILES: CC(C)(C1=CC=C(C=C1)OCC(CO)O)C2=CC=C(C=C2)OCC(CO)O
InChI: 
InChIKey: NISVZEWKUNUGQQ-UHFFFAOYSA-N
RetentionTime: 5.623317
CCS: 
CollisionEnergy: 20-40 eV
InstrumentType: UPLC-QTOF-MS
Comment: PI: Cristina Nerin; Data collector: QiZhi Su, GUIA, University of Zaragoza, Spain; Collision energy: 20-40 V; Instrument: Waters HPLC-QTOF-MS (Xevo G2 QTof); Ionization: ESI; Deconvoluted by MS-DIAL; Column: Waters AtlantisTM premier BEH C18 AX column (2.1 × 100mm x 1.7μm); Flow rate: 0.3mL/min; Mobile phase A and B are water and methnaol, respectively, both with 0.1% formic acid; Gradient elution: from A/B (95/5) to A/B (100/0) in 7min, kept for 4 min, then back to A/B (95/5) in 0.1 min, and maintained for additional 1.9 min (13min in total).; Injection volume: 10 μL
Num peaks: 17
95.04975 3032
107.04921 40887
108.05333 2332
135.0807 101594
136.08488 6351
208.07941 1403
209.11775 115649
210.12166 11109
377.19556 31609
378.20117 4447
394.22903 1242
396.17096 6725
396.67166 2995
399.18094 4252
584.26477 2235
584.75525 1482
753.38959 5803
Name: "Bisphenol A bis (2,3-dihydroxypropyl) ether (BADGE-diol)"
PrecursorMZ: 394.2238
PrecursorType: [M+NH4]+
IonMode: Positive
Formula: C21H28O6
SMILES: CC(C)(C1=CC=C(C=C1)OCC(CO)O)C2=CC=C(C=C2)OCC(CO)O
InChI: 
InChIKey: NISVZEWKUNUGQQ-UHFFFAOYSA-N
RetentionTime: 5.6766
CCS: 
CollisionEnergy: 20-40 eV
InstrumentType: UPLC-QTOF-MS
Comment: PI: Cristina Nerin; Data collector: QiZhi Su, GUIA, University of Zaragoza, Spain; Collision energy: 20-40 V; Instrument: Waters HPLC-QTOF-MS (Xevo G2 QTof); Ionization: ESI; Deconvoluted by MS-DIAL; Column: Waters AtlantisTM premier BEH C18 AX column (2.1 × 100mm x 1.7μm); Flow rate: 0.3mL/min; Mobile phase A and B are water and methnaol, respectively, both with 0.1% formic acid; Gradient elution: from A/B (95/5) to A/B (100/0) in 7min, kept for 4 min, then back to A/B (95/5) in 0.1 min, and maintained for additional 1.9 min (13min in total).; Injection volume: 10 μL
Num peaks: 8
95.05064 1838
107.04922 21973
135.08061 78776
136.08435 5554
209.11774 151948
210.12206 18606
377.19537 76405
378.19937 13278
Name: "Bisphenol A bis (2,3-dihydroxypropyl) ether (BADGE-diol)"
PrecursorMZ: 377.196
PrecursorType: [M+H]+
IonMode: Positive
Formula: C21H28O6
SMILES: CC(C)(C1=CC=C(C=C1)OCC(CO)O)C2=CC=C(C=C2)OCC(CO)O
InChI: 
InChIKey: NISVZEWKUNUGQQ-UHFFFAOYSA-N
RetentionTime: 5.680417
CCS: 
CollisionEnergy: 20-40 eV
InstrumentType: UPLC-QTOF-MS
Comment: PI: Cristina Nerin; Data collector: QiZhi Su, GUIA, University of Zaragoza, Spain; Collision energy: 20-40 V; Instrument: Waters HPLC-QTOF-MS (Xevo G2 QTof); Ionization: ESI; Deconvoluted by MS-DIAL; Column: Waters AtlantisTM premier BEH C18 AX column (2.1 × 100mm x 1.7μm); Flow rate: 0.3mL/min; Mobile phase A and B are water and methnaol, respectively, both with 0.1% formic acid; Gradient elution: from A/B (95/5) to A/B (100/0) in 7min, kept for 4 min, then back to A/B (95/5) in 0.1 min, and maintained for additional 1.9 min (13min in total).; Injection volume: 10 μL
Num peaks: 9
95.05033 4029
107.04915 53321
108.03809 2305
108.05289 2314
135.08052 145127
136.08408 9658
209.11783 209143
210.12131 22991
377.1954 94216
Name: "Bisphenol A bis (2,3-dihydroxypropyl) ether (BADGE-diol)"
PrecursorMZ: 753.3824
PrecursorType: [2M+H]+
IonMode: Positive
Formula: C21H28O6
SMILES: CC(C)(C1=CC=C(C=C1)OCC(CO)O)C2=CC=C(C=C2)OCC(CO)O
InChI: 
InChIKey: NISVZEWKUNUGQQ-UHFFFAOYSA-N
RetentionTime: 5.680417
CCS: 
CollisionEnergy: 20-40 eV
InstrumentType: UPLC-QTOF-MS
Comment: PI: Cristina Nerin; Data collector: QiZhi Su, GUIA, University of Zaragoza, Spain; Collision energy: 20-40 V; Instrument: Waters HPLC-QTOF-MS (Xevo G2 QTof); Ionization: ESI; Deconvoluted by MS-DIAL; Column: Waters AtlantisTM premier BEH C18 AX column (2.1 × 100mm x 1.7μm); Flow rate: 0.3mL/min; Mobile phase A and B are water and methnaol, respectively, both with 0.1% formic acid; Gradient elution: from A/B (95/5) to A/B (100/0) in 7min, kept for 4 min, then back to A/B (95/5) in 0.1 min, and maintained for additional 1.9 min (13min in total).; Injection volume: 10 μL
Num peaks: 17
95.05033 3769
107.04915 50709
108.03809 2125
108.05289 2164
135.08052 140323
136.08408 9456
209.11783 207698
210.12131 23186
377.1954 88920
378.19989 15118
396.16861 5737
396.66855 2594
396.6825 2458
399.1788 2526
565.28937 2763
753.38055 29325
753.87958 4000
Name: "Bisphenol A bis (2,3-dihydroxypropyl) ether (BADGE-diol)"
PrecursorMZ: 399.1787
PrecursorType: [M+Na]+
IonMode: Positive
Formula: C21H28O6
SMILES: CC(C)(C1=CC=C(C=C1)OCC(CO)O)C2=CC=C(C=C2)OCC(CO)O
InChI: 
InChIKey: NISVZEWKUNUGQQ-UHFFFAOYSA-N
RetentionTime: 5.69945
CCS: 
CollisionEnergy: 20-40 eV
InstrumentType: UPLC-QTOF-MS
Comment: PI: Cristina Nerin; Data collector: QiZhi Su, GUIA, University of Zaragoza, Spain; Collision energy: 20-40 V; Instrument: Waters HPLC-QTOF-MS (Xevo G2 QTof); Ionization: ESI; Deconvoluted by MS-DIAL; Column: Waters AtlantisTM premier BEH C18 AX column (2.1 × 100mm x 1.7μm); Flow rate: 0.3mL/min; Mobile phase A and B are water and methnaol, respectively, both with 0.1% formic acid; Gradient elution: from A/B (95/5) to A/B (100/0) in 7min, kept for 4 min, then back to A/B (95/5) in 0.1 min, and maintained for additional 1.9 min (13min in total).; Injection volume: 10 μL
Num peaks: 14
77.03989 278
79.05465 241
95.05046 881
95.06242 892
107.04935 10558
108.04647 603
108.05299 603
135.0808 20303
136.08443 1078
209.11789 9922
396.15784 1250
396.17209 1252
396.67151 377
399.17764 4407
Name: Aniline
PrecursorMZ: 94.06566
PrecursorType: [M+H]+
IonMode: Positive
Formula: C6H7N
SMILES: C1=CC=C(C=C1)N
InChI: 
InChIKey: PAYRUJLWNCNPSJ-UHFFFAOYSA-N
RetentionTime: 0.7948334
CCS: 
CollisionEnergy: 20-40 eV
InstrumentType: UPLC-QTOF-MS
Comment: PI: Cristina Nerin; Data collector: QiZhi Su, GUIA, University of Zaragoza, Spain; Collision energy: 20-40 V; Instrument: Waters HPLC-QTOF-MS (Xevo G2 QTof); Ionization: ESI; Deconvoluted by MS-DIAL; Column: Waters AtlantisTM premier BEH C18 AX column (2.1 × 100mm x 1.7μm); Flow rate: 0.3mL/min; Mobile phase A and B are water and methnaol, respectively, both with 0.1% formic acid; Gradient elution: from A/B (95/5) to A/B (100/0) in 7min, kept for 4 min, then back to A/B (95/5) in 0.1 min, and maintained for additional 1.9 min (13min in total).; Injection volume: 10 μL
Num peaks: 6
77.03976 1640
77.04501 1640
78.03497 112
78.0425 115
94.06602 1054
94.07969 72
Name: Tetraethylene glycol
PrecursorMZ: 195.1237
PrecursorType: [M+H]+
IonMode: Positive
Formula: C8H18O5
SMILES: C(COCCOCCOCCO)O
InChI: 
InChIKey: UWHCKJMYHZGTIT-UHFFFAOYSA-N
RetentionTime: 0.9509166
CCS: 
CollisionEnergy: 20-40 eV
InstrumentType: UPLC-QTOF-MS
Comment: PI: Cristina Nerin; Data collector: QiZhi Su, GUIA, University of Zaragoza, Spain; Collision energy: 20-40 V; Instrument: Waters HPLC-QTOF-MS (Xevo G2 QTof); Ionization: ESI; Deconvoluted by MS-DIAL; Column: Waters AtlantisTM premier BEH C18 AX column (2.1 × 100mm x 1.7μm); Flow rate: 0.3mL/min; Mobile phase A and B are water and methnaol, respectively, both with 0.1% formic acid; Gradient elution: from A/B (95/5) to A/B (100/0) in 7min, kept for 4 min, then back to A/B (95/5) in 0.1 min, and maintained for additional 1.9 min (13min in total).; Injection volume: 10 μL
Num peaks: 273
55.93829 19
56.96501 69
70.06538 21
71.03126 121
71.0528 179
71.06947 84
71.93491 13
72.94054 57
73.0126 24
73.0246 28
80.9427 14
82.01564 53
82.95804 34
82.98181 49
83.96678 45
85.01783 37
85.94569 71
86.09988 48
86.10482 48
86.94319 38
86.95398 44
87.00431 209
87.04564 103
87.06103 101
87.93988 23
88.00538 31
88.95172 46
88.95737 48
89.01646 36
89.02684 29
89.06049 1227
90.06849 30
91.02586 45
95.02315 157
95.97143 36
96.9613 15
97.95671 25
97.96902 26
98.95408 114
98.96188 127
98.97278 127
99.95648 578
99.96444 586
100.95546 66
100.96716 85
100.98793 401
100.99399 378
101.02245 110
101.06945 42
101.0748 42
101.93719 73
101.96085 82
102.02457 18
102.03809 29
102.95006 27
102.97186 39
103.95487 19
104.02905 210
104.03628 236
104.04994 137
104.95194 54
104.99761 39
105.01421 39
105.96352 22
106.9389 24
106.95086 34
110.07491 15
112.99609 92
113.00382 130
113.01509 112
113.02663 86
113.05819 26
113.06464 22
113.93469 54
113.94358 83
113.95751 99
113.9789 84
114.05877 131
114.94682 185
114.9593 196
115.05222 329
115.06052 328
115.07074 321
115.9485 427
115.95739 462
115.96275 471
116.02844 34
116.03495 64
116.05282 49
116.94716 405
116.96021 466
116.96775 444
116.97812 316
117.01916 376
117.03957 685
117.04635 681
117.54921 70
117.94603 32
117.96323 67
117.97173 51
118.04039 27
118.05602 23
118.09173 18
118.94321 43
118.95043 100
119.00497 15
119.02631 42
119.04264 44
120.95038 52
120.96553 43
123.03405 48
123.04224 48
123.12914 14
124.03727 16
124.97368 70
124.97952 80
124.99141 73
124.99823 47
125.96946 91
125.98064 103
125.98801 110
125.99763 85
126.04481 144
126.54578 28
126.98969 126
127.11309 28
127.12429 29
127.95342 49
127.97093 60
128.05081 41
128.05858 41
128.06458 36
128.96718 60
129.01064 49
129.01662 65
129.02551 82
129.03987 61
129.07164 14
129.10678 21
129.9736 519
130.04352 53
130.06534 79
130.95383 53
130.96402 70
130.97479 59
130.98233 71
131.00832 42
131.02858 123
131.03676 125
131.06816 57
131.07417 59
131.0835 68
131.96027 84
131.96898 84
132.03163 131
132.03668 137
132.04822 142
132.0623 103
132.95863 49
132.97852 64
133.04236 36
133.08722 151
133.09944 150
133.97386 51
134.9664 34
134.97771 20
134.98296 59
138.04285 20
138.97678 18
138.98996 18
139.03757 27
139.0522 33
139.05887 30
142.9705 24
143.0462 19
143.0808 36
143.98312 127
143.99828 134
144.96233 29
144.97327 37
145.01627 321
145.02766 309
145.96059 41
145.9753 41
146.05542 477
146.06529 474
146.93634 15
146.96037 32
146.97498 28
147.04935 65
147.05676 68
147.07198 43
148.95854 39
148.97588 65
148.98492 53
148.99973 25
150.9816 59
150.99309 50
152.05859 31
152.54745 13
154.06662 56
155.00427 20
155.97997 226
155.99382 230
156.08813 28
156.98932 55
156.99774 62
157.08409 44
157.10323 19
157.11037 17
157.98058 68
158.04601 13
158.10416 20
158.97279 66
158.9828 88
158.99287 89
159.00363 29
159.07663 110
159.08392 103
159.98543 618
160.08174 30
160.10036 19
160.97838 553
160.99469 583
161.97919 24
161.99434 34
162.00424 20
162.95761 85
162.96921 203
162.98827 327
163.0041 250
163.97166 24
163.99792 34
164.97688 83
164.98674 106
166.00597 15
166.97998 14
167.07961 16
168.08995 26
168.99094 186
169.0015 182
170.99037 41
171.0014 49
172.97505 15
172.98839 14
173.98599 229
174.00163 228
174.03203 13
174.06189 24
174.99666 26
175.04449 61
175.05487 63
176.00252 21
176.03757 32
176.05586 27
176.97501 25
181.09172 17
182.08975 24
183.07574 97
183.08238 97
183.8844 20
184.06314 29
187.02922 38
189.03537 131
189.04645 123
189.98817 23
193.01485 16
193.02742 30
194.88657 13
195.01869 64
195.02779 60
195.12933 70
195.3745 20
Name: Di(propylene glycol)methyl ether
PrecursorMZ: 171.1004
PrecursorType: [M+Na]+
IonMode: Positive
Formula: C7H16O3
SMILES: CC(CO)OCC(C)OC
InChI: 
InChIKey: CUDYYMUUJHLCGZ-UHFFFAOYSA-N
RetentionTime: 3.599667
CCS: 
CollisionEnergy: 20-40 eV
InstrumentType: UPLC-QTOF-MS
Comment: PI: Cristina Nerin; Data collector: QiZhi Su, GUIA, University of Zaragoza, Spain; Collision energy: 20-40 V; Instrument: Waters HPLC-QTOF-MS (Xevo G2 QTof); Ionization: ESI; Deconvoluted by MS-DIAL; Column: Waters AtlantisTM premier BEH C18 AX column (2.1 × 100mm x 1.7μm); Flow rate: 0.3mL/min; Mobile phase A and B are water and methnaol, respectively, both with 0.1% formic acid; Gradient elution: from A/B (95/5) to A/B (100/0) in 7min, kept for 4 min, then back to A/B (95/5) in 0.1 min, and maintained for additional 1.9 min (13min in total).; Injection volume: 10 μL
Num peaks: 110
57.0692 22
59.0521 21
60.0498 42
67.05402 21
69.06624 31
70.95695 23
70.98064 78
70.9856 225
72.96331 54
72.98813 21
73.0635 41
73.06862 20
77.03685 31
77.04275 24
78.98225 20
79.05163 29
79.96965 20
81.0686 22
81.8072 43
83.03156 28
83.96404 22
86.95631 21
87.06175 22
91.04843 24
91.053 31
92.0591 45
94.03677 32
94.96562 25
96.03392 66
96.95692 20
96.99448 49
97.00151 26
97.99226 26
98.97286 50
98.97878 45
99.01023 20
99.02877 26
99.04837 22
99.94971 29
99.96814 22
100.03183 28
100.93162 40
100.95628 29
100.96725 24
101.07036 24
102.78851 22
103.95397 41
108.98543 48
109.0365 23
109.98289 62
110.23684 20
110.98389 57
111.9687 46
111.97998 21
112.04099 31
112.96919 75
112.98978 51
113.03864 23
113.96644 25
113.99846 49
114.9879 23
115.03023 23
115.04012 24
115.98238 22
116.99643 27
117.07514 24
118.08807 23
121.07541 25
125.9798 25
126.95106 50
127.0544 152
127.96022 23
128.05121 91
128.99281 21
129.01918 88
129.0287 213
129.06238 23
130.95801 21
131.95226 21
131.95857 33
132.0152 28
132.96014 34
133.01706 30
133.04761 67
133.05705 20
134.06706 24
136.97093 20
141.97066 20
143.041 23
144.99011 74
145.00069 46
145.99792 19
146.00563 66
147.0401 45
147.06032 23
147.08517 23
153.85271 31
154.13298 73
155.12708 96
158.02493 23
159.05583 20
161.98239 56
161.99294 20
162.05765 24
162.96635 32
162.99156 21
164.04182 33
164.901 28
164.95432 21
166.00591 29
Name: 1-Naftalamine
PrecursorMZ: 144.0819
PrecursorType: [M+H]+
IonMode: Positive
Formula: C10H9N
SMILES: C1=CC=C2C(=C1)C=CC=C2N
InChI: 
InChIKey: RUFPHBVGCFYCNW-UHFFFAOYSA-N
RetentionTime: 3.831883
CCS: 
CollisionEnergy: 20-40 eV
InstrumentType: UPLC-QTOF-MS
Comment: PI: Cristina Nerin; Data collector: QiZhi Su, GUIA, University of Zaragoza, Spain; Collision energy: 20-40 V; Instrument: Waters HPLC-QTOF-MS (Xevo G2 QTof); Ionization: ESI; Deconvoluted by MS-DIAL; Column: Waters AtlantisTM premier BEH C18 AX column (2.1 × 100mm x 1.7μm); Flow rate: 0.3mL/min; Mobile phase A and B are water and methnaol, respectively, both with 0.1% formic acid; Gradient elution: from A/B (95/5) to A/B (100/0) in 7min, kept for 4 min, then back to A/B (95/5) in 0.1 min, and maintained for additional 1.9 min (13min in total).; Injection volume: 10 μL
Num peaks: 17
77.04014 1803
91.05109 435
91.05743 438
101.03696 442
101.04366 441
115.05634 1803
116.04932 870
116.05888 892
116.06528 882
117.05627 3395
117.07195 3378
126.04655 897
127.05521 34451
128.05867 3341
128.06815 3347
143.07433 10054
144.08138 15100
Name: Tetraethylene glycol
PrecursorMZ: 195.1241
PrecursorType: [M+H]+
IonMode: Positive
Formula: C8H18O5
SMILES: C(COCCOCCOCCO)O
InChI: 
InChIKey: UWHCKJMYHZGTIT-UHFFFAOYSA-N
RetentionTime: 2.34955
CCS: 
CollisionEnergy: 20-40 eV
InstrumentType: UPLC-QTOF-MS
Comment: PI: Cristina Nerin; Data collector: QiZhi Su, GUIA, University of Zaragoza, Spain; Collision energy: 20-40 V; Instrument: Waters HPLC-QTOF-MS (Xevo G2 QTof); Ionization: ESI; Deconvoluted by MS-DIAL; Column: Waters AtlantisTM premier BEH C18 AX column (2.1 × 100mm x 1.7μm); Flow rate: 0.3mL/min; Mobile phase A and B are water and methnaol, respectively, both with 0.1% formic acid; Gradient elution: from A/B (95/5) to A/B (100/0) in 7min, kept for 4 min, then back to A/B (95/5) in 0.1 min, and maintained for additional 1.9 min (13min in total).; Injection volume: 10 μL
Num peaks: 160
55.93883 21
56.96996 37
60.99099 37
64.95457 34
71.93918 48
72.93623 71
73.01243 22
73.94427 25
74.96902 25
76.93492 40
76.94271 27
79.00083 56
80.04836 21
82.98029 23
82.98637 24
85.01769 38
85.94596 146
85.96269 21
86.9988 20
87.00581 120
87.01019 59
87.94949 20
89.01582 28
89.05891 264
89.06721 109
91.01373 22
92.95105 22
93.06568 20
94.96317 22
95.02747 29
95.06595 29
95.47156 82
95.52776 27
95.96766 23
97.02522 23
97.96688 20
98.95623 69
98.9684 52
98.98038 64
99.95332 23
99.96249 174
99.9726 24
100.96561 23
100.97092 25
100.988 95
100.99889 40
101.01543 33
101.02166 22
101.94112 32
101.94882 26
101.95369 26
101.96805 51
103.94965 70
103.95625 36
104.02637 67
104.03411 91
104.0464 21
104.94945 21
104.97011 30
106.26712 20
109.20384 28
109.55271 25
109.95866 40
110.94823 25
111.95515 21
113.01535 54
113.08218 21
113.94428 25
113.97848 21
114.94807 75
115.06673 50
115.95021 44
115.96107 124
116.9401 35
116.94518 47
116.95883 101
116.96582 177
117.03904 492
117.97185 31
118.09474 67
118.9418 20
119.02448 34
119.03345 45
119.96801 39
122.95075 47
125.06415 21
125.96954 41
125.99393 21
126.05058 62
126.88795 20
127.05563 33
127.95776 20
127.97375 50
128.85529 25
129.01485 29
129.04115 23
129.97414 270
130.96661 134
131.03029 89
131.97571 45
132.98409 21
133.06139 20
134.96951 30
134.9761 27
136.06378 27
137.99791 21
143.00337 22
145.01897 249
145.04668 21
145.08101 20
145.10081 23
146.02968 21
146.93262 22
147.94376 30
148.94865 30
148.96353 20
155.6721 27
155.9883 46
155.998 35
157.10431 25
158.99355 22
159.9727 18
159.98328 268
159.99348 70
160.96002 25
160.97855 31
160.98683 88
160.99359 23
161.02173 21
162.89177 23
162.98064 24
162.99713 53
163.00331 31
163.99112 21
164.98227 66
165.50708 28
166.96478 21
168.92766 26
168.99454 21
169.00571 20
169.99635 24
170.88025 27
170.99561 23
172.00327 20
173.06454 23
173.98134 24
173.99875 73
175.01581 28
175.04262 20
175.06212 78
177.00865 59
177.97784 30
178.11491 25
178.99986 20
189.00638 24
189.03316 29
189.04362 150
191.08902 51
193.04169 20
194.03905 25
Name: Di(propylene glycol)methyl ether
PrecursorMZ: 171.1002
PrecursorType: [M+Na]+
IonMode: Positive
Formula: C7H16O3
SMILES: CC(CO)OCC(C)OC
InChI: 
InChIKey: CUDYYMUUJHLCGZ-UHFFFAOYSA-N
RetentionTime: 3.5997
CCS: 
CollisionEnergy: 20-40 eV
InstrumentType: UPLC-QTOF-MS
Comment: PI: Cristina Nerin; Data collector: QiZhi Su, GUIA, University of Zaragoza, Spain; Collision energy: 20-40 V; Instrument: Waters HPLC-QTOF-MS (Xevo G2 QTof); Ionization: ESI; Deconvoluted by MS-DIAL; Column: Waters AtlantisTM premier BEH C18 AX column (2.1 × 100mm x 1.7μm); Flow rate: 0.3mL/min; Mobile phase A and B are water and methnaol, respectively, both with 0.1% formic acid; Gradient elution: from A/B (95/5) to A/B (100/0) in 7min, kept for 4 min, then back to A/B (95/5) in 0.1 min, and maintained for additional 1.9 min (13min in total).; Injection volume: 10 μL
Num peaks: 162
56.94595 20
58.06179 21
67.05726 28
69.95663 23
69.96184 27
70.06602 21
70.97976 786
70.98864 81
71.60114 33
71.93293 20
71.98174 20
72.93345 23
73.05795 24
73.06371 64
73.97411 23
77.03965 26
78.26717 20
78.98609 35
81.36417 31
82.97975 33
83.02879 21
83.0339 22
83.07348 22
84.9594 29
84.99485 20
85.94682 41
85.95165 36
86.94251 25
86.95568 20
86.97383 25
87.94756 20
87.95966 20
89.0649 22
91.06408 23
92.36835 33
93.06734 31
94.96002 24
96.99697 128
97.02557 21
97.94935 22
97.99842 20
98.01702 21
98.97413 85
98.98014 66
99.01102 41
99.02942 24
99.98083 68
100.97012 48
101.02042 50
101.05021 23
101.07424 75
101.3886 20
101.93469 34
101.99796 24
102.95075 59
102.97426 26
103.04201 22
103.05203 53
104.96906 48
105.02691 28
106.98232 28
107.03303 21
108.02205 38
108.97358 20
109.98206 20
110.95661 23
110.98465 31
111.97565 47
112.0463 25
112.94018 35
112.95901 24
112.99574 78
113.01672 54
113.04494 36
113.94548 20
113.98689 56
113.99581 41
114.98351 239
115.01204 21
115.03452 228
115.03959 197
115.98185 21
116.0613 20
116.85238 21
116.96719 53
117.00072 43
117.97199 27
117.97871 24
118.08495 96
118.99665 21
119.04482 114
119.08849 25
120.93777 29
122.96342 26
124.96601 24
125.63834 31
126.98724 23
127.00044 27
127.0392 25
127.05711 158
127.97397 33
128.97308 21
129.00726 51
129.02437 495
129.05505 20
129.88269 24
130.01607 22
130.02634 22
130.96472 94
130.97699 75
131.03661 27
131.05768 21
131.07173 40
132.95189 21
132.96313 56
133.04099 55
133.05266 25
133.14188 22
134.06732 53
134.8871 30
134.9796 31
135.01099 20
135.04193 22
137.06764 20
138.91934 48
138.97968 20
141.05679 23
142.97758 35
143.00334 30
143.04584 67
143.07416 23
143.10258 29
143.90108 24
143.98694 40
143.99278 122
144.01303 30
144.07948 24
144.99606 380
145.00516 153
145.99062 25
146.0015 21
147.05951 103
149.54291 112
151.05713 30
152.98109 22
154.0901 28
155.04015 33
157.00012 21
159.0092 79
159.0199 67
159.11095 24
159.99992 26
161.00676 25
161.02208 46
161.99736 119
162.98271 30
164.92902 22
164.95569 20
165.71832 46
167.01817 24
170.02948 34
171.0108 27
Name: N-ethyl-p-toluenesulfonamide
PrecursorMZ: 200.0748
PrecursorType: [M+H]+
IonMode: Positive
Formula: C9H13NO2S
SMILES: CCNS(=O)(=O)C1=CC=C(C=C1)C
InChI: 
InChIKey: OHPZPBNDOVQJMH-UHFFFAOYSA-N
RetentionTime: 5.127717
CCS: 
CollisionEnergy: 20-40 eV
InstrumentType: UPLC-QTOF-MS
Comment: PI: Cristina Nerin; Data collector: QiZhi Su, GUIA, University of Zaragoza, Spain; Collision energy: 20-40 V; Instrument: Waters HPLC-QTOF-MS (Xevo G2 QTof); Ionization: ESI; Deconvoluted by MS-DIAL; Column: Waters AtlantisTM premier BEH C18 AX column (2.1 × 100mm x 1.7μm); Flow rate: 0.3mL/min; Mobile phase A and B are water and methnaol, respectively, both with 0.1% formic acid; Gradient elution: from A/B (95/5) to A/B (100/0) in 7min, kept for 4 min, then back to A/B (95/5) in 0.1 min, and maintained for additional 1.9 min (13min in total).; Injection volume: 10 μL
Num peaks: 20
65.03967 1274
91.05466 19861
92.05839 1014
92.06561 1013
106.06094 572
106.06743 558
106.07359 548
148.98878 290
149.00276 295
154.03116 204
154.0397 205
155.01822 487
155.03545 474
190.02516 214
191.00478 397
191.01483 489
191.02589 471
194.9695 272
194.97757 296
194.98613 280
Name: N-ethyl-p-toluenesulfonamide
PrecursorMZ: 222.0574
PrecursorType: [M+Na]+
IonMode: Positive
Formula: C9H13NO2S
SMILES: CCNS(=O)(=O)C1=CC=C(C=C1)C
InChI: 
InChIKey: OHPZPBNDOVQJMH-UHFFFAOYSA-N
RetentionTime: 5.127717
CCS: 
CollisionEnergy: 20-40 eV
InstrumentType: UPLC-QTOF-MS
Comment: PI: Cristina Nerin; Data collector: QiZhi Su, GUIA, University of Zaragoza, Spain; Collision energy: 20-40 V; Instrument: Waters HPLC-QTOF-MS (Xevo G2 QTof); Ionization: ESI; Deconvoluted by MS-DIAL; Column: Waters AtlantisTM premier BEH C18 AX column (2.1 × 100mm x 1.7μm); Flow rate: 0.3mL/min; Mobile phase A and B are water and methnaol, respectively, both with 0.1% formic acid; Gradient elution: from A/B (95/5) to A/B (100/0) in 7min, kept for 4 min, then back to A/B (95/5) in 0.1 min, and maintained for additional 1.9 min (13min in total).; Injection volume: 10 μL
Num peaks: 31
65.03967 1274
91.05466 19861
92.05839 1014
92.06561 1013
106.06094 572
106.06743 558
106.07359 548
148.98878 290
149.00276 295
154.03116 204
154.0397 205
155.01822 487
155.03545 474
190.02516 214
191.00478 397
191.01483 489
191.02589 471
194.9695 272
194.97757 296
194.98613 280
205.0321 1133
205.04312 1138
209.9727 1263
209.9924 1263
212.23131 272
212.24326 271
219.04895 2751
219.53677 483
219.54924 494
220.03723 252
220.05031 245
Name: 2-(2-Butoxyethoxy)ethyl acetate
PrecursorMZ: 227.1267
PrecursorType: [M+Na]+
IonMode: Positive
Formula: C10H20O4
SMILES: CCCCOCCOCCOC(=O)C
InChI: 
InChIKey: VXQBJTKSVGFQOL-UHFFFAOYSA-N
RetentionTime: 5.607883
CCS: 
CollisionEnergy: 20-40 eV
InstrumentType: UPLC-QTOF-MS
Comment: PI: Cristina Nerin; Data collector: QiZhi Su, GUIA, University of Zaragoza, Spain; Collision energy: 20-40 V; Instrument: Waters HPLC-QTOF-MS (Xevo G2 QTof); Ionization: ESI; Deconvoluted by MS-DIAL; Column: Waters AtlantisTM premier BEH C18 AX column (2.1 × 100mm x 1.7μm); Flow rate: 0.3mL/min; Mobile phase A and B are water and methnaol, respectively, both with 0.1% formic acid; Gradient elution: from A/B (95/5) to A/B (100/0) in 7min, kept for 4 min, then back to A/B (95/5) in 0.1 min, and maintained for additional 1.9 min (13min in total).; Injection volume: 10 μL
Num peaks: 114
57.07541 12
70.06335 28
70.06841 28
82.99219 28
83.00072 21
84.99276 99
85.00044 104
85.01361 90
86.95285 40
86.95995 38
86.97139 29
87.04503 1171
87.0503 1182
89.05761 29
90.04585 13
91.05331 106
91.05917 100
96.97081 15
97.02926 14
97.05163 20
98.06049 13
98.9732 491
98.98061 479
99.04311 12
99.97102 18
100.9311 19
100.96194 34
100.99228 46
101.96031 56
102.9586 18
105.01549 22
105.02106 35
109.00603 28
111.01281 478
112.00111 17
112.01932 17
112.97161 24
112.99608 36
113.01499 953
113.02907 957
113.04974 133
114.02687 25
114.94016 63
114.94634 63
114.98889 29
115.00148 36
116.94779 122
116.9572 134
123.07888 14
124.98772 18
124.99384 14
127.00382 33
127.01547 23
128.0565 19
128.99699 67
129.00453 75
129.02762 82
131.04306 52
132.98149 16
141.08113 24
141.97185 18
143.00349 28
145.01532 40
145.02567 56
145.03993 31
146.96123 33
146.99947 16
147.01486 20
151.9808 22
151.99265 21
155.99121 23
157.05602 1063
157.96611 15
158.98538 22
160.9577 20
160.97823 56
162.96429 38
162.97064 52
162.98439 92
162.99283 77
167.03038 15
173.02948 104
174.03236 22
174.04033 24
175.02025 18
175.0596 27
175.06696 27
176.06392 12
176.99185 16
179.15204 13
183.08142 14
183.09985 16
185.09465 30
186.01407 12
187.03235 31
193.09177 15
201.07489 796
201.08611 814
201.1105 43
202.08269 75
202.0952 56
203.06796 19
203.07936 18
204.995 39
206.93367 13
207.00697 24
211.15842 17
217.05156 117
217.07501 103
218.0453 30
218.06363 52
218.07745 42
227.12053 25
227.13849 97
Name: 2-(2-Butoxyethoxy)ethyl acetate
PrecursorMZ: 205.1422
PrecursorType: [M+H]+
IonMode: Positive
Formula: C10H20O4
SMILES: CCCCOCCOCCOC(=O)C
InChI: 
InChIKey: VXQBJTKSVGFQOL-UHFFFAOYSA-N
RetentionTime: 5.619317
CCS: 
CollisionEnergy: 20-40 eV
InstrumentType: UPLC-QTOF-MS
Comment: PI: Cristina Nerin; Data collector: QiZhi Su, GUIA, University of Zaragoza, Spain; Collision energy: 20-40 V; Instrument: Waters HPLC-QTOF-MS (Xevo G2 QTof); Ionization: ESI; Deconvoluted by MS-DIAL; Column: Waters AtlantisTM premier BEH C18 AX column (2.1 × 100mm x 1.7μm); Flow rate: 0.3mL/min; Mobile phase A and B are water and methnaol, respectively, both with 0.1% formic acid; Gradient elution: from A/B (95/5) to A/B (100/0) in 7min, kept for 4 min, then back to A/B (95/5) in 0.1 min, and maintained for additional 1.9 min (13min in total).; Injection volume: 10 μL
Num peaks: 250
51.6852 28
52.35857 20
55.05758 60
55.9064 21
56.04719 45
57.06757 47
59.05247 20
59.05598 22
60.78961 25
67.06058 26
68.26879 40
69.06931 32
70.06197 22
70.06915 46
73.03671 39
73.08101 20
73.73637 20
77.03882 117
78.99316 35
79.05692 20
79.06016 53
79.94938 23
80.05865 24
81.00033 34
81.07302 93
82.98049 22
83.01344 24
83.06806 20
84.05811 46
84.96312 131
84.99326 43
84.99866 86
86.10509 21
86.81461 21
86.95052 25
86.95861 33
87.00288 33
87.04639 670
87.06074 27
87.44074 30
88.04914 156
88.07668 20
88.09213 25
89.05894 53
90.88471 28
90.99186 21
91.05746 390
92.06552 52
94.58492 26
94.96455 24
95.08714 20
96.97124 21
96.97819 27
97.03381 23
97.06176 23
97.98438 28
98.96222 55
98.97906 350
99.97485 42
99.98354 24
100.04522 22
100.07469 54
100.9848 36
100.99433 26
101.1001 22
101.94171 29
101.96016 20
101.96809 20
102.06556 37
102.09326 60
102.99562 27
103.95591 24
104.95305 25
104.9836 23
105.00755 76
105.07085 89
105.08014 25
105.14938 22
106.54365 20
108.04729 42
108.99885 66
109.04557 25
109.05532 33
109.18813 27
109.98331 21
110.97587 21
111.00771 95
111.01707 317
111.95538 23
111.96187 24
112.01797 45
112.07198 46
112.99541 25
113.00291 37
113.02839 858
114.03788 52
114.94172 31
114.94886 34
114.95357 27
114.97096 22
115.05267 53
116.03323 29
116.94901 64
116.96615 83
117.01708 20
117.06747 20
117.68297 24
117.93185 23
118.08125 26
118.09057 21
119.08439 26
121.05967 21
121.06776 55
122.05875 26
122.95438 21
122.96124 30
123.08298 24
124.89589 21
125.12013 25
125.98415 20
126.97336 21
126.98974 23
127.03027 20
127.95841 62
128.00456 41
128.05089 25
128.05791 59
128.95924 55
128.99596 28
129.00157 43
129.00856 33
129.02068 35
129.0269 102
129.06735 23
130.1628 27
130.94531 20
131.03236 23
131.03978 45
131.04604 29
131.96445 26
131.99196 23
133.01199 48
133.08057 20
134.05728 20
134.09526 46
134.10727 46
134.9537 21
134.9644 21
135.04817 32
137.03242 24
137.09523 20
137.10248 32
137.96976 28
138.04823 21
138.10498 22
140.16255 27
140.9688 46
141.7894 22
142.00722 25
143.01854 30
143.04552 27
143.07056 26
144.08694 75
145.01141 59
145.02963 51
146.41887 20
146.95352 21
147.02483 20
147.07788 33
147.12144 29
148.97888 43
148.98907 33
148.99883 32
149.03915 25
149.13101 21
149.96684 26
150.05801 21
150.09596 22
151.02933 22
151.10684 51
151.97923 33
154.07455 23
155.99142 114
156.50703 23
156.89679 46
157.05237 601
157.06168 440
157.1035 20
158.05629 20
158.22568 130
158.97325 55
160.00778 25
160.97699 22
162.96523 24
162.9834 22
162.99223 70
163.06198 30
163.97377 60
164.95093 23
164.96951 25
165.01222 26
166.97774 20
168.98392 40
169.04288 24
169.10426 21
170.16063 26
170.98964 54
171.00304 46
171.0182 21
171.04683 25
171.05707 21
173.01393 20
173.0233 27
173.03256 33
174.062 20
175.06218 32
179.05002 22
179.07536 37
179.0826 23
180.03217 34
180.91 20
182.03494 23
182.90469 28
183.08421 25
185.09991 20
185.1115 59
186.10643 20
188.09445 25
189.00867 55
189.07538 39
190.03294 20
190.04547 25
191.03183 21
191.06078 30
191.80792 29
194.02605 27
194.09534 84
194.94554 23
195.02165 48
195.12234 20
196.9082 24
198.53905 22
199.033 23
201.07819 464
201.09013 382
201.89279 40
202.0873 39
202.12527 49
205.00682 91
205.07701 73
Name: Tributyl phosphate
PrecursorMZ: 267.1752
PrecursorType: [M+H]+
IonMode: Positive
Formula: C12H27O4P
SMILES: CCCCOP(=O)(OCCCC)OCCCC
InChI: 
InChIKey: STCOOQWBFONSKY-UHFFFAOYSA-N
RetentionTime: 7.2275
CCS: 
CollisionEnergy: 20-40 eV
InstrumentType: UPLC-QTOF-MS
Comment: PI: Cristina Nerin; Data collector: QiZhi Su, GUIA, University of Zaragoza, Spain; Collision energy: 20-40 V; Instrument: Waters HPLC-QTOF-MS (Xevo G2 QTof); Ionization: ESI; Deconvoluted by MS-DIAL; Column: Waters AtlantisTM premier BEH C18 AX column (2.1 × 100mm x 1.7μm); Flow rate: 0.3mL/min; Mobile phase A and B are water and methnaol, respectively, both with 0.1% formic acid; Gradient elution: from A/B (95/5) to A/B (100/0) in 7min, kept for 4 min, then back to A/B (95/5) in 0.1 min, and maintained for additional 1.9 min (13min in total).; Injection volume: 10 μL
Num peaks: 12
80.97369 31559
98.98479 1169690
99.02212 15721
99.03651 15778
99.07399 25799
99.08321 25799
99.09349 25804
99.14644 20066
99.15557 20054
99.16623 20062
155.04744 23866
211.11034 13357
Name: Tributyl phosphate
PrecursorMZ: 533.3398
PrecursorType: [2M+H]+
IonMode: Positive
Formula: C12H27O4P
SMILES: CCCCOP(=O)(OCCCC)OCCCC
InChI: 
InChIKey: STCOOQWBFONSKY-UHFFFAOYSA-N
RetentionTime: 7.2275
CCS: 
CollisionEnergy: 20-40 eV
InstrumentType: UPLC-QTOF-MS
Comment: PI: Cristina Nerin; Data collector: QiZhi Su, GUIA, University of Zaragoza, Spain; Collision energy: 20-40 V; Instrument: Waters HPLC-QTOF-MS (Xevo G2 QTof); Ionization: ESI; Deconvoluted by MS-DIAL; Column: Waters AtlantisTM premier BEH C18 AX column (2.1 × 100mm x 1.7μm); Flow rate: 0.3mL/min; Mobile phase A and B are water and methnaol, respectively, both with 0.1% formic acid; Gradient elution: from A/B (95/5) to A/B (100/0) in 7min, kept for 4 min, then back to A/B (95/5) in 0.1 min, and maintained for additional 1.9 min (13min in total).; Injection volume: 10 μL
Num peaks: 12
80.97369 29981
98.98479 1169807
99.02212 15721
99.03651 15778
99.07399 25799
99.08321 25799
99.09349 25804
99.14644 20066
99.15557 20054
99.16623 20062
155.04744 15594
289.15442 24640
Name: Tributyl phosphate
PrecursorMZ: 289.1566
PrecursorType: [M+Na]+
IonMode: Positive
Formula: C12H27O4P
SMILES: CCCCOP(=O)(OCCCC)OCCCC
InChI: 
InChIKey: STCOOQWBFONSKY-UHFFFAOYSA-N
RetentionTime: 7.2313
CCS: 
CollisionEnergy: 20-40 eV
InstrumentType: UPLC-QTOF-MS
Comment: PI: Cristina Nerin; Data collector: QiZhi Su, GUIA, University of Zaragoza, Spain; Collision energy: 20-40 V; Instrument: Waters HPLC-QTOF-MS (Xevo G2 QTof); Ionization: ESI; Deconvoluted by MS-DIAL; Column: Waters AtlantisTM premier BEH C18 AX column (2.1 × 100mm x 1.7μm); Flow rate: 0.3mL/min; Mobile phase A and B are water and methnaol, respectively, both with 0.1% formic acid; Gradient elution: from A/B (95/5) to A/B (100/0) in 7min, kept for 4 min, then back to A/B (95/5) in 0.1 min, and maintained for additional 1.9 min (13min in total).; Injection volume: 10 μL
Num peaks: 12
80.97388 29504
98.98482 1169807
99.01805 15717
99.03643 15778
99.07382 25799
99.08305 25799
99.09361 25804
99.1464 20066
99.15555 20054
99.16602 20062
155.04764 15862
289.15421 97250
Name: diisobutyl phtalate
PrecursorMZ: 317.1197
PrecursorType: [M+K]+
IonMode: Positive
Formula: C16H22O4
SMILES: CC(C)COC(=O)C1=CC=CC=C1C(=O)OCC(C)C
InChI: 
InChIKey: MGWAVDBGNNKXQV-UHFFFAOYSA-N
RetentionTime: 7.269367
CCS: 
CollisionEnergy: 20-40 eV
InstrumentType: UPLC-QTOF-MS
Comment: PI: Cristina Nerin; Data collector: QiZhi Su, GUIA, University of Zaragoza, Spain; Collision energy: 20-40 V; Instrument: Waters HPLC-QTOF-MS (Xevo G2 QTof); Ionization: ESI; Deconvoluted by MS-DIAL; Column: Waters AtlantisTM premier BEH C18 AX column (2.1 × 100mm x 1.7μm); Flow rate: 0.3mL/min; Mobile phase A and B are water and methnaol, respectively, both with 0.1% formic acid; Gradient elution: from A/B (95/5) to A/B (100/0) in 7min, kept for 4 min, then back to A/B (95/5) in 0.1 min, and maintained for additional 1.9 min (13min in total).; Injection volume: 10 μL
Num peaks: 30
57.07084 467
65.03879 32637
66.04366 1200
77.0388 5831
77.05311 5833
78.03613 386
78.04422 386
78.052 378
79.05247 512
79.0575 512
92.01013 1333
92.02524 1424
92.03138 1420
93.034 27775
94.02684 883
94.03563 865
94.04077 869
105.03599 763
121.02888 18439
122.03355 790
133.02943 1641
135.04521 1466
149.0237 30114
150.02837 1715
155.06705 1425
163.04004 2656
167.99837 577
289.15543 2152
290.15878 603
301.14221 2273
Name: diisobutyl phtalate
PrecursorMZ: 279.1613
PrecursorType: [M+H]+
IonMode: Positive
Formula: C16H22O4
SMILES: CC(C)COC(=O)C1=CC=CC=C1C(=O)OCC(C)C
InChI: 
InChIKey: MGWAVDBGNNKXQV-UHFFFAOYSA-N
RetentionTime: 7.273183
CCS: 
CollisionEnergy: 20-40 eV
InstrumentType: UPLC-QTOF-MS
Comment: PI: Cristina Nerin; Data collector: QiZhi Su, GUIA, University of Zaragoza, Spain; Collision energy: 20-40 V; Instrument: Waters HPLC-QTOF-MS (Xevo G2 QTof); Ionization: ESI; Deconvoluted by MS-DIAL; Column: Waters AtlantisTM premier BEH C18 AX column (2.1 × 100mm x 1.7μm); Flow rate: 0.3mL/min; Mobile phase A and B are water and methnaol, respectively, both with 0.1% formic acid; Gradient elution: from A/B (95/5) to A/B (100/0) in 7min, kept for 4 min, then back to A/B (95/5) in 0.1 min, and maintained for additional 1.9 min (13min in total).; Injection volume: 10 μL
Num peaks: 26
57.07168 469
65.03848 32635
66.0423 1200
66.0473 1200
77.0391 5858
78.0419 386
78.04688 379
79.0542 512
79.06062 512
92.0275 1434
93.03368 27775
94.03475 865
94.04037 869
105.03403 764
121.02886 18439
122.02419 821
122.03386 789
122.04276 799
133.01503 1701
133.02942 1639
135.04362 1473
149.02382 29977
150.02855 1703
163.03983 2656
167.99733 592
168.01581 705
Name: diisobutyl phtalate
PrecursorMZ: 301.1424
PrecursorType: [M+Na]+
IonMode: Positive
Formula: C16H22O4
SMILES: CC(C)COC(=O)C1=CC=CC=C1C(=O)OCC(C)C
InChI: 
InChIKey: MGWAVDBGNNKXQV-UHFFFAOYSA-N
RetentionTime: 7.276983
CCS: 
CollisionEnergy: 20-40 eV
InstrumentType: UPLC-QTOF-MS
Comment: PI: Cristina Nerin; Data collector: QiZhi Su, GUIA, University of Zaragoza, Spain; Collision energy: 20-40 V; Instrument: Waters HPLC-QTOF-MS (Xevo G2 QTof); Ionization: ESI; Deconvoluted by MS-DIAL; Column: Waters AtlantisTM premier BEH C18 AX column (2.1 × 100mm x 1.7μm); Flow rate: 0.3mL/min; Mobile phase A and B are water and methnaol, respectively, both with 0.1% formic acid; Gradient elution: from A/B (95/5) to A/B (100/0) in 7min, kept for 4 min, then back to A/B (95/5) in 0.1 min, and maintained for additional 1.9 min (13min in total).; Injection volume: 10 μL
Num peaks: 99
64.02966 72
65.03851 1835
66.04193 634
70.06912 68
77.03944 970
78.0415 261
78.04697 340
79.05546 443
79.0625 443
91.05339 108
91.06095 109
92.02711 1561
94.03789 181
105.02979 1345
105.03638 1337
107.05296 133
111.04783 112
113.02242 354
113.03127 358
116.996 277
117.00707 271
117.02418 161
122.03252 83
133.02859 685
133.09737 63
134.03317 119
135.04466 602
136.04677 121
136.05832 149
140.14171 79
145.00748 181
146.99097 62
148.97238 235
148.98987 201
150.02742 295
150.03619 106
150.04807 1310
151.01881 133
151.03119 160
151.03745 158
155.09715 831
157.09627 70
160.00494 119
160.99046 844
161.00261 854
163.02086 2505
163.04045 2637
164.04449 200
167.97949 1074
167.99786 1132
169.00089 71
169.01649 67
176.96271 233
176.97015 359
176.99573 509
177.00552 551
177.04135 63
177.96817 63
188.98756 66
201.07161 104
201.08275 66
204.95085 118
204.98552 1647
204.99727 1469
214.03705 232
214.04884 69
217.05627 1853
218.0513 319
218.06845 343
220.93539 60
221.05193 90
221.06467 96
233.03078 210
233.04074 170
235.03856 86
237.02505 93
237.03731 84
242.99643 63
245.0528 76
245.07808 160
249.01878 69
249.05679 245
261.0441 69
262.03763 454
262.04779 516
262.06372 470
263.04895 133
274.9386 91
274.95569 72
277.01663 69
277.02997 61
285.14905 118
285.16214 282
285.18188 227
293.03479 91
298.99765 161
299.0159 166
301.00555 61
301.14127 5941
Name: diisobutyl phtalate
PrecursorMZ: 579.2969
PrecursorType: [2M+Na]+
IonMode: Positive
Formula: C16H22O4
SMILES: CC(C)COC(=O)C1=CC=CC=C1C(=O)OCC(C)C
InChI: 
InChIKey: MGWAVDBGNNKXQV-UHFFFAOYSA-N
RetentionTime: 7.276983
CCS: 
CollisionEnergy: 20-40 eV
InstrumentType: UPLC-QTOF-MS
Comment: PI: Cristina Nerin; Data collector: QiZhi Su, GUIA, University of Zaragoza, Spain; Collision energy: 20-40 V; Instrument: Waters HPLC-QTOF-MS (Xevo G2 QTof); Ionization: ESI; Deconvoluted by MS-DIAL; Column: Waters AtlantisTM premier BEH C18 AX column (2.1 × 100mm x 1.7μm); Flow rate: 0.3mL/min; Mobile phase A and B are water and methnaol, respectively, both with 0.1% formic acid; Gradient elution: from A/B (95/5) to A/B (100/0) in 7min, kept for 4 min, then back to A/B (95/5) in 0.1 min, and maintained for additional 1.9 min (13min in total).; Injection volume: 10 μL
Num peaks: 248
58.06462 47
58.07465 47
64.02966 72
65.03851 1835
66.04193 634
70.06912 68
71.08183 27
77.03944 970
78.0415 261
78.04697 340
79.05546 443
79.0625 443
87.02941 27
91.05339 108
91.06095 109
92.02711 1561
92.99539 29
93.00323 29
93.06403 44
93.07158 39
94.03789 181
95.0376 30
95.04707 34
105.02979 1345
105.03638 1337
107.05296 133
111.04783 112
113.02242 354
113.03127 358
114.03848 41
114.06125 34
116.996 277
117.00707 271
117.02418 161
118.02467 34
119.04549 27
121.06995 37
122.03252 83
123.02666 43
130.06444 35
130.0769 41
132.04022 34
132.05061 36
133.02859 685
133.05319 51
133.07971 42
133.09737 63
134.03317 119
135.04466 602
135.10521 29
136.04677 121
136.05832 149
137.06409 28
139.07822 50
140.14171 79
141.05589 42
144.08127 36
145.00748 181
146.9807 42
146.99097 62
147.07967 50
148.97238 235
148.98987 201
150.02742 295
150.03619 106
150.04807 1310
151.01881 133
151.03119 160
151.03745 158
152.06033 30
152.95436 27
152.9684 27
155.09715 831
157.07874 56
157.09627 70
159.08568 28
160.00494 119
160.50613 27
160.51723 27
160.99046 844
161.00261 854
161.12019 47
161.99344 40
163.02086 2505
163.04045 2637
164.04449 200
164.99585 41
165.00702 45
165.02036 31
167.08755 27
167.97949 1074
167.99786 1132
169.00089 71
169.01649 67
169.98329 40
170.06204 34
170.07826 39
172.04787 34
173.04149 38
173.04803 39
173.97437 34
176.01514 42
176.02536 43
176.96271 233
176.97015 359
176.99573 509
177.00552 551
177.04135 63
177.96817 63
179.01564 28
180.96397 27
185.12646 39
185.13516 37
186.00793 34
187.01324 39
188.98756 66
189.00807 44
194.96826 38
194.98163 48
194.99849 48
199.16156 32
201.07161 104
201.08275 66
201.12311 27
204.95085 118
204.98552 1647
204.99727 1469
208.05225 36
208.06523 54
214.03705 232
214.04884 69
214.53935 54
217.05627 1853
218.0513 319
218.06845 343
219.05707 37
219.07164 40
219.0867 46
220.93539 60
221.02676 38
221.05193 90
221.06467 96
222.04315 29
225.10852 41
229.09074 29
229.09947 34
232.01469 27
232.03662 31
233.03078 210
233.04074 170
233.06549 45
234.04504 53
235.03856 86
237.00291 38
237.02505 93
237.03731 84
241.11319 33
242.99643 63
243.10448 49
243.11662 42
245.03714 55
245.0528 76
245.07808 160
246.07646 49
248.94296 42
249.01878 69
249.05679 245
258.9635 32
258.97604 32
261.0441 69
262.03763 454
262.04779 516
262.06372 470
263.04895 133
265.07037 30
270.59781 32
273.13925 36
274.04666 33
274.92014 39
274.9386 91
274.95569 72
277.01663 69
277.02997 61
279.03061 45
279.04507 54
281.07733 41
285.14905 118
285.16214 282
285.18188 227
286.18524 53
293.03479 91
294.05328 39
298.12305 32
298.13837 30
298.99765 161
299.0159 166
301.00555 61
301.14127 2293
302.00723 27
302.14783 674
303.13953 108
303.15836 69
307.11472 33
324.97385 123
324.98715 111
326.97391 27
335.09143 120
335.11899 628
335.14752 46
337.11374 28
349.10361 88
354.42142 39
363.11182 138
363.12195 141
364.12589 30
365.04956 70
365.06598 150
366.0658 46
366.08173 38
370.98581 51
371.01425 61
379.1723 55
379.19565 92
379.21365 75
392.185 180
393.17618 55
395.16339 28
395.18024 27
397.07965 33
411.06027 34
411.13239 59
411.14407 63
423.15701 28
483.11874 55
483.21011 38
483.23407 57
491.27121 28
495.18823 77
495.21463 73
499.16943 39
499.74005 27
504.93143 42
522.5965 215
522.62775 55
523.6192 86
527.22791 63
539.19214 366
540.2157 122
Name: Isophtalamide
PrecursorMZ: 165.0662
PrecursorType: [M+H]+
IonMode: Positive
Formula: C8H8N2O2
SMILES: C1=CC(=CC(=C1)C(=O)N)C(=O)N
InChI: 
InChIKey: QZUPTXGVPYNUIT-UHFFFAOYSA-N
RetentionTime: 2.166767
CCS: 
CollisionEnergy: 20-40 eV
InstrumentType: UPLC-QTOF-MS
Comment: PI: Cristina Nerin; Data collector: QiZhi Su, GUIA, University of Zaragoza, Spain; Collision energy: 20-40 V; Instrument: Waters HPLC-QTOF-MS (Xevo G2 QTof); Ionization: ESI; Deconvoluted by MS-DIAL; Column: Waters AtlantisTM premier BEH C18 AX column (2.1 × 100mm x 1.7μm); Flow rate: 0.3mL/min; Mobile phase A and B are water and methnaol, respectively, both with 0.1% formic acid; Gradient elution: from A/B (95/5) to A/B (100/0) in 7min, kept for 4 min, then back to A/B (95/5) in 0.1 min, and maintained for additional 1.9 min (13min in total).; Injection volume: 10 μL
Num peaks: 70
65.04002 158
70.06283 23
74.99989 24
75.0219 287
75.03307 283
76.02957 22
77.02776 330
77.03977 340
78.04398 25
79.04842 433
79.05602 435
81.95705 68
81.96432 68
92.03929 1299
92.04721 1306
92.05291 1302
92.99717 57
93.00522 54
93.01212 60
93.03481 56
93.04861 100
93.05571 60
93.49831 58
93.51427 37
102.00861 222
102.02389 285
102.04101 70
102.49866 69
102.51306 69
103.00674 827
103.01954 819
104.01926 100
104.02771 97
105.03218 710
105.03772 710
106.04058 54
106.04537 54
111.01434 192
111.51404 33
112.01315 27
120.01982 82
120.04507 734
121.03384 60
121.04157 72
121.05172 79
122.05534 248
122.06317 248
123.06198 26
129.04364 28
130.03302 95
130.04263 89
141.99339 18
142.00786 17
145.96925 48
146.97234 65
147.05591 263
147.06436 264
147.9599 20
147.98738 27
148.04034 1506
148.06064 591
149.04724 127
155.01457 21
159.04364 17
160.02074 25
161.99319 17
162.99359 33
163.00101 33
165.04945 27
165.06752 1184
Name: Hexanamide
PrecursorMZ: 116.1074
PrecursorType: [M+H]+
IonMode: Positive
Formula: C6H13NO
SMILES: CCCCCC(=O)N
InChI: 
InChIKey: ALBYIUDWACNRRB-UHFFFAOYSA-N
RetentionTime: 4.140783
CCS: 
CollisionEnergy: 20-40 eV
InstrumentType: UPLC-QTOF-MS
Comment: PI: Cristina Nerin; Data collector: QiZhi Su, GUIA, University of Zaragoza, Spain; Collision energy: 20-40 V; Instrument: Waters HPLC-QTOF-MS (Xevo G2 QTof); Ionization: ESI; Deconvoluted by MS-DIAL; Column: Waters AtlantisTM premier BEH C18 AX column (2.1 × 100mm x 1.7μm); Flow rate: 0.3mL/min; Mobile phase A and B are water and methnaol, respectively, both with 0.1% formic acid; Gradient elution: from A/B (95/5) to A/B (100/0) in 7min, kept for 4 min, then back to A/B (95/5) in 0.1 min, and maintained for additional 1.9 min (13min in total).; Injection volume: 10 μL
Num peaks: 110
49.93472 28
50.55148 26
50.59489 23
52.98122 27
56.73055 24
57.05703 45
57.40004 31
58.06383 58
61.01236 21
61.46819 21
61.65436 25
64.41508 20
67.03654 40
69.00414 28
69.0655 28
70.06851 24
70.96628 43
71.05016 108
71.0823 78
71.08759 222
71.95244 21
73.04396 27
73.0519 29
73.06936 78
74.05846 327
74.0647 272
74.3233 39
74.60243 23
75.02502 26
77.03764 57
77.52711 25
78.98846 24
79.05196 28
80.99509 21
81.067 21
81.07195 35
81.52629 37
81.95168 20
81.95835 62
81.9645 126
82.96458 24
82.99494 21
83.97588 39
84.96086 338
85.96691 31
85.97625 71
86.07134 21
86.09454 37
86.53645 111
86.9628 32
86.97485 30
87.0461 23
87.05952 42
88.07827 311
88.53207 22
89.04003 27
89.08689 51
89.77942 24
90.83365 23
91.05844 21
92.07291 28
93.05865 20
93.07173 34
94.95656 25
95.53383 43
95.54527 112
96.53803 21
96.93743 33
96.95827 41
96.96916 21
96.98001 75
97.8925 28
97.99303 101
98.06313 21
98.09683 43
98.10098 81
98.95081 22
98.97612 49
98.99157 74
99.07825 57
99.94954 24
100.03983 27
101.95058 22
103.03134 25
103.99983 27
104.54347 70
105.049 25
105.07317 28
106.53849 22
107.01553 22
107.9305 39
108.71301 23
109.03389 47
109.06437 104
109.9804 68
110.50624 24
110.95869 32
111.03338 26
111.05204 25
112.01199 23
112.04623 29
112.95182 23
113.55372 40
113.8832 22
113.96372 20
114.09199 28
114.32306 20
114.97066 21
115.9595 25
116.10867 1187
Name: Isophtalamide
PrecursorMZ: 329.127
PrecursorType: [2M+H]+
IonMode: Positive
Formula: C8H8N2O2
SMILES: C1=CC(=CC(=C1)C(=O)N)C(=O)N
InChI: 
InChIKey: QZUPTXGVPYNUIT-UHFFFAOYSA-N
RetentionTime: 0.95085
CCS: 
CollisionEnergy: 20-40 eV
InstrumentType: UPLC-QTOF-MS
Comment: PI: Cristina Nerin; Data collector: QiZhi Su, GUIA, University of Zaragoza, Spain; Collision energy: 20-40 V; Instrument: Waters HPLC-QTOF-MS (Xevo G2 QTof); Ionization: ESI; Deconvoluted by MS-DIAL; Column: Waters AtlantisTM premier BEH C18 AX column (2.1 × 100mm x 1.7μm); Flow rate: 0.3mL/min; Mobile phase A and B are water and methnaol, respectively, both with 0.1% formic acid; Gradient elution: from A/B (95/5) to A/B (100/0) in 7min, kept for 4 min, then back to A/B (95/5) in 0.1 min, and maintained for additional 1.9 min (13min in total).; Injection volume: 10 μL
Num peaks: 114
58.06523 80
65.03091 856
65.03754 856
75.01834 1541
75.02467 1548
76.02679 94
77.02362 1575
77.03412 1572
77.04063 1569
78.03792 115
78.04763 119
79.0554 2367
80.05902 101
81.96526 97
86.09048 75
86.09738 75
89.06188 83
92.03261 6070
92.05027 6051
93.00837 153
93.027 207
93.03601 259
93.04417 401
93.05371 342
93.06148 306
93.49593 86
93.51241 84
102.005 227
102.01183 231
102.49861 75
102.50616 75
103.01885 4482
104.0173 272
104.02836 292
104.0477 170
104.05657 88
105.03448 3780
106.03754 220
111.00948 326
111.0209 328
120.01933 96
120.02548 1250
120.04538 3037
121.02966 91
121.0512 232
122.06138 1242
122.07247 1225
123.06427 92
129.04434 102
129.05013 100
130.01845 106
130.02692 107
130.03331 116
136.06096 97
136.06995 94
140.13914 312
140.14497 308
146.97275 219
146.98119 216
146.98985 211
147.05249 654
147.06439 657
148.03975 7482
149.04582 462
165.06721 5021
166.0695 343
172.97871 100
172.98495 94
174.00067 82
174.97246 231
174.98219 228
175.03351 434
175.04425 427
175.51993 179
175.52936 193
176.02762 91
176.03809 99
176.0511 88
184.03648 917
184.04576 917
184.53462 179
184.54401 178
184.55432 172
184.99503 723
185.01164 710
189.97491 330
189.98561 327
191.02847 132
191.04648 119
192.98477 75
200.95787 227
200.98088 558
201.00169 118
202.97565 86
203.00406 343
203.01637 346
204.97905 91
215.99261 108
216.00729 89
217.97047 1367
217.98271 1382
218.98776 1081
219.9894 157
220.01065 83
220.99123 187
226.9875 155
226.9953 147
235.0316 115
266.0697 150
274.05515 102
292.05289 88
292.0629 108
329.10687 166
329.12686 577
Name: Hexanamide
PrecursorMZ: 116.1075
PrecursorType: [M+H]+
IonMode: Positive
Formula: C6H13NO
SMILES: CCCCCC(=O)N
InChI: 
InChIKey: ALBYIUDWACNRRB-UHFFFAOYSA-N
RetentionTime: 4.255
CCS: 
CollisionEnergy: 20-40 eV
InstrumentType: UPLC-QTOF-MS
Comment: PI: Cristina Nerin; Data collector: QiZhi Su, GUIA, University of Zaragoza, Spain; Collision energy: 20-40 V; Instrument: Waters HPLC-QTOF-MS (Xevo G2 QTof); Ionization: ESI; Deconvoluted by MS-DIAL; Column: Waters AtlantisTM premier BEH C18 AX column (2.1 × 100mm x 1.7μm); Flow rate: 0.3mL/min; Mobile phase A and B are water and methnaol, respectively, both with 0.1% formic acid; Gradient elution: from A/B (95/5) to A/B (100/0) in 7min, kept for 4 min, then back to A/B (95/5) in 0.1 min, and maintained for additional 1.9 min (13min in total).; Injection volume: 10 μL
Num peaks: 118
54.98333 21
55.05378 22
56.05313 52
57.03684 82
57.07156 56
58.06303 45
58.06886 70
58.96293 22
59.02758 20
59.04013 85
69.06941 68
69.07652 32
70.06313 105
71.05451 30
71.08349 267
71.09014 273
72.04816 90
72.09047 21
73.04272 30
73.04725 120
74.05838 265
74.06245 437
74.06733 179
74.93408 23
75.02221 28
75.06559 21
75.13702 29
77.03783 66
77.5302 102
77.53555 98
78.05898 23
78.97725 20
79.07893 41
81.00171 101
81.06555 134
81.0744 70
81.96214 143
81.97091 23
83.01799 64
83.04947 20
83.08172 23
83.9875 47
84.01187 21
84.95604 162
84.96235 369
85.03165 21
85.52024 21
86.533 41
86.53929 49
86.9809 33
87.93098 33
88.04446 35
88.06579 19
88.07638 417
89.07859 48
90.03425 31
91.00024 21
92.04057 55
93.03536 24
93.54998 64
94.97321 26
95.43168 27
95.5431 218
95.95781 56
95.99608 25
96.04844 33
96.05986 23
96.08228 28
96.97557 63
96.98431 124
96.98909 57
97.07436 28
97.5342 21
97.9528 52
97.99373 125
98.09678 310
98.14552 24
98.99004 27
99.06913 29
99.07922 136
99.0844 154
99.0988 29
100.07832 26
101.94587 25
102.95417 30
103.56013 27
103.95003 20
103.97955 28
104.54245 21
104.54801 20
104.71091 25
104.94971 23
105.00108 23
107.0242 47
108.05539 20
109.00006 21
109.03072 76
109.03674 89
109.31732 21
110.02031 26
110.03687 24
110.50268 34
110.98781 22
111.0182 21
111.04759 22
111.55685 25
111.97022 22
112.01244 32
112.03339 20
112.96954 25
112.98801 20
113.05357 32
113.90688 25
114.05741 27
114.97321 108
115.05962 23
115.97244 49
116.1078 1460
Name: Isophthalic acid
PrecursorMZ: 167.0347
PrecursorType: [M+H]+
IonMode: Positive
Formula: C8H6O4
SMILES: C1=CC(=CC(=C1)C(=O)O)C(=O)O
InChI: 
InChIKey: QQVIHTHCMHWDBS-UHFFFAOYSA-N
RetentionTime: 6.407933
CCS: 
CollisionEnergy: 20-40 eV
InstrumentType: UPLC-QTOF-MS
Comment: PI: Cristina Nerin; Data collector: QiZhi Su, GUIA, University of Zaragoza, Spain; Collision energy: 20-40 V; Instrument: Waters HPLC-QTOF-MS (Xevo G2 QTof); Ionization: ESI; Deconvoluted by MS-DIAL; Column: Waters AtlantisTM premier BEH C18 AX column (2.1 × 100mm x 1.7μm); Flow rate: 0.3mL/min; Mobile phase A and B are water and methnaol, respectively, both with 0.1% formic acid; Gradient elution: from A/B (95/5) to A/B (100/0) in 7min, kept for 4 min, then back to A/B (95/5) in 0.1 min, and maintained for additional 1.9 min (13min in total).; Injection volume: 10 μL
Num peaks: 257
51.45607 21
56.96301 26
56.97189 21
57.51194 45
58.03334 28
58.06088 24
58.06868 152
58.95821 20
58.9623 42
59.05107 20
60.08145 44
63.97797 20
65.03796 53
65.04204 75
65.04711 25
66.03798 20
66.04426 47
67.0528 64
67.05859 46
68.05946 71
69.07195 108
69.79858 28
70.06369 120
71.00257 31
71.0113 22
71.02247 24
71.80128 23
72.92082 44
72.93583 22
72.94133 23
72.97379 28
73.04988 25
75.01043 23
76.03918 34
77.0314 23
77.03812 253
77.04402 86
77.04955 70
78.0448 33
78.98563 27
79.05757 484
80.06363 22
80.93988 20
81.0615 20
81.06876 216
81.07603 66
83.05042 30
83.08155 25
83.08798 30
84.07935 23
85.05903 28
85.06755 41
86.09223 28
86.09983 33
87.0236 27
88.07565 44
89.02488 20
89.04083 23
89.05659 25
89.06799 51
91.02115 39
91.05009 49
91.05988 108
92.02864 28
92.06225 36
93.03574 70
93.0565 20
93.0699 105
94.03875 20
94.07203 23
95.04204 25
95.0877 121
96.08464 33
97.06273 69
97.10475 99
97.9698 20
98.03705 22
98.10359 20
98.9751 36
98.98825 145
99.59538 40
100.1148 41
102.12417 22
102.13005 33
102.99523 21
103.01334 28
104.02341 20
105.03635 227
105.07301 86
106.0689 22
107.05236 53
107.08019 42
107.08928 213
107.90228 20
108.786 39
110.98236 73
111.00302 20
111.04865 20
111.0883 38
111.12405 20
112.92604 20
112.97392 25
112.99599 33
113.04379 51
113.62248 24
113.95734 24
114.71616 30
114.94889 38
114.98837 23
115.00867 29
115.12382 22
115.95916 33
115.96606 42
116.05012 47
116.96806 23
117.0034 34
117.01672 25
117.05274 23
117.06119 40
117.07695 20
117.95688 27
118.06564 42
119.00349 29
119.08283 23
119.09132 44
120.04736 21
121.01842 59
121.02691 124
121.03743 121
121.06481 88
121.07679 20
121.10134 20
122.02681 23
122.03992 30
122.91672 22
122.97844 75
123.08603 83
124.08104 20
125.095 23
125.2922 21
126.06562 27
126.99424 49
127.04102 27
128.05508 65
128.96555 33
128.99208 26
129.07211 41
129.07959 33
130.07431 115
130.11469 105
130.95018 24
130.96092 109
130.98677 83
131.06296 24
131.08504 22
131.09631 37
131.96577 26
132.90855 30
132.96739 26
132.98375 28
132.99846 176
133.00922 86
133.03339 27
133.09087 35
135.04346 52
136.06044 69
136.92574 28
137.01837 43
137.0537 29
137.06668 27
137.07288 36
137.10316 28
137.86575 24
138.10434 27
139.03754 41
139.11395 20
140.01642 24
140.02727 22
140.13919 25
140.14804 116
140.9733 27
141.03346 21
141.05849 22
141.06822 75
142.08537 21
142.96452 24
142.98045 24
143.00403 28
143.05385 51
143.11707 20
143.12462 36
144.12495 39
144.99825 28
145.05986 32
146.03261 21
146.1062 24
146.9722 24
147.02914 34
147.07529 21
147.09023 24
148.03728 24
148.08405 21
148.1523 20
148.953 44
148.97212 188
149.01921 386
149.02805 785
149.07193 60
149.13177 27
150.02933 26
151.03734 20
151.07509 32
151.91753 33
152.04382 20
152.06226 20
152.07954 28
152.9827 26
153.07532 27
155.00784 23
157.00427 20
157.0977 43
157.97894 21
158.96558 38
158.97963 163
158.99118 33
159.09909 41
159.96349 24
160.05423 45
160.9673 32
160.99185 564
161.00296 90
161.05165 23
161.09235 56
161.13345 29
161.35295 30
161.98306 21
161.9959 30
162.0038 45
162.1398 28
162.6888 20
163.01842 23
163.04297 55
163.06802 25
163.98462 25
164.08681 21
164.97122 29
164.98135 27
164.99294 28
165.08858 21
165.13115 20
165.96754 24
166.0368 22
166.13455 26
166.99857 24
167.03403 239
167.04243 119
167.08995 29
Name: Chimassorb 81
PrecursorMZ: 349.1776
PrecursorType: [M+Na]+
IonMode: Positive
Formula: C21H26O3
SMILES: CCCCCCCCOC1=CC(=C(C=C1)C(=O)C2=CC=CC=C2)O
InChI: 
InChIKey: QUAMTGJKVDWJEQ-UHFFFAOYSA-N
RetentionTime: 8.5
CCS: 
CollisionEnergy: 20-40 eV
InstrumentType: UPLC-QTOF-MS
Comment: PI: Cristina Nerin; Data collector: QiZhi Su, GUIA, University of Zaragoza, Spain; Collision energy: 20-40 V; Instrument: Waters HPLC-QTOF-MS (Xevo G2 QTof); Ionization: ESI; Deconvoluted by MS-DIAL; Column: Waters AtlantisTM premier BEH C18 AX column (2.1 × 100mm x 1.7μm); Flow rate: 0.3mL/min; Mobile phase A and B are water and methnaol, respectively, both with 0.1% formic acid; Gradient elution: from A/B (95/5) to A/B (100/0) in 7min, kept for 4 min, then back to A/B (95/5) in 0.1 min, and maintained for additional 1.9 min (13min in total).; Injection volume: 10 μL
Num peaks: 10
77.03896 3768
81.03402 3792
105.0334 82424
137.02339 353046
138.02664 21674
215.07042 97618
216.07355 10928
249.14951 4349
327.19437 49370
328.19965 8832
Name: Chimassorb 81
PrecursorMZ: 327.1959
PrecursorType: [M+H]+
IonMode: Positive
Formula: C21H26O3
SMILES: CCCCCCCCOC1=CC(=C(C=C1)C(=O)C2=CC=CC=C2)O
InChI: 
InChIKey: QUAMTGJKVDWJEQ-UHFFFAOYSA-N
RetentionTime: 8.503817
CCS: 
CollisionEnergy: 20-40 eV
InstrumentType: UPLC-QTOF-MS
Comment: PI: Cristina Nerin; Data collector: QiZhi Su, GUIA, University of Zaragoza, Spain; Collision energy: 20-40 V; Instrument: Waters HPLC-QTOF-MS (Xevo G2 QTof); Ionization: ESI; Deconvoluted by MS-DIAL; Column: Waters AtlantisTM premier BEH C18 AX column (2.1 × 100mm x 1.7μm); Flow rate: 0.3mL/min; Mobile phase A and B are water and methnaol, respectively, both with 0.1% formic acid; Gradient elution: from A/B (95/5) to A/B (100/0) in 7min, kept for 4 min, then back to A/B (95/5) in 0.1 min, and maintained for additional 1.9 min (13min in total).; Injection volume: 10 μL
Num peaks: 12
81.03424 3863
81.05228 4039
105.01482 82860
105.03342 82655
137.02342 353504
138.0265 21270
215.0706 97531
216.07367 10906
249.14902 4325
266.98312 3872
266.99689 4222
327.19492 51810
Name: Chimassorb 81
PrecursorMZ: 691.3311
PrecursorType: [2M+K]+
IonMode: Positive
Formula: C21H26O3
SMILES: CCCCCCCCOC1=CC(=C(C=C1)C(=O)C2=CC=CC=C2)O
InChI: 
InChIKey: QUAMTGJKVDWJEQ-UHFFFAOYSA-N
RetentionTime: 8.503817
CCS: 
CollisionEnergy: 20-40 eV
InstrumentType: UPLC-QTOF-MS
Comment: PI: Cristina Nerin; Data collector: QiZhi Su, GUIA, University of Zaragoza, Spain; Collision energy: 20-40 V; Instrument: Waters HPLC-QTOF-MS (Xevo G2 QTof); Ionization: ESI; Deconvoluted by MS-DIAL; Column: Waters AtlantisTM premier BEH C18 AX column (2.1 × 100mm x 1.7μm); Flow rate: 0.3mL/min; Mobile phase A and B are water and methnaol, respectively, both with 0.1% formic acid; Gradient elution: from A/B (95/5) to A/B (100/0) in 7min, kept for 4 min, then back to A/B (95/5) in 0.1 min, and maintained for additional 1.9 min (13min in total).; Injection volume: 10 μL
Num peaks: 14
77.03876 3889
81.03424 4131
81.05228 4156
105.01482 82918
105.03342 82661
137.02342 353504
138.0265 21977
215.0706 97593
216.07367 10917
249.14902 4358
327.19492 49413
328.1991 8837
365.14099 16993
691.32843 22738
Name: Chimassorb 81
PrecursorMZ: 675.3633
PrecursorType: [2M+Na]+
IonMode: Positive
Formula: C21H26O3
SMILES: CCCCCCCCOC1=CC(=C(C=C1)C(=O)C2=CC=CC=C2)O
InChI: 
InChIKey: QUAMTGJKVDWJEQ-UHFFFAOYSA-N
RetentionTime: 8.507617
CCS: 
CollisionEnergy: 20-40 eV
InstrumentType: UPLC-QTOF-MS
Comment: PI: Cristina Nerin; Data collector: QiZhi Su, GUIA, University of Zaragoza, Spain; Collision energy: 20-40 V; Instrument: Waters HPLC-QTOF-MS (Xevo G2 QTof); Ionization: ESI; Deconvoluted by MS-DIAL; Column: Waters AtlantisTM premier BEH C18 AX column (2.1 × 100mm x 1.7μm); Flow rate: 0.3mL/min; Mobile phase A and B are water and methnaol, respectively, both with 0.1% formic acid; Gradient elution: from A/B (95/5) to A/B (100/0) in 7min, kept for 4 min, then back to A/B (95/5) in 0.1 min, and maintained for additional 1.9 min (13min in total).; Injection volume: 10 μL
Num peaks: 11
77.03979 3889
81.03394 4131
105.03356 82655
137.02345 353504
138.02696 21945
215.07076 97523
216.07375 10906
249.14951 4325
327.19498 49307
328.19818 8828
365.14157 16838
Name: Isophtalamide
PrecursorMZ: 165.0667
PrecursorType: [M+H]+
IonMode: Positive
Formula: C8H8N2O2
SMILES: C1=CC(=CC(=C1)C(=O)N)C(=O)N
InChI: 
InChIKey: QZUPTXGVPYNUIT-UHFFFAOYSA-N
RetentionTime: 0.95465
CCS: 
CollisionEnergy: 20-40 eV
InstrumentType: UPLC-QTOF-MS
Comment: PI: Cristina Nerin; Data collector: QiZhi Su, GUIA, University of Zaragoza, Spain; Collision energy: 20-40 V; Instrument: Waters HPLC-QTOF-MS (Xevo G2 QTof); Ionization: ESI; Deconvoluted by MS-DIAL; Column: Waters AtlantisTM premier BEH C18 AX column (2.1 × 100mm x 1.7μm); Flow rate: 0.3mL/min; Mobile phase A and B are water and methnaol, respectively, both with 0.1% formic acid; Gradient elution: from A/B (95/5) to A/B (100/0) in 7min, kept for 4 min, then back to A/B (95/5) in 0.1 min, and maintained for additional 1.9 min (13min in total).; Injection volume: 10 μL
Num peaks: 60
58.06758 80
65.03942 856
75.02274 1546
76.02677 94
76.03188 94
76.03563 94
77.03904 1571
77.05327 1576
78.04258 115
78.04846 119
79.05578 2366
79.07112 2355
80.05596 101
80.06133 101
81.96177 99
89.06299 83
92.05044 6058
92.06667 6071
93.00015 143
93.00706 153
93.03278 143
93.04802 393
93.05403 343
93.4948 89
93.50539 89
102.00459 224
102.01353 233
102.03535 85
103.01916 4485
104.01329 267
104.01968 272
104.02675 275
104.05213 93
105.03395 3783
106.02943 215
106.03703 221
111.01839 331
120.0169 98
120.04582 3027
121.04713 239
121.05331 234
122.06167 1242
123.05563 88
123.08051 78
129.04572 102
129.05363 97
130.0247 106
130.03378 115
136.05637 89
136.07085 101
140.12836 204
140.14227 308
140.15131 306
146.97156 215
146.98268 214
147.05336 659
147.0623 659
148.0397 7504
149.04401 463
165.06642 5556
Name: dibutyl maleate
PrecursorMZ: 229.1447
PrecursorType: [M+H]+
IonMode: Positive
Formula: C12H20O4
SMILES: CCCCOC(=O)C=CC(=O)OCCCC
InChI: 
InChIKey: JBSLOWBPDRZSMB-FPLPWBNLSA-N
RetentionTime: 6.785316
CCS: 
CollisionEnergy: 20-40 eV
InstrumentType: UPLC-QTOF-MS
Comment: PI: Cristina Nerin; Data collector: QiZhi Su, GUIA, University of Zaragoza, Spain; Collision energy: 20-40 V; Instrument: Waters HPLC-QTOF-MS (Xevo G2 QTof); Ionization: ESI; Deconvoluted by MS-DIAL; Column: Waters AtlantisTM premier BEH C18 AX column (2.1 × 100mm x 1.7μm); Flow rate: 0.3mL/min; Mobile phase A and B are water and methnaol, respectively, both with 0.1% formic acid; Gradient elution: from A/B (95/5) to A/B (100/0) in 7min, kept for 4 min, then back to A/B (95/5) in 0.1 min, and maintained for additional 1.9 min (13min in total).; Injection volume: 10 μL
Num peaks: 76
55.01338 80
55.0195 80
57.06768 115
57.07275 115
59.0125 88
71.01262 799
71.01677 798
81.06969 59
83.04446 142
83.05176 139
85.02541 581
85.03104 581
93.07261 58
94.98015 74
94.99062 91
95.00107 73
98.9893 5708
99.00896 5541
100.01016 186
110.97471 332
110.98141 334
111.00996 106
111.02151 106
111.04823 176
113.00396 198
113.01456 663
113.02393 652
113.02959 646
125.06071 60
126.94344 212
126.95268 210
126.97296 162
126.98663 133
126.99228 130
127.00401 108
128.99008 78
129.00279 82
135.98965 134
135.99956 135
137.01741 62
137.0262 58
139.04129 99
139.05022 101
148.99292 256
149.00613 218
153.04256 123
153.05612 134
154.95268 473
154.96498 465
154.97076 487
167.01982 1220
167.03914 1553
168.02934 133
168.04488 142
169.03658 72
169.04504 64
174.96698 403
174.97495 406
180.96768 73
183.00943 186
183.02788 152
185.04654 79
197.05104 163
197.06442 158
198.95644 230
198.97044 274
198.98204 253
209.11354 253
209.12041 252
211.01031 460
211.02309 963
211.03259 950
212.02138 102
212.03612 109
221.03642 161
221.05449 207
Name: dibutyl maleate
PrecursorMZ: 251.1263
PrecursorType: [M+Na]+
IonMode: Positive
Formula: C12H20O4
SMILES: CCCCOC(=O)C=CC(=O)OCCCC
InChI: 
InChIKey: JBSLOWBPDRZSMB-FPLPWBNLSA-N
RetentionTime: 6.785316
CCS: 
CollisionEnergy: 20-40 eV
InstrumentType: UPLC-QTOF-MS
Comment: PI: Cristina Nerin; Data collector: QiZhi Su, GUIA, University of Zaragoza, Spain; Collision energy: 20-40 V; Instrument: Waters HPLC-QTOF-MS (Xevo G2 QTof); Ionization: ESI; Deconvoluted by MS-DIAL; Column: Waters AtlantisTM premier BEH C18 AX column (2.1 × 100mm x 1.7μm); Flow rate: 0.3mL/min; Mobile phase A and B are water and methnaol, respectively, both with 0.1% formic acid; Gradient elution: from A/B (95/5) to A/B (100/0) in 7min, kept for 4 min, then back to A/B (95/5) in 0.1 min, and maintained for additional 1.9 min (13min in total).; Injection volume: 10 μL
Num peaks: 81
55.01338 80
55.0195 80
57.06768 115
57.07275 115
59.0125 88
71.01262 799
71.01677 798
81.06969 59
83.04446 142
83.05176 139
85.02541 581
85.03104 581
93.07261 58
94.98015 74
94.99062 91
95.00107 73
98.9893 5708
99.00896 5541
100.01016 186
110.97471 332
110.98141 334
111.00996 106
111.02151 106
111.04823 176
113.00396 198
113.01456 663
113.02393 652
113.02959 646
125.06071 60
126.94344 212
126.95268 210
126.97296 162
126.98663 133
126.99228 130
127.00401 108
128.99008 78
129.00279 82
135.98965 134
135.99956 135
137.01741 62
137.0262 58
139.04129 99
139.05022 101
148.99292 256
149.00613 218
153.04256 123
153.05612 134
154.95268 473
154.96498 465
154.97076 487
167.01982 1220
167.03914 1553
168.02934 133
168.04488 142
169.03658 72
169.04504 64
174.96698 403
174.97495 406
180.96768 73
183.00943 186
183.02788 152
185.04654 79
197.05104 163
197.06442 158
198.95644 230
198.97044 274
198.98204 253
209.11354 253
209.12041 252
211.01031 460
211.02309 963
211.03259 950
212.02138 102
212.03612 109
221.03642 161
221.05449 207
247.02049 849
247.03181 849
248.03453 123
249.05128 76
251.13167 352
Name: Irgafos 168
PrecursorMZ: 647.4582
PrecursorType: [M+H]+
IonMode: Positive
Formula: C42H63O3P
SMILES: CC(C)(C)C1=CC(=C(C=C1)OP(OC2=C(C=C(C=C2)C(C)(C)C)C(C)(C)C)OC3=C(C=C(C=C3)C(C)(C)C)C(C)(C)C)C(C)(C)C
InChI: 
InChIKey: JKIJEFPNVSHHEI-UHFFFAOYSA-N
RetentionTime: 8.9383
CCS: 
CollisionEnergy: 20-40 eV
InstrumentType: UPLC-QTOF-MS
Comment: PI: Cristina Nerin; Data collector: QiZhi Su, GUIA, University of Zaragoza, Spain; Collision energy: 20-40 V; Instrument: Waters HPLC-QTOF-MS (Xevo G2 QTof); Ionization: ESI; Deconvoluted by MS-DIAL; Column: Waters AtlantisTM premier BEH C18 AX column (2.1 × 100mm x 1.7μm); Flow rate: 0.3mL/min; Mobile phase A and B are water and methnaol, respectively, both with 0.1% formic acid; Gradient elution: from A/B (95/5) to A/B (100/0) in 7min, kept for 4 min, then back to A/B (95/5) in 0.1 min, and maintained for additional 1.9 min (13min in total).; Injection volume: 10 μL
Num peaks: 33
73.04713 2717
147.06693 2337
147.11707 693
163.06354 1538
207.03769 689
221.08525 9591
222.08688 1363
223.08299 774
237.08055 6145
281.05237 14083
282.05313 2318
283.05087 1488
291.11902 1038
295.10522 3414
295.19272 1681
296.1077 737
311.09653 778
341.01846 3069
347.17877 2399
355.07071 20464
356.06955 4861
357.06924 3223
369.12698 1302
429.08868 17311
430.09238 5378
431.08945 2956
441.29248 4864
442.29758 1251
503.10956 4877
504.10822 2091
505.11023 1010
591.40759 642
647.45709 57774
Name: Irgafos 168
PrecursorMZ: 647.4576
PrecursorType: [M+H]+
IonMode: Positive
Formula: C42H63O3P
SMILES: CC(C)(C)C1=CC(=C(C=C1)OP(OC2=C(C=C(C=C2)C(C)(C)C)C(C)(C)C)OC3=C(C=C(C=C3)C(C)(C)C)C(C)(C)C)C(C)(C)C
InChI: 
InChIKey: JKIJEFPNVSHHEI-UHFFFAOYSA-N
RetentionTime: 9.02585
CCS: 
CollisionEnergy: 20-40 eV
InstrumentType: UPLC-QTOF-MS
Comment: PI: Cristina Nerin; Data collector: QiZhi Su, GUIA, University of Zaragoza, Spain; Collision energy: 20-40 V; Instrument: Waters HPLC-QTOF-MS (Xevo G2 QTof); Ionization: ESI; Deconvoluted by MS-DIAL; Column: Waters AtlantisTM premier BEH C18 AX column (2.1 × 100mm x 1.7μm); Flow rate: 0.3mL/min; Mobile phase A and B are water and methnaol, respectively, both with 0.1% formic acid; Gradient elution: from A/B (95/5) to A/B (100/0) in 7min, kept for 4 min, then back to A/B (95/5) in 0.1 min, and maintained for additional 1.9 min (13min in total).; Injection volume: 10 μL
Num peaks: 37
57.07124 454
60.08139 985
73.04742 1774
147.06679 1575
147.12054 483
207.03522 1059
221.08543 8863
222.08832 1232
237.08194 2648
281.05133 11335
282.0546 2289
283.0528 685
291.11783 516
295.10202 2888
296.10812 572
341.01358 1050
341.02652 1466
347.17734 1484
355.07001 17504
356.07199 4588
357.06161 1171
357.07962 737
369.12347 981
385.23666 492
429.08817 14155
430.08997 4140
431.08966 2676
432.09116 491
441.29199 3760
442.29532 834
503.10681 4365
504.10052 981
504.12289 839
505.10312 1207
591.40076 483
613.64197 536
647.45721 44690
Name: Isophtalamide
PrecursorMZ: 165.0673
PrecursorType: [M+H]+
IonMode: Positive
Formula: C8H8N2O2
SMILES: C1=CC(=CC(=C1)C(=O)N)C(=O)N
InChI: 
InChIKey: QZUPTXGVPYNUIT-UHFFFAOYSA-N
RetentionTime: 0.9508833
CCS: 
CollisionEnergy: 20-40 eV
InstrumentType: UPLC-QTOF-MS
Comment: PI: Cristina Nerin; Data collector: QiZhi Su, GUIA, University of Zaragoza, Spain; Collision energy: 20-40 V; Instrument: Waters HPLC-QTOF-MS (Xevo G2 QTof); Ionization: ESI; Deconvoluted by MS-DIAL; Column: Waters AtlantisTM premier BEH C18 AX column (2.1 × 100mm x 1.7μm); Flow rate: 0.3mL/min; Mobile phase A and B are water and methnaol, respectively, both with 0.1% formic acid; Gradient elution: from A/B (95/5) to A/B (100/0) in 7min, kept for 4 min, then back to A/B (95/5) in 0.1 min, and maintained for additional 1.9 min (13min in total).; Injection volume: 10 μL
Num peaks: 135
55.05009 19
55.05612 19
58.06298 93
58.068 93
65.03762 261
65.04183 261
65.967 13
66.04127 21
67.05318 24
70.06553 29
73.05176 20
74.05897 48
74.06548 51
74.9762 17
75.01636 359
75.02101 354
75.02685 358
75.03197 364
77.0377 357
77.04511 360
79.05368 412
79.05864 414
80.05757 27
81.06532 30
81.96936 27
84.04551 59
84.05172 60
84.07557 46
84.08015 46
84.08419 46
86.10186 66
87.05026 25
87.06004 22
88.97641 19
89.063 78
89.06982 78
90.81935 27
91.04555 79
91.05485 78
91.06116 78
92.05118 749
93.00674 57
93.04005 96
93.04947 92
93.05739 57
93.49464 38
93.50001 38
94.96224 17
101.04971 17
101.06527 59
101.07568 55
102.01305 197
102.03493 27
102.49496 58
102.50198 54
103.02065 720
103.04639 100
104.01826 47
104.02699 46
104.92849 13
105.03535 700
105.06917 44
105.07639 45
105.081 45
106.04061 37
107.08823 15
111.01227 100
111.0228 100
111.5073 30
114.05061 42
114.94511 14
115.94779 17
115.96106 16
119.06091 13
120.01173 39
120.04226 544
120.04881 537
120.51746 23
120.91727 15
120.95752 21
121.04995 36
122.05046 260
122.0625 266
123.06334 19
126.04975 20
126.12583 32
129.09869 60
129.10548 60
130.03171 72
131.03809 38
131.95778 19
132.97273 18
134.98489 35
134.9995 29
135.0078 16
136.06578 179
136.08458 124
137.04843 23
137.0845 13
138.0587 19
140.14482 474
140.15312 475
141.15369 48
141.9808 37
141.9928 42
142.00101 39
142.00943 38
142.96349 14
142.97234 16
142.98303 15
145.9688 49
145.99501 21
146.97556 139
146.98778 149
147.05524 260
147.06332 260
147.08861 40
147.99669 35
148.04074 1255
148.96724 13
149.03751 96
149.04831 79
156.97609 35
157.97472 38
158.09509 18
161.99313 21
162.02492 18
162.97839 16
163.00175 41
163.05873 22
163.99202 14
164.0101 23
164.02223 13
165.04681 31
165.06921 683
Name: Tinuvin 327
PrecursorMZ: 358.169
PrecursorType: [M+H]+
IonMode: Positive
Formula: C20H24ClN3O
SMILES: CC(C)(C)C1=CC(=C(C(=C1)N2N=C3C=CC(=CC3=N2)Cl)O)C(C)(C)C
InChI: 
InChIKey: UWSMKYBKUPAEJQ-UHFFFAOYSA-N
RetentionTime: 9.506017
CCS: 
CollisionEnergy: 20-40 eV
InstrumentType: UPLC-QTOF-MS
Comment: PI: Cristina Nerin; Data collector: QiZhi Su, GUIA, University of Zaragoza, Spain; Collision energy: 20-40 V; Instrument: Waters HPLC-QTOF-MS (Xevo G2 QTof); Ionization: ESI; Deconvoluted by MS-DIAL; Column: Waters AtlantisTM premier BEH C18 AX column (2.1 × 100mm x 1.7μm); Flow rate: 0.3mL/min; Mobile phase A and B are water and methnaol, respectively, both with 0.1% formic acid; Gradient elution: from A/B (95/5) to A/B (100/0) in 7min, kept for 4 min, then back to A/B (95/5) in 0.1 min, and maintained for additional 1.9 min (13min in total).; Injection volume: 10 μL
Num peaks: 68
57.06548 115
57.07095 111
81.06729 48
81.07282 52
81.07875 53
93.06654 62
93.07472 62
98.97346 41
98.98656 39
137.02844 43
149.05034 46
149.06206 56
149.06848 45
159.91666 45
163.14828 39
164.06197 68
164.07764 43
183.07397 45
207.03557 106
207.07976 71
209.03073 59
209.04974 44
215.07031 45
221.08533 2004
222.08841 177
223.10268 171
237.08168 1455
238.06744 197
238.08519 241
239.0713 74
246.03668 416
246.05022 375
248.03537 123
265.03339 52
266.97638 81
268.00464 45
281.05316 3155
282.05481 608
283.05347 296
283.0827 49
286.06058 47
295.10391 1471
296.10474 286
302.08957 1153
302.11325 1117
303.10904 164
303.12347 178
304.08804 238
304.10388 246
304.1189 209
305.09399 41
307.24133 76
307.25726 87
311.0983 82
311.11734 102
323.2254 77
341.01855 442
342.01157 187
342.02792 112
342.1394 70
342.15741 95
343.02289 208
343.99939 49
355.07092 3888
356.07364 961
357.07077 164
358.06876 96
358.15204 53
Name: Tributyl phosphate
PrecursorMZ: 305.1306
PrecursorType: [M+K]+
IonMode: Positive
Formula: C12H27O4P
SMILES: CCCCOP(=O)(OCCCC)OCCCC
InChI: 
InChIKey: STCOOQWBFONSKY-UHFFFAOYSA-N
RetentionTime: 7.219883
CCS: 
CollisionEnergy: 20-40 eV
InstrumentType: UPLC-QTOF-MS
Comment: PI: Cristina Nerin; Data collector: QiZhi Su, GUIA, University of Zaragoza, Spain; Collision energy: 20-40 V; Instrument: Waters HPLC-QTOF-MS (Xevo G2 QTof); Ionization: ESI; Deconvoluted by MS-DIAL; Column: Waters AtlantisTM premier BEH C18 AX column (2.1 × 100mm x 1.7μm); Flow rate: 0.3mL/min; Mobile phase A and B are water and methnaol, respectively, both with 0.1% formic acid; Gradient elution: from A/B (95/5) to A/B (100/0) in 7min, kept for 4 min, then back to A/B (95/5) in 0.1 min, and maintained for additional 1.9 min (13min in total).; Injection volume: 10 μL
Num peaks: 11
80.95824 1014
155.04744 11615
211.11034 5180
233.10951 1448
250.86095 751
250.88132 1963
250.89603 1968
267.17331 6550
289.15411 72209
290.15878 10167
290.97357 876
Name: Tributyl phosphate
PrecursorMZ: 555.3212
PrecursorType: [2M+Na]+
IonMode: Positive
Formula: C12H27O4P
SMILES: CCCCOP(=O)(OCCCC)OCCCC
InChI: 
InChIKey: STCOOQWBFONSKY-UHFFFAOYSA-N
RetentionTime: 7.219883
CCS: 
CollisionEnergy: 20-40 eV
InstrumentType: UPLC-QTOF-MS
Comment: PI: Cristina Nerin; Data collector: QiZhi Su, GUIA, University of Zaragoza, Spain; Collision energy: 20-40 V; Instrument: Waters HPLC-QTOF-MS (Xevo G2 QTof); Ionization: ESI; Deconvoluted by MS-DIAL; Column: Waters AtlantisTM premier BEH C18 AX column (2.1 × 100mm x 1.7μm); Flow rate: 0.3mL/min; Mobile phase A and B are water and methnaol, respectively, both with 0.1% formic acid; Gradient elution: from A/B (95/5) to A/B (100/0) in 7min, kept for 4 min, then back to A/B (95/5) in 0.1 min, and maintained for additional 1.9 min (13min in total).; Injection volume: 10 μL
Num peaks: 15
80.95824 1034
155.04744 11626
211.11034 5171
233.10951 1465
250.86095 751
250.88132 1963
250.89603 1968
267.17331 6545
289.15411 72664
290.15878 10167
290.97357 899
347.03387 2862
403.09839 2965
459.15845 3200
515.22278 3252
Name: 3-Carbamoylbenzoic acid
PrecursorMZ: 369.0411
PrecursorType: [2M+K]+
IonMode: Positive
Formula: C8H7NO3
SMILES: C1=CC(=CC(=C1)C(=O)O)C(=O)N
InChI: 
InChIKey: FVUKYCZRWSQGAS-UHFFFAOYSA-N
RetentionTime: 3.408867
CCS: 
CollisionEnergy: 20-40 eV
InstrumentType: UPLC-QTOF-MS
Comment: PI: Cristina Nerin; Data collector: QiZhi Su, GUIA, University of Zaragoza, Spain; Collision energy: 20-40 V; Instrument: Waters HPLC-QTOF-MS (Xevo G2 QTof); Ionization: ESI; Deconvoluted by MS-DIAL; Column: Waters AtlantisTM premier BEH C18 AX column (2.1 × 100mm x 1.7μm); Flow rate: 0.3mL/min; Mobile phase A and B are water and methnaol, respectively, both with 0.1% formic acid; Gradient elution: from A/B (95/5) to A/B (100/0) in 7min, kept for 4 min, then back to A/B (95/5) in 0.1 min, and maintained for additional 1.9 min (13min in total).; Injection volume: 10 μL
Num peaks: 38
77.03967 1828
140.146 24
147.06882 19
149.06233 22
150.02971 485
150.0388 474
161.01624 73
161.03665 19
163.00275 25
166.05302 1011
204.98181 1352
204.99823 1352
219.9705 41
219.97997 34
222.95943 23
236.02809 20
236.03531 21
250.99045 29
252.02646 22
276.48315 19
277.01196 22
294.02127 21
294.98831 36
296.00125 25
305.99829 25
322.9986 37
323.01648 28
324.01273 19
340.0159 24
340.03058 24
352.01743 1037
353.0025 58
353.02063 23
355.04419 79
355.05884 52
367.98755 453
368.99326 74
369.04718 448
Name: 3-Carbamoylbenzoic acid
PrecursorMZ: 166.0508
PrecursorType: [M+Na]+
IonMode: Positive
Formula: C8H7NO3
SMILES: C1=CC(=CC(=C1)C(=O)O)C(=O)N
InChI: 
InChIKey: FVUKYCZRWSQGAS-UHFFFAOYSA-N
RetentionTime: 3.401267
CCS: 
CollisionEnergy: 20-40 eV
InstrumentType: UPLC-QTOF-MS
Comment: PI: Cristina Nerin; Data collector: QiZhi Su, GUIA, University of Zaragoza, Spain; Collision energy: 20-40 V; Instrument: Waters HPLC-QTOF-MS (Xevo G2 QTof); Ionization: ESI; Deconvoluted by MS-DIAL; Column: Waters AtlantisTM premier BEH C18 AX column (2.1 × 100mm x 1.7μm); Flow rate: 0.3mL/min; Mobile phase A and B are water and methnaol, respectively, both with 0.1% formic acid; Gradient elution: from A/B (95/5) to A/B (100/0) in 7min, kept for 4 min, then back to A/B (95/5) in 0.1 min, and maintained for additional 1.9 min (13min in total).; Injection volume: 10 μL
Num peaks: 27
65.03912 5794
66.03931 280
66.04395 280
75.02499 279
75.0331 280
77.03975 1783
79.0554 3876
80.05744 241
80.06364 241
92.05369 103
93.03413 774
103.00975 450
103.02051 453
105.03506 1644
106.03678 106
106.04711 106
121.02913 9776
122.03406 402
122.04207 399
123.04258 390
148.03421 1238
148.04332 1241
149.02425 9156
150.02499 471
150.04083 463
160.00627 373
166.04976 971
Name: 3-Carbamoylbenzoic acid
PrecursorMZ: 188.0326
PrecursorType: [M+Na]+
IonMode: Positive
Formula: C8H7NO3
SMILES: C1=CC(=CC(=C1)C(=O)O)C(=O)N
InChI: 
InChIKey: FVUKYCZRWSQGAS-UHFFFAOYSA-N
RetentionTime: 3.408867
CCS: 
CollisionEnergy: 20-40 eV
InstrumentType: UPLC-QTOF-MS
Comment: PI: Cristina Nerin; Data collector: QiZhi Su, GUIA, University of Zaragoza, Spain; Collision energy: 20-40 V; Instrument: Waters HPLC-QTOF-MS (Xevo G2 QTof); Ionization: ESI; Deconvoluted by MS-DIAL; Column: Waters AtlantisTM premier BEH C18 AX column (2.1 × 100mm x 1.7μm); Flow rate: 0.3mL/min; Mobile phase A and B are water and methnaol, respectively, both with 0.1% formic acid; Gradient elution: from A/B (95/5) to A/B (100/0) in 7min, kept for 4 min, then back to A/B (95/5) in 0.1 min, and maintained for additional 1.9 min (13min in total).; Injection volume: 10 μL
Num peaks: 30
65.03918 6010
66.04336 170
75.02401 177
77.03967 2226
79.05528 3081
80.06422 187
81.96295 104
92.05181 108
93.03495 639
93.03996 218
103.01456 91
103.02178 259
104.02386 95
105.03577 1702
121.0294 9043
122.03439 431
123.03871 117
123.04743 420
123.0559 130
140.146 114
144.98508 92
148.041 1007
149.02412 8531
150.02971 329
150.0388 91
160.00354 277
160.01131 282
166.05302 857
167.05452 159
188.03204 113
Name: Tinuvin P
PrecursorMZ: 226.0985
PrecursorType: [M+H]+
IonMode: Positive
Formula: C13H11N3O
SMILES: CC1=CC(=C(C=C1)O)N2N=C3C=CC=CC3=N2
InChI: 
InChIKey: MCPKSFINULVDNX-UHFFFAOYSA-N
RetentionTime: 7.627783
CCS: 
CollisionEnergy: 20-40 eV
InstrumentType: UPLC-QTOF-MS
Comment: PI: Cristina Nerin; Data collector: QiZhi Su, GUIA, University of Zaragoza, Spain; Collision energy: 20-40 V; Instrument: Waters HPLC-QTOF-MS (Xevo G2 QTof); Ionization: ESI; Deconvoluted by MS-DIAL; Column: Waters AtlantisTM premier BEH C18 AX column (2.1 × 100mm x 1.7μm); Flow rate: 0.3mL/min; Mobile phase A and B are water and methnaol, respectively, both with 0.1% formic acid; Gradient elution: from A/B (95/5) to A/B (100/0) in 7min, kept for 4 min, then back to A/B (95/5) in 0.1 min, and maintained for additional 1.9 min (13min in total).; Injection volume: 10 μL
Num peaks: 87
65.03838 655
65.04308 656
69.07157 159
77.03898 6916
78.03023 356
78.04086 355
78.05002 347
79.04005 11542
79.05441 11542
80.04166 510
80.05724 548
80.06232 541
81.06258 228
81.07125 227
81.07794 222
91.03779 160
91.05056 177
91.05572 176
92.04037 1001
92.05109 994
93.07107 220
93.08018 158
95.08523 167
95.09193 166
105.03201 256
105.04157 255
105.04893 282
105.06841 193
106.04041 445
106.04902 449
106.05527 481
106.073 335
107.04967 14688
108.05292 714
108.06361 720
111.11605 410
111.12238 412
115.04624 164
115.05207 165
120.05638 15292
121.06051 798
127.00694 565
127.03969 202
127.05396 225
127.06934 212
128.05324 529
128.06097 537
129.05981 195
129.06917 199
129.0769 173
152.056 275
152.06728 269
153.06126 181
153.07222 218
153.08501 157
154.06694 2544
154.0826 2594
155.05774 1241
155.07002 1286
155.07623 1289
155.09647 181
156.063 221
156.0741 241
156.08936 167
168.06619 290
168.08185 282
168.09267 281
180.08679 582
181.07675 592
181.09418 526
181.10069 175
182.06058 296
182.06923 699
182.08647 608
183.06863 2603
184.06056 199
184.07199 242
184.0831 234
196.06845 171
196.07977 195
196.09084 179
197.06921 263
197.08702 318
197.09995 281
215.05443 186
215.06984 175
226.09834 2436
Name: NX8000
PrecursorMZ: 523.2462
PrecursorType: [M+K]+
IonMode: Positive
Formula: C29H40O6
SMILES: CCCC1C2C(C(OC(O2)C3=CC=C(C=C3)CCC)C(CO)O)OC(O1)C4=CC=C(C=C4)CCC
InChI: 
InChIKey: PIYNPBVOTLQBTC-UHFFFAOYSA-N
RetentionTime: 7.757216
CCS: 
CollisionEnergy: 20-40 eV
InstrumentType: UPLC-QTOF-MS
Comment: PI: Cristina Nerin; Data collector: QiZhi Su, GUIA, University of Zaragoza, Spain; Collision energy: 20-40 V; Instrument: Waters HPLC-QTOF-MS (Xevo G2 QTof); Ionization: ESI; Deconvoluted by MS-DIAL; Column: Waters AtlantisTM premier BEH C18 AX column (2.1 × 100mm x 1.7μm); Flow rate: 0.3mL/min; Mobile phase A and B are water and methnaol, respectively, both with 0.1% formic acid; Gradient elution: from A/B (95/5) to A/B (100/0) in 7min, kept for 4 min, then back to A/B (95/5) in 0.1 min, and maintained for additional 1.9 min (13min in total).; Injection volume: 10 μL
Num peaks: 400
52.72514 17
55.01786 17
58.95743 16
59.0465 12
61.39603 14
67.04922 39
67.05686 39
70.07576 18
73.04874 87
73.06554 14
73.07419 12
74.04776 75
74.05287 73
78.04139 29
80.06734 55
80.294 17
82.07569 26
83.08004 27
83.08678 28
83.09283 28
84.056 13
84.95137 32
84.96244 32
88.0792 23
89.04231 117
89.05301 165
89.06032 153
89.067 132
91.00906 18
92.05277 48
92.06353 35
94.07196 25
95.05093 14
95.07827 35
95.0876 32
96.08948 23
96.09729 19
97.02885 67
98.0386 15
98.8209 13
98.95894 33
98.97754 43
99.0809 31
99.08826 28
99.99241 72
100.9837 22
100.99555 12
101.02693 18
102.06717 13
103.03337 42
104.06047 108
105.06396 40
105.07355 29
105.07839 32
106.07568 13
107.0821 19
107.0901 13
109.10325 14
110.06686 30
110.97034 13
110.97755 14
112.98344 12
113.02851 21
113.06873 49
114.02529 33
115.00418 19
116.96054 22
117.0571 91
117.07313 99
117.08362 84
117.0947 12
117.96305 59
118.04457 22
118.07102 15
119.01849 12
119.08991 17
121.0489 60
121.0638 59
123.02499 44
123.04133 50
123.06985 47
123.0872 50
124.08015 28
124.0898 27
124.98977 31
125.05507 50
125.0749 53
125.14125 15
126.04469 19
126.10304 15
126.1102 16
127.04438 14
127.05741 118
128.06003 12
128.07014 13
128.41618 12
129.07341 43
130.00551 17
130.02766 15
130.08894 13
135.13194 54
136.08429 63
136.09149 51
136.99747 16
137.12421 23
139.11742 26
141.00017 25
142.06073 15
142.086 17
143.0421 20
143.08641 62
144.08279 20
144.99313 20
145.06979 36
147.07971 600
148.08319 52
148.08963 60
148.59303 33
150.03191 19
151.03969 54
151.06032 61
151.11031 12
152.98685 24
152.99826 28
153.07556 293
153.08542 191
153.09546 186
155.02821 23
155.11282 19
157.07784 23
157.09962 31
159.00177 20
159.01503 20
160.04219 83
160.04987 80
160.08246 22
162.08194 17
163.0238 17
163.03917 12
163.11035 102
163.12816 130
166.05843 30
167.04079 119
167.05814 92
170.10728 13
171.03455 20
171.04478 14
171.0545 17
172.10855 27
172.12776 45
172.96739 12
173.02254 20
173.10219 51
173.11797 44
173.9911 13
175.09595 14
175.11551 23
175.1264 23
177.08681 24
177.11058 31
178.07474 18
179.01495 13
179.03079 48
179.04059 34
179.07384 31
179.08907 62
180.02904 37
180.05745 67
180.07857 12
180.5657 14
183.08719 37
186.07228 43
186.08308 42
188.09125 23
188.11795 17
188.13861 18
188.57983 19
189.0157 17
189.02959 44
189.16293 25
190.12811 12
190.1438 15
190.16129 22
190.16701 18
191.09012 17
191.11028 35
191.15089 20
191.16922 15
193.12299 26
196.09293 32
197.03394 23
197.08551 38
199.15811 31
199.16817 21
200.09053 18
200.10199 12
201.12886 12
201.15793 13
205.19006 17
207.06804 26
207.07777 15
208.06184 38
208.08942 32
208.10689 45
209.02649 16
209.0452 36
209.05289 32
210.0368 23
211.04778 26
211.08847 33
211.10703 43
215.10834 18
216.16916 14
217.05443 40
217.07375 17
219.04454 18
219.15976 23
219.18829 12
220.14095 23
221.02711 27
221.11443 63
221.13727 30
222.1606 15
223.09477 52
223.10712 62
223.1485 26
225.0255 16
225.04213 28
225.07845 45
226.04887 12
227.05072 111
227.06325 147
227.07062 161
229.02702 12
230.08531 14
231.00613 12
231.06982 22
231.14409 14
232.12895 18
235.1526 13
236.07207 26
236.08133 30
240.27542 16
243.02678 12
243.2374 17
245.0657 14
247.07315 66
249.00549 19
250.03789 12
250.97745 33
250.99655 21
251.2157 16
253.06876 15
255.0713 21
255.17462 14
257.1456 17
259.07437 25
261.04553 25
261.12485 17
262.12076 15
262.61743 59
263.03583 20
265.02753 50
265.06912 22
265.1275 12
265.16251 32
266.24051 12
266.992 80
267.01917 65
268.0098 29
273.11374 43
276.11349 13
276.1283 14
279.07666 14
281.05106 52
281.06003 32
282.04767 21
291.22745 12
293.0498 23
294.17676 20
296.28558 103
296.30194 155
297.12302 30
297.29453 42
305.21457 18
307.16193 18
308.15295 27
310.20633 19
315.10822 66
315.14334 49
315.17432 17
317.2338 14
321.16159 15
323.186 22
323.23227 12
325.17908 49
328.13077 19
329.16357 33
331.0871 17
334.18005 13
335.25583 17
343.17007 12
345.1557 40
345.19855 25
345.21176 22
347.07687 19
347.70032 17
347.71463 17
348.18579 21
349.19492 14
350.21548 12
351.14752 28
351.18747 32
351.21805 15
353.22098 31
355.27295 19
359.15262 12
359.19058 13
361.24069 13
364.15656 14
372.23032 12
373.21072 13
377.18735 36
377.20328 32
379.26016 14
381.19849 26
381.2637 38
389.1163 17
389.28827 20
391.10101 24
391.13046 32
393.26266 12
394.26556 13
395.1853 21
396.21567 13
397.22711 12
400.21964 13
402.26288 14
403.24759 19
406.32361 16
409.22156 13
415.3143 32
415.33243 20
417.28558 16
419.27795 41
419.29581 14
420.2522 18
421.22339 26
421.25003 23
425.24588 14
427.19858 17
427.22897 14
427.27042 14
428.20374 26
428.22058 35
428.23395 33
430.10165 26
430.68195 12
431.2023 36
432.15866 13
434.11066 16
435.1846 28
435.20184 29
438.23981 17
438.70615 19
438.72733 20
441.22586 21
442.08398 12
445.23367 13
447.23495 13
447.29181 18
449.30255 17
461.80481 12
465.32654 14
477.32724 20
481.30127 20
482.27365 32
486.26852 18
487.33633 12
487.35928 17
488.24994 15
497.80301 13
502.33353 18
503.37451 15
504.22498 24
505.29001 50
505.74911 22
509.18024 19
512.24835 45
512.27362 63
512.76709 59
513.27655 19
515.31714 13
515.75439 16
520.2395 22
523.23004 440
523.24738 1148
523.27881 425
523.30927 27
523.34332 24
Name: NX8000
PrecursorMZ: 507.2717
PrecursorType: [M+Na]+
IonMode: Positive
Formula: C29H40O6
SMILES: CCCC1C2C(C(OC(O2)C3=CC=C(C=C3)CCC)C(CO)O)OC(O1)C4=CC=C(C=C4)CCC
InChI: 
InChIKey: PIYNPBVOTLQBTC-UHFFFAOYSA-N
RetentionTime: 7.76865
CCS: 
CollisionEnergy: 20-40 eV
InstrumentType: UPLC-QTOF-MS
Comment: PI: Cristina Nerin; Data collector: QiZhi Su, GUIA, University of Zaragoza, Spain; Collision energy: 20-40 V; Instrument: Waters HPLC-QTOF-MS (Xevo G2 QTof); Ionization: ESI; Deconvoluted by MS-DIAL; Column: Waters AtlantisTM premier BEH C18 AX column (2.1 × 100mm x 1.7μm); Flow rate: 0.3mL/min; Mobile phase A and B are water and methnaol, respectively, both with 0.1% formic acid; Gradient elution: from A/B (95/5) to A/B (100/0) in 7min, kept for 4 min, then back to A/B (95/5) in 0.1 min, and maintained for additional 1.9 min (13min in total).; Injection volume: 10 μL
Num peaks: 14
149.09656 1629
171.10329 1008
189.11533 771
356.16971 858
356.18533 817
430.21835 1505
430.72348 630
485.29047 3347
486.29367 754
504.26273 6424
504.76569 4284
505.26019 1154
505.28223 1206
507.27136 58520
Name: NX8000
PrecursorMZ: 991.5552
PrecursorType: [2M+Na]+
IonMode: Positive
Formula: C29H40O6
SMILES: CCCC1C2C(C(OC(O2)C3=CC=C(C=C3)CCC)C(CO)O)OC(O1)C4=CC=C(C=C4)CCC
InChI: 
InChIKey: PIYNPBVOTLQBTC-UHFFFAOYSA-N
RetentionTime: 7.76865
CCS: 
CollisionEnergy: 20-40 eV
InstrumentType: UPLC-QTOF-MS
Comment: PI: Cristina Nerin; Data collector: QiZhi Su, GUIA, University of Zaragoza, Spain; Collision energy: 20-40 V; Instrument: Waters HPLC-QTOF-MS (Xevo G2 QTof); Ionization: ESI; Deconvoluted by MS-DIAL; Column: Waters AtlantisTM premier BEH C18 AX column (2.1 × 100mm x 1.7μm); Flow rate: 0.3mL/min; Mobile phase A and B are water and methnaol, respectively, both with 0.1% formic acid; Gradient elution: from A/B (95/5) to A/B (100/0) in 7min, kept for 4 min, then back to A/B (95/5) in 0.1 min, and maintained for additional 1.9 min (13min in total).; Injection volume: 10 μL
Num peaks: 33
149.09656 2004
171.10329 1155
189.11533 925
217.15526 421
217.16798 389
356.16971 1211
356.18533 1157
356.66891 487
356.68115 579
430.21835 1827
430.72348 790
485.29047 3652
486.29367 809
502.32468 462
504.26273 7761
504.76569 4729
505.26019 1275
505.28223 1262
505.76822 353
507.27136 32791
508.27628 8710
509.27548 629
509.29752 733
746.41144 2215
746.90936 2735
747.39893 683
747.42035 993
747.89343 328
747.92786 452
988.54962 515
989.05066 789
989.56036 529
991.57123 934
Name: NX8000
PrecursorMZ: 502.3161
PrecursorType: [M+NH4]+
IonMode: Positive
Formula: C29H40O6
SMILES: CCCC1C2C(C(OC(O2)C3=CC=C(C=C3)CCC)C(CO)O)OC(O1)C4=CC=C(C=C4)CCC
InChI: 
InChIKey: PIYNPBVOTLQBTC-UHFFFAOYSA-N
RetentionTime: 7.77245
CCS: 
CollisionEnergy: 20-40 eV
InstrumentType: UPLC-QTOF-MS
Comment: PI: Cristina Nerin; Data collector: QiZhi Su, GUIA, University of Zaragoza, Spain; Collision energy: 20-40 V; Instrument: Waters HPLC-QTOF-MS (Xevo G2 QTof); Ionization: ESI; Deconvoluted by MS-DIAL; Column: Waters AtlantisTM premier BEH C18 AX column (2.1 × 100mm x 1.7μm); Flow rate: 0.3mL/min; Mobile phase A and B are water and methnaol, respectively, both with 0.1% formic acid; Gradient elution: from A/B (95/5) to A/B (100/0) in 7min, kept for 4 min, then back to A/B (95/5) in 0.1 min, and maintained for additional 1.9 min (13min in total).; Injection volume: 10 μL
Num peaks: 19
79.05322 1070
85.0663 942
91.05499 7844
105.0706 1133
109.06671 912
119.05086 954
133.10147 85903
134.10585 6104
147.0813 9973
149.09801 4818
153.09477 1097
171.10472 2234
189.11383 1308
356.17706 1715
430.21536 1764
430.22815 972
430.72217 888
485.29147 7985
486.29504 1955
Name: NX8000
PrecursorMZ: 485.2896
PrecursorType: [M+H]+
IonMode: Positive
Formula: C29H40O6
SMILES: CCCC1C2C(C(OC(O2)C3=CC=C(C=C3)CCC)C(CO)O)OC(O1)C4=CC=C(C=C4)CCC
InChI: 
InChIKey: PIYNPBVOTLQBTC-UHFFFAOYSA-N
RetentionTime: 7.791483
CCS: 
CollisionEnergy: 20-40 eV
InstrumentType: UPLC-QTOF-MS
Comment: PI: Cristina Nerin; Data collector: QiZhi Su, GUIA, University of Zaragoza, Spain; Collision energy: 20-40 V; Instrument: Waters HPLC-QTOF-MS (Xevo G2 QTof); Ionization: ESI; Deconvoluted by MS-DIAL; Column: Waters AtlantisTM premier BEH C18 AX column (2.1 × 100mm x 1.7μm); Flow rate: 0.3mL/min; Mobile phase A and B are water and methnaol, respectively, both with 0.1% formic acid; Gradient elution: from A/B (95/5) to A/B (100/0) in 7min, kept for 4 min, then back to A/B (95/5) in 0.1 min, and maintained for additional 1.9 min (13min in total).; Injection volume: 10 μL
Num peaks: 15
91.05504 10270
104.06241 1212
104.07047 1213
105.07091 1121
111.06931 1161
111.07973 1161
111.08711 1157
133.08138 43754
133.10127 98174
134.10561 7213
147.08104 11671
149.09737 2889
153.09258 1515
356.17682 1006
485.2901 8669
Name: NX8000
PrecursorMZ: 986.6039
PrecursorType: [2M+NH4]+
IonMode: Positive
Formula: C29H40O6
SMILES: CCCC1C2C(C(OC(O2)C3=CC=C(C=C3)CCC)C(CO)O)OC(O1)C4=CC=C(C=C4)CCC
InChI: 
InChIKey: PIYNPBVOTLQBTC-UHFFFAOYSA-N
RetentionTime: 7.82195
CCS: 
CollisionEnergy: 20-40 eV
InstrumentType: UPLC-QTOF-MS
Comment: PI: Cristina Nerin; Data collector: QiZhi Su, GUIA, University of Zaragoza, Spain; Collision energy: 20-40 V; Instrument: Waters HPLC-QTOF-MS (Xevo G2 QTof); Ionization: ESI; Deconvoluted by MS-DIAL; Column: Waters AtlantisTM premier BEH C18 AX column (2.1 × 100mm x 1.7μm); Flow rate: 0.3mL/min; Mobile phase A and B are water and methnaol, respectively, both with 0.1% formic acid; Gradient elution: from A/B (95/5) to A/B (100/0) in 7min, kept for 4 min, then back to A/B (95/5) in 0.1 min, and maintained for additional 1.9 min (13min in total).; Injection volume: 10 μL
Num peaks: 71
85.06406 173
85.06836 171
85.07553 182
93.06545 229
93.07259 228
127.06866 240
127.07741 279
149.09731 1294
150.09683 171
150.10493 186
150.11493 170
153.07074 139
153.09264 470
153.10788 310
171.10338 973
189.10674 868
189.11662 878
190.11267 142
190.11913 143
337.19397 367
337.2049 411
356.16864 752
356.18091 453
356.67868 339
364.17114 151
365.15387 217
365.17191 223
422.73672 152
430.21774 1166
430.72281 767
431.21939 219
431.24103 206
439.19965 156
439.21695 186
485.29153 4905
486.28851 1071
486.30414 789
496.27383 190
502.31775 426
504.26257 7799
504.76477 5715
505.26993 1471
505.75061 309
505.77313 421
506.2449 133
506.26352 137
507.27133 13043
508.27643 3439
509.26382 774
509.28265 222
512.24988 193
512.26965 175
513.25287 171
513.75171 132
637.34271 149
738.40289 231
738.93115 171
746.40729 3496
746.90869 3877
747.40302 1397
747.42804 390
747.89929 409
747.93195 161
748.39783 166
754.38727 245
754.86719 162
754.91736 140
755.39087 338
756.39258 140
969.60742 133
986.59784 460
Name: NX8000
PrecursorMZ: 502.3171
PrecursorType: [M+NH4]+
IonMode: Positive
Formula: C29H40O6
SMILES: CCCC1C2C(C(OC(O2)C3=CC=C(C=C3)CCC)C(CO)O)OC(O1)C4=CC=C(C=C4)CCC
InChI: 
InChIKey: PIYNPBVOTLQBTC-UHFFFAOYSA-N
RetentionTime: 7.82575
CCS: 
CollisionEnergy: 20-40 eV
InstrumentType: UPLC-QTOF-MS
Comment: PI: Cristina Nerin; Data collector: QiZhi Su, GUIA, University of Zaragoza, Spain; Collision energy: 20-40 V; Instrument: Waters HPLC-QTOF-MS (Xevo G2 QTof); Ionization: ESI; Deconvoluted by MS-DIAL; Column: Waters AtlantisTM premier BEH C18 AX column (2.1 × 100mm x 1.7μm); Flow rate: 0.3mL/min; Mobile phase A and B are water and methnaol, respectively, both with 0.1% formic acid; Gradient elution: from A/B (95/5) to A/B (100/0) in 7min, kept for 4 min, then back to A/B (95/5) in 0.1 min, and maintained for additional 1.9 min (13min in total).; Injection volume: 10 μL
Num peaks: 160
51.10179 57
51.11652 66
51.13528 64
51.15957 79
51.16302 95
51.16965 84
51.18028 97
51.18598 89
51.2192 71
51.23379 64
51.25692 82
51.26984 71
51.2859 66
51.334 76
51.33757 72
51.34594 71
52.47079 57
57.05717 58
60.08082 256
60.08587 250
67.053 100
67.05801 101
67.06257 107
69.0256 80
69.03386 81
69.04185 80
71.08514 55
71.09008 55
73.02737 81
74.09067 170
74.09782 163
81.03251 151
81.03734 156
81.05669 489
81.07036 433
85.06404 459
85.07053 463
86.06519 59
86.07079 59
87.04769 119
87.08476 60
96.0925 78
103.03953 99
103.051 85
109.06693 166
111.04224 56
111.0502 78
111.08197 217
115.03738 159
115.05361 123
117.05511 158
121.101 65
121.11215 57
125.09333 121
125.09998 124
127.06126 547
127.07662 576
128.06088 75
128.08917 64
129.07518 222
135.08228 112
137.04074 55
141.07297 73
143.07744 69
143.09093 65
145.08885 68
145.10689 92
149.09691 2714
150.08832 278
150.10416 311
153.0894 632
153.09566 660
154.0934 89
160.04575 86
165.10982 62
171.08266 96
171.10251 1666
171.1129 1651
172.07288 59
172.11006 106
173.13589 58
180.05563 62
187.10707 54
188.06662 96
188.08339 77
189.11302 1460
190.10777 152
190.12112 151
190.13017 144
200.59904 76
217.161 201
218.15973 66
262.10742 213
262.1218 336
262.15353 65
274.13101 152
274.14243 158
282.11505 720
282.13034 595
282.62915 167
282.64169 162
283.78702 57
291.11255 55
292.12366 88
292.13791 81
307.13589 102
317.17749 55
337.19772 568
337.21173 591
337.22949 135
338.20584 143
348.1738 151
348.18848 174
351.19556 60
356.17242 1633
356.67981 813
357.17517 64
357.19635 179
357.67407 59
358.16763 71
359.185 60
363.17941 63
363.19055 73
364.15942 137
365.13809 83
365.16284 222
365.65939 101
366.16907 132
391.11725 55
422.23642 176
422.25455 84
422.71997 178
422.73907 165
423.22687 54
430.22214 3226
430.72177 1517
431.22372 376
432.23856 97
435.16882 92
438.1756 59
438.19403 101
438.21503 98
438.23312 77
439.2002 175
439.22388 119
439.69366 75
440.21951 62
440.70486 72
485.28958 5360
486.27939 856
486.30209 1252
487.2926 71
496.26697 311
496.28604 303
496.78415 118
497.26559 192
497.28021 197
497.79785 88
502.29749 110
502.32251 698
Name: NX8000
PrecursorMZ: 991.5569
PrecursorType: [2M+Na]+
IonMode: Positive
Formula: C29H40O6
SMILES: CCCC1C2C(C(OC(O2)C3=CC=C(C=C3)CCC)C(CO)O)OC(O1)C4=CC=C(C=C4)CCC
InChI: 
InChIKey: PIYNPBVOTLQBTC-UHFFFAOYSA-N
RetentionTime: 7.82575
CCS: 
CollisionEnergy: 20-40 eV
InstrumentType: UPLC-QTOF-MS
Comment: PI: Cristina Nerin; Data collector: QiZhi Su, GUIA, University of Zaragoza, Spain; Collision energy: 20-40 V; Instrument: Waters HPLC-QTOF-MS (Xevo G2 QTof); Ionization: ESI; Deconvoluted by MS-DIAL; Column: Waters AtlantisTM premier BEH C18 AX column (2.1 × 100mm x 1.7μm); Flow rate: 0.3mL/min; Mobile phase A and B are water and methnaol, respectively, both with 0.1% formic acid; Gradient elution: from A/B (95/5) to A/B (100/0) in 7min, kept for 4 min, then back to A/B (95/5) in 0.1 min, and maintained for additional 1.9 min (13min in total).; Injection volume: 10 μL
Num peaks: 83
81.05669 212
85.06404 173
85.07053 175
93.06485 229
93.07047 228
93.07656 227
127.06126 209
127.07662 275
149.09691 1295
150.08832 176
150.10416 185
153.0894 479
153.09566 478
171.08266 192
171.10251 1009
171.1129 966
189.11302 881
190.10777 143
190.12112 143
190.13017 136
282.11505 185
337.19772 403
337.21173 436
337.22949 131
356.17242 488
356.67981 324
364.15942 133
365.16284 205
422.71997 172
422.73907 158
430.22214 1220
430.72177 799
431.22372 273
439.2002 156
485.28958 4912
486.27939 647
486.30209 893
496.26697 211
496.28604 176
497.26559 135
497.28021 133
502.32251 415
504.26404 7833
504.76535 5718
505.26935 1506
505.77036 419
506.26111 190
506.27609 167
507.27133 13058
508.27652 3443
509.2597 162
509.28317 288
512.26044 177
513.25891 250
513.74603 139
637.36151 159
738.40564 209
746.40436 3555
746.90765 3940
747.38452 632
747.41864 1482
747.91058 582
747.94305 227
748.41138 184
754.39703 206
754.88409 196
755.40344 314
755.87756 144
756.38165 143
969.57361 177
969.60052 211
970.56921 235
986.58606 374
987.61652 227
988.52704 402
988.56329 365
989.04944 896
989.5495 404
989.58356 272
990.0401 162
990.07507 209
991.56042 2186
991.61975 189
Name: NX8000
PrecursorMZ: 507.2717
PrecursorType: [M+Na]+
IonMode: Positive
Formula: C29H40O6
SMILES: CCCC1C2C(C(OC(O2)C3=CC=C(C=C3)CCC)C(CO)O)OC(O1)C4=CC=C(C=C4)CCC
InChI: 
InChIKey: PIYNPBVOTLQBTC-UHFFFAOYSA-N
RetentionTime: 7.837167
CCS: 
CollisionEnergy: 20-40 eV
InstrumentType: UPLC-QTOF-MS
Comment: PI: Cristina Nerin; Data collector: QiZhi Su, GUIA, University of Zaragoza, Spain; Collision energy: 20-40 V; Instrument: Waters HPLC-QTOF-MS (Xevo G2 QTof); Ionization: ESI; Deconvoluted by MS-DIAL; Column: Waters AtlantisTM premier BEH C18 AX column (2.1 × 100mm x 1.7μm); Flow rate: 0.3mL/min; Mobile phase A and B are water and methnaol, respectively, both with 0.1% formic acid; Gradient elution: from A/B (95/5) to A/B (100/0) in 7min, kept for 4 min, then back to A/B (95/5) in 0.1 min, and maintained for additional 1.9 min (13min in total).; Injection volume: 10 μL
Num peaks: 6
217.16153 1155
356.17441 1855
430.22061 2182
430.71964 1010
505.26654 1385
507.27118 84624
Name: NX8000
PrecursorMZ: 523.2493
PrecursorType: [M+K]+
IonMode: Positive
Formula: C29H40O6
SMILES: CCCC1C2C(C(OC(O2)C3=CC=C(C=C3)CCC)C(CO)O)OC(O1)C4=CC=C(C=C4)CCC
InChI: 
InChIKey: PIYNPBVOTLQBTC-UHFFFAOYSA-N
RetentionTime: 7.840983
CCS: 
CollisionEnergy: 20-40 eV
InstrumentType: UPLC-QTOF-MS
Comment: PI: Cristina Nerin; Data collector: QiZhi Su, GUIA, University of Zaragoza, Spain; Collision energy: 20-40 V; Instrument: Waters HPLC-QTOF-MS (Xevo G2 QTof); Ionization: ESI; Deconvoluted by MS-DIAL; Column: Waters AtlantisTM premier BEH C18 AX column (2.1 × 100mm x 1.7μm); Flow rate: 0.3mL/min; Mobile phase A and B are water and methnaol, respectively, both with 0.1% formic acid; Gradient elution: from A/B (95/5) to A/B (100/0) in 7min, kept for 4 min, then back to A/B (95/5) in 0.1 min, and maintained for additional 1.9 min (13min in total).; Injection volume: 10 μL
Num peaks: 20
79.05612 799
91.05482 3074
133.10144 43187
134.10669 2425
147.08279 2151
149.09721 3797
153.09317 1204
208.08707 859
217.16283 1479
356.17725 2867
430.21844 2803
430.72043 1492
485.28775 1853
504.26276 9077
504.76505 5050
505.26636 1568
507.27182 78305
508.27606 17814
509.27985 1970
523.24658 1819
Name: Dimethyl adipate
PrecursorMZ: 175.0981
PrecursorType: [M+H]+
IonMode: Positive
Formula: C8H14O4
SMILES: COC(=O)CCCCC(=O)OC
InChI: 
InChIKey: UDSFAEKRVUSQDD-UHFFFAOYSA-N
RetentionTime: 4.77705
CCS: 
CollisionEnergy: 20-40 eV
InstrumentType: UPLC-QTOF-MS
Comment: PI: Cristina Nerin; Data collector: QiZhi Su, GUIA, University of Zaragoza, Spain; Collision energy: 20-40 V; Instrument: Waters HPLC-QTOF-MS (Xevo G2 QTof); Ionization: ESI; Deconvoluted by MS-DIAL; Column: Waters AtlantisTM premier BEH C18 AX column (2.1 × 100mm x 1.7μm); Flow rate: 0.3mL/min; Mobile phase A and B are water and methnaol, respectively, both with 0.1% formic acid; Gradient elution: from A/B (95/5) to A/B (100/0) in 7min, kept for 4 min, then back to A/B (95/5) in 0.1 min, and maintained for additional 1.9 min (13min in total).; Injection volume: 10 μL
Num peaks: 81
55.05133 571
55.05601 570
56.05886 52
59.01327 30
59.02897 37
59.05039 35
65.03342 60
65.03802 60
65.04247 60
67.05032 146
67.05953 146
69.02887 56
70.98101 788
73.05135 1317
73.06185 1303
73.06675 1317
74.05691 54
74.06295 52
74.06818 52
74.07442 51
74.97835 37
83.04998 2586
84.04512 113
84.05422 112
86.95347 61
91.01147 89
93.01486 43
93.03471 53
97.06749 436
100.00453 232
100.01938 229
100.02444 230
105.01958 40
105.02789 45
107.02209 75
107.0276 89
107.04427 68
109.02531 297
109.03433 297
111.04617 1145
112.03089 51
112.04993 80
112.97423 43
112.98694 55
115.07796 293
115.09068 310
116.03 103
119.0431 31
119.05275 33
123.00272 79
123.01221 82
123.02326 72
125.03551 36
125.0519 44
132.03177 166
132.04437 162
132.54512 39
135.02547 73
135.03336 54
135.04384 53
136.96629 53
136.97365 52
137.03075 26
140.98534 49
141.00932 44
141.03152 77
141.04849 76
143.05026 28
148.04889 87
151.00697 339
152.01422 29
153.0244 35
166.97287 115
166.98454 138
166.993 134
167.00287 67
169.99033 49
170.01093 43
170.99333 41
171.00893 46
171.01707 35
Name: Dimethyl adipate
PrecursorMZ: 197.0787
PrecursorType: [M+Na]+
IonMode: Positive
Formula: C8H14O4
SMILES: COC(=O)CCCCC(=O)OC
InChI: 
InChIKey: UDSFAEKRVUSQDD-UHFFFAOYSA-N
RetentionTime: 4.784667
CCS: 
CollisionEnergy: 20-40 eV
InstrumentType: UPLC-QTOF-MS
Comment: PI: Cristina Nerin; Data collector: QiZhi Su, GUIA, University of Zaragoza, Spain; Collision energy: 20-40 V; Instrument: Waters HPLC-QTOF-MS (Xevo G2 QTof); Ionization: ESI; Deconvoluted by MS-DIAL; Column: Waters AtlantisTM premier BEH C18 AX column (2.1 × 100mm x 1.7μm); Flow rate: 0.3mL/min; Mobile phase A and B are water and methnaol, respectively, both with 0.1% formic acid; Gradient elution: from A/B (95/5) to A/B (100/0) in 7min, kept for 4 min, then back to A/B (95/5) in 0.1 min, and maintained for additional 1.9 min (13min in total).; Injection volume: 10 μL
Num peaks: 88
55.05463 571
56.05688 51
56.06376 51
59.01009 29
59.01952 29
59.04776 35
59.05164 35
65.04085 59
67.0521 146
67.05733 146
69.03281 54
69.04365 53
70.97308 789
70.98204 788
73.05289 1313
73.06438 1308
73.06792 1318
74.06869 52
81.02999 32
81.03696 32
81.04105 35
83.04985 2571
84.05032 111
84.05622 108
86.95556 60
86.97104 57
91.01291 89
93.0104 30
93.0168 43
93.05535 34
97.06409 424
97.0762 428
100.01639 224
105.03481 40
107.01709 70
107.02854 89
107.04153 75
109.0275 297
111.04385 1137
111.05058 1142
112.04701 82
112.05532 75
114.97197 35
115.07262 297
115.07819 293
116.026 103
116.03648 71
119.05787 29
122.99294 70
123.00726 82
123.01691 81
125.03248 34
125.0424 44
132.03157 162
132.04027 161
132.53868 38
135.03056 45
136.98846 47
138.99026 28
140.99211 57
141.02429 82
141.04286 81
141.06056 51
143.06401 36
143.07927 36
148.04053 80
148.04947 86
148.99696 26
150.99467 287
151.00438 338
151.01492 347
152.01927 37
153.00977 30
153.02449 34
166.97903 131
166.99522 135
167.00607 42
167.05066 33
169.99075 48
170.00108 49
170.99397 41
171.00403 60
171.01549 34
181.00789 546
181.02115 507
184.97528 30
184.98752 35
194.0309 30
Name: bis(2-ethylhexyl) adipate
PrecursorMZ: 393.2989
PrecursorType: [M+Na]+
IonMode: Positive
Formula: C22H42O4
SMILES: CCCCC(CC)COC(=O)CCCCC(=O)OCC(CC)CCCC
InChI: 
InChIKey: SAOKZLXYCUGLFA-UHFFFAOYSA-N
RetentionTime: 8.568617
CCS: 
CollisionEnergy: 20-40 eV
InstrumentType: UPLC-QTOF-MS
Comment: PI: Cristina Nerin; Data collector: QiZhi Su, GUIA, University of Zaragoza, Spain; Collision energy: 20-40 V; Instrument: Waters HPLC-QTOF-MS (Xevo G2 QTof); Ionization: ESI; Deconvoluted by MS-DIAL; Column: Waters AtlantisTM premier BEH C18 AX column (2.1 × 100mm x 1.7μm); Flow rate: 0.3mL/min; Mobile phase A and B are water and methnaol, respectively, both with 0.1% formic acid; Gradient elution: from A/B (95/5) to A/B (100/0) in 7min, kept for 4 min, then back to A/B (95/5) in 0.1 min, and maintained for additional 1.9 min (13min in total).; Injection volume: 10 μL
Num peaks: 10
73.03139 5582
73.04715 6853
73.06542 6883
147.05008 2006
147.06706 1296
147.08524 1447
267.00085 2382
281.04507 2132
281.056 2103
393.29697 127825
Name: bis(2-ethylhexyl) adipate
PrecursorMZ: 371.3171
PrecursorType: [M+H]+
IonMode: Positive
Formula: C22H42O4
SMILES: CCCCC(CC)COC(=O)CCCCC(=O)OCC(CC)CCCC
InChI: 
InChIKey: SAOKZLXYCUGLFA-UHFFFAOYSA-N
RetentionTime: 8.599083
CCS: 
CollisionEnergy: 20-40 eV
InstrumentType: UPLC-QTOF-MS
Comment: PI: Cristina Nerin; Data collector: QiZhi Su, GUIA, University of Zaragoza, Spain; Collision energy: 20-40 V; Instrument: Waters HPLC-QTOF-MS (Xevo G2 QTof); Ionization: ESI; Deconvoluted by MS-DIAL; Column: Waters AtlantisTM premier BEH C18 AX column (2.1 × 100mm x 1.7μm); Flow rate: 0.3mL/min; Mobile phase A and B are water and methnaol, respectively, both with 0.1% formic acid; Gradient elution: from A/B (95/5) to A/B (100/0) in 7min, kept for 4 min, then back to A/B (95/5) in 0.1 min, and maintained for additional 1.9 min (13min in total).; Injection volume: 10 μL
Num peaks: 28
55.04107 369
57.07048 831
71.08588 4635
83.04946 1039
97.06471 429
97.07493 379
101.06004 17728
102.06688 583
102.07211 634
111.04433 29221
112.04617 854
112.05151 854
115.07648 587
115.09532 1276
123.00025 333
123.01515 350
123.02775 336
129.05495 21585
130.05737 811
130.06311 834
149.08119 790
167.00285 1597
185.01378 2788
281.17322 1475
297.13885 3524
298.14267 349
298.15381 310
331.07068 295
Name: bis(2-ethylhexyl) adipate
PrecursorMZ: 409.2736
PrecursorType: [M+K]+
IonMode: Positive
Formula: C22H42O4
SMILES: CCCCC(CC)COC(=O)CCCCC(=O)OCC(CC)CCCC
InChI: 
InChIKey: SAOKZLXYCUGLFA-UHFFFAOYSA-N
RetentionTime: 8.599083
CCS: 
CollisionEnergy: 20-40 eV
InstrumentType: UPLC-QTOF-MS
Comment: PI: Cristina Nerin; Data collector: QiZhi Su, GUIA, University of Zaragoza, Spain; Collision energy: 20-40 V; Instrument: Waters HPLC-QTOF-MS (Xevo G2 QTof); Ionization: ESI; Deconvoluted by MS-DIAL; Column: Waters AtlantisTM premier BEH C18 AX column (2.1 × 100mm x 1.7μm); Flow rate: 0.3mL/min; Mobile phase A and B are water and methnaol, respectively, both with 0.1% formic acid; Gradient elution: from A/B (95/5) to A/B (100/0) in 7min, kept for 4 min, then back to A/B (95/5) in 0.1 min, and maintained for additional 1.9 min (13min in total).; Injection volume: 10 μL
Num peaks: 14
55.04107 1383
71.08588 4635
83.04946 2613
101.06004 19058
111.04433 29221
129.05495 21585
167.00285 1599
185.01378 2802
281.17322 1475
297.13885 3524
393.29715 134055
394.30051 26051
395.30453 2152
395.31982 2164
Name: bis(2-ethylhexyl) adipate
PrecursorMZ: 763.6075
PrecursorType: [2M+Na]+
IonMode: Positive
Formula: C22H42O4
SMILES: CCCCC(CC)COC(=O)CCCCC(=O)OCC(CC)CCCC
InChI: 
InChIKey: SAOKZLXYCUGLFA-UHFFFAOYSA-N
RetentionTime: 8.606684
CCS: 
CollisionEnergy: 20-40 eV
InstrumentType: UPLC-QTOF-MS
Comment: PI: Cristina Nerin; Data collector: QiZhi Su, GUIA, University of Zaragoza, Spain; Collision energy: 20-40 V; Instrument: Waters HPLC-QTOF-MS (Xevo G2 QTof); Ionization: ESI; Deconvoluted by MS-DIAL; Column: Waters AtlantisTM premier BEH C18 AX column (2.1 × 100mm x 1.7μm); Flow rate: 0.3mL/min; Mobile phase A and B are water and methnaol, respectively, both with 0.1% formic acid; Gradient elution: from A/B (95/5) to A/B (100/0) in 7min, kept for 4 min, then back to A/B (95/5) in 0.1 min, and maintained for additional 1.9 min (13min in total).; Injection volume: 10 μL
Num peaks: 4
71.08606 5239
115.0592 1604
393.29749 138007
394.30106 26372
Name: bis(2-ethylhexyl) adipate
PrecursorMZ: 393.2989
PrecursorType: [M+Na]+
IonMode: Positive
Formula: C22H42O4
SMILES: CCCCC(CC)COC(=O)CCCCC(=O)OCC(CC)CCCC
InChI: 
InChIKey: SAOKZLXYCUGLFA-UHFFFAOYSA-N
RetentionTime: 8.6105
CCS: 
CollisionEnergy: 20-40 eV
InstrumentType: UPLC-QTOF-MS
Comment: PI: Cristina Nerin; Data collector: QiZhi Su, GUIA, University of Zaragoza, Spain; Collision energy: 20-40 V; Instrument: Waters HPLC-QTOF-MS (Xevo G2 QTof); Ionization: ESI; Deconvoluted by MS-DIAL; Column: Waters AtlantisTM premier BEH C18 AX column (2.1 × 100mm x 1.7μm); Flow rate: 0.3mL/min; Mobile phase A and B are water and methnaol, respectively, both with 0.1% formic acid; Gradient elution: from A/B (95/5) to A/B (100/0) in 7min, kept for 4 min, then back to A/B (95/5) in 0.1 min, and maintained for additional 1.9 min (13min in total).; Injection volume: 10 μL
Num peaks: 2
71.08613 5280
393.29718 140247
Name: Antioxidante L
PrecursorMZ: 532.4395
PrecursorType: [M+NH4]+
IonMode: Positive
Formula: C30H58O4S
SMILES: CCCCCCCCCCCCOC(=O)CCSCCC(=O)OCCCCCCCCCCCC
InChI: 
InChIKey: GHKOFFNLGXMVNJ-UHFFFAOYSA-N
RetentionTime: 10.73692
CCS: 
CollisionEnergy: 20-40 eV
InstrumentType: UPLC-QTOF-MS
Comment: PI: Cristina Nerin; Data collector: QiZhi Su, GUIA, University of Zaragoza, Spain; Collision energy: 20-40 V; Instrument: Waters HPLC-QTOF-MS (Xevo G2 QTof); Ionization: ESI; Deconvoluted by MS-DIAL; Column: Waters AtlantisTM premier BEH C18 AX column (2.1 × 100mm x 1.7μm); Flow rate: 0.3mL/min; Mobile phase A and B are water and methnaol, respectively, both with 0.1% formic acid; Gradient elution: from A/B (95/5) to A/B (100/0) in 7min, kept for 4 min, then back to A/B (95/5) in 0.1 min, and maintained for additional 1.9 min (13min in total).; Injection volume: 10 μL
Num peaks: 80
60.07257 87
60.08233 92
61.00728 61
61.0135 61
67.05152 101
67.05698 100
67.06252 103
67.06732 103
70.06995 28
73.00986 82
73.02092 177
73.03672 23
84.95645 31
84.96181 29
87.02583 104
87.03438 86
87.04213 94
88.99124 509
89.00596 509
99.09341 28
106.99998 30
115.02184 254
115.0422 2176
117.01875 46
121.08344 38
143.0166 259
143.13582 23
145.03874 63
161.02762 167
161.03549 184
161.04811 547
161.09988 23
161.10939 23
173.06085 25
188.99742 42
189.11926 25
198.00214 32
198.01486 27
198.96469 32
198.97751 30
201.00432 63
201.01768 63
202.87535 42
202.88377 36
202.96521 28
203.00206 58
205.94031 29
207.19241 22
217.1687 32
232.95746 53
234.96295 30
243.1051 32
266.99643 28
267.00485 36
282.28253 29
289.10464 35
291.22833 32
326.98108 22
329.2142 149
331.10172 23
331.11493 40
331.13327 43
353.23462 32
386.19727 52
395.23157 25
400.14264 22
403.14343 28
447.49078 22
451.73682 25
459.26559 29
501.38736 37
509.14832 23
515.40417 184
515.42413 130
515.47577 30
516.42438 100
528.38751 25
532.44714 41
532.80872 24
532.86877 23
Name: Antioxidante L
PrecursorMZ: 515.4127
PrecursorType: [M+H]+
IonMode: Positive
Formula: C30H58O4S
SMILES: CCCCCCCCCCCCOC(=O)CCSCCC(=O)OCCCCCCCCCCCC
InChI: 
InChIKey: GHKOFFNLGXMVNJ-UHFFFAOYSA-N
RetentionTime: 10.74453
CCS: 
CollisionEnergy: 20-40 eV
InstrumentType: UPLC-QTOF-MS
Comment: PI: Cristina Nerin; Data collector: QiZhi Su, GUIA, University of Zaragoza, Spain; Collision energy: 20-40 V; Instrument: Waters HPLC-QTOF-MS (Xevo G2 QTof); Ionization: ESI; Deconvoluted by MS-DIAL; Column: Waters AtlantisTM premier BEH C18 AX column (2.1 × 100mm x 1.7μm); Flow rate: 0.3mL/min; Mobile phase A and B are water and methnaol, respectively, both with 0.1% formic acid; Gradient elution: from A/B (95/5) to A/B (100/0) in 7min, kept for 4 min, then back to A/B (95/5) in 0.1 min, and maintained for additional 1.9 min (13min in total).; Injection volume: 10 μL
Num peaks: 36
55.01661 2805
55.02125 2837
57.06987 536
71.06653 729
71.08209 1182
71.0872 1158
85.09029 910
85.10304 888
89.00601 6973
115.02186 7465
143.01642 51994
143.03586 52128
144.02037 1565
144.99599 893
145.0145 837
161.02713 1103
216.98543 2909
221.08752 3301
282.05206 6905
283.0426 3429
283.05133 3285
283.06387 3422
329.10684 606
329.1261 774
329.21283 2871
343.00604 1226
366.18915 1369
366.2048 1374
366.69635 587
366.70801 532
385.17099 6858
386.17932 759
450.29425 3375
450.79382 1536
451.28513 835
451.29816 761
Name: bis (2ethylhexyl) sebacate
PrecursorMZ: 449.3609
PrecursorType: [M+Na]+
IonMode: Positive
Formula: C26H50O4
SMILES: CCCCC(CC)COC(=O)CCCCCCCCC(=O)OCC(CC)CCCC
InChI: 
InChIKey: VJHINFRRDQUWOJ-UHFFFAOYSA-N
RetentionTime: 9.212967
CCS: 
CollisionEnergy: 20-40 eV
InstrumentType: UPLC-QTOF-MS
Comment: PI: Cristina Nerin; Data collector: QiZhi Su, GUIA, University of Zaragoza, Spain; Collision energy: 20-40 V; Instrument: Waters HPLC-QTOF-MS (Xevo G2 QTof); Ionization: ESI; Deconvoluted by MS-DIAL; Column: Waters AtlantisTM premier BEH C18 AX column (2.1 × 100mm x 1.7μm); Flow rate: 0.3mL/min; Mobile phase A and B are water and methnaol, respectively, both with 0.1% formic acid; Gradient elution: from A/B (95/5) to A/B (100/0) in 7min, kept for 4 min, then back to A/B (95/5) in 0.1 min, and maintained for additional 1.9 min (13min in total).; Injection volume: 10 μL
Num peaks: 12
69.06989 1393
71.08614 4434
121.10159 4912
139.11214 7811
185.11784 17900
223.06602 4427
241.07576 16697
257.0459 1382
257.05975 1383
337.23495 1363
353.20151 4106
449.35965 131270
Name: bis (2ethylhexyl) sebacate
PrecursorMZ: 444.4057
PrecursorType: [M+NH4]+
IonMode: Positive
Formula: C26H50O4
SMILES: CCCCC(CC)COC(=O)CCCCCCCCC(=O)OCC(CC)CCCC
InChI: 
InChIKey: VJHINFRRDQUWOJ-UHFFFAOYSA-N
RetentionTime: 9.216766
CCS: 
CollisionEnergy: 20-40 eV
InstrumentType: UPLC-QTOF-MS
Comment: PI: Cristina Nerin; Data collector: QiZhi Su, GUIA, University of Zaragoza, Spain; Collision energy: 20-40 V; Instrument: Waters HPLC-QTOF-MS (Xevo G2 QTof); Ionization: ESI; Deconvoluted by MS-DIAL; Column: Waters AtlantisTM premier BEH C18 AX column (2.1 × 100mm x 1.7μm); Flow rate: 0.3mL/min; Mobile phase A and B are water and methnaol, respectively, both with 0.1% formic acid; Gradient elution: from A/B (95/5) to A/B (100/0) in 7min, kept for 4 min, then back to A/B (95/5) in 0.1 min, and maintained for additional 1.9 min (13min in total).; Injection volume: 10 μL
Num peaks: 73
57.07032 417
69.06993 1421
71.08569 3023
72.09071 154
72.09738 154
81.07006 715
82.07635 135
83.04954 131
91.04071 137
91.05584 157
91.06455 163
93.07018 531
95.086 437
96.08447 152
96.09122 146
97.10236 742
107.08636 256
111.06713 118
111.11835 322
121.10133 3207
122.08988 197
122.09897 145
122.10815 165
139.11186 4947
140.10065 409
140.11763 474
140.12408 478
140.13681 373
149.09645 382
157.12709 134
163.04623 176
163.06509 118
167.03955 183
167.05292 162
167.1093 175
167.12204 150
185.11758 11246
186.12183 1059
205.05342 165
205.0636 164
207.07436 223
207.09088 204
223.06723 2902
224.07024 176
224.0815 184
225.10001 369
226.09547 122
237.07758 257
237.08968 246
239.02805 516
239.04123 500
241.02405 291
241.03964 196
241.07542 11634
242.08168 799
243.04231 127
256.05719 126
257.04672 924
257.05942 954
258.0466 134
258.05841 134
259.05002 636
261.04626 259
261.05515 289
337.23569 978
353.20053 3229
354.20349 316
354.21964 309
369.17578 194
369.18863 142
371.1601 242
371.17471 171
429.11356 250
Name: Antioxidante L
PrecursorMZ: 553.3692
PrecursorType: [M+K]+
IonMode: Positive
Formula: C30H58O4S
SMILES: CCCCCCCCCCCCOC(=O)CCSCCC(=O)OCCCCCCCCCCCC
InChI: 
InChIKey: GHKOFFNLGXMVNJ-UHFFFAOYSA-N
RetentionTime: 10.74453
CCS: 
CollisionEnergy: 20-40 eV
InstrumentType: UPLC-QTOF-MS
Comment: PI: Cristina Nerin; Data collector: QiZhi Su, GUIA, University of Zaragoza, Spain; Collision energy: 20-40 V; Instrument: Waters HPLC-QTOF-MS (Xevo G2 QTof); Ionization: ESI; Deconvoluted by MS-DIAL; Column: Waters AtlantisTM premier BEH C18 AX column (2.1 × 100mm x 1.7μm); Flow rate: 0.3mL/min; Mobile phase A and B are water and methnaol, respectively, both with 0.1% formic acid; Gradient elution: from A/B (95/5) to A/B (100/0) in 7min, kept for 4 min, then back to A/B (95/5) in 0.1 min, and maintained for additional 1.9 min (13min in total).; Injection volume: 10 μL
Num peaks: 28
55.01661 1675
89.00601 7888
115.02186 8474
143.01642 50278
144.02037 1818
161.02713 1639
216.98543 2627
221.08752 2671
237.08121 1787
281.05136 2509
329.21283 2757
355.07092 5862
385.17099 6626
429.08801 4557
430.09393 1598
450.29425 3104
450.79382 1593
503.10614 1843
534.38361 22444
534.88647 12567
535.38733 5720
535.89209 2063
537.39319 150045
538.39618 42615
539.39508 9546
542.37402 3212
542.87659 1918
543.37714 1595
Name: bis (2ethylhexyl) sebacate
PrecursorMZ: 465.3347
PrecursorType: [M+K]+
IonMode: Positive
Formula: C26H50O4
SMILES: CCCCC(CC)COC(=O)CCCCCCCCC(=O)OCC(CC)CCCC
InChI: 
InChIKey: VJHINFRRDQUWOJ-UHFFFAOYSA-N
RetentionTime: 9.216766
CCS: 
CollisionEnergy: 20-40 eV
InstrumentType: UPLC-QTOF-MS
Comment: PI: Cristina Nerin; Data collector: QiZhi Su, GUIA, University of Zaragoza, Spain; Collision energy: 20-40 V; Instrument: Waters HPLC-QTOF-MS (Xevo G2 QTof); Ionization: ESI; Deconvoluted by MS-DIAL; Column: Waters AtlantisTM premier BEH C18 AX column (2.1 × 100mm x 1.7μm); Flow rate: 0.3mL/min; Mobile phase A and B are water and methnaol, respectively, both with 0.1% formic acid; Gradient elution: from A/B (95/5) to A/B (100/0) in 7min, kept for 4 min, then back to A/B (95/5) in 0.1 min, and maintained for additional 1.9 min (13min in total).; Injection volume: 10 μL
Num peaks: 14
71.08569 2238
223.06723 3564
239.02805 565
239.04123 558
241.07542 13263
242.08168 872
257.04672 1060
257.05942 1074
259.05002 725
337.23569 1015
353.20053 3670
449.35892 46373
450.3631 11647
451.36594 1390
Name: bis (2ethylhexyl) sebacate
PrecursorMZ: 875.7333
PrecursorType: [2M+Na]+
IonMode: Positive
Formula: C26H50O4
SMILES: CCCCC(CC)COC(=O)CCCCCCCCC(=O)OCC(CC)CCCC
InChI: 
InChIKey: VJHINFRRDQUWOJ-UHFFFAOYSA-N
RetentionTime: 9.216766
CCS: 
CollisionEnergy: 20-40 eV
InstrumentType: UPLC-QTOF-MS
Comment: PI: Cristina Nerin; Data collector: QiZhi Su, GUIA, University of Zaragoza, Spain; Collision energy: 20-40 V; Instrument: Waters HPLC-QTOF-MS (Xevo G2 QTof); Ionization: ESI; Deconvoluted by MS-DIAL; Column: Waters AtlantisTM premier BEH C18 AX column (2.1 × 100mm x 1.7μm); Flow rate: 0.3mL/min; Mobile phase A and B are water and methnaol, respectively, both with 0.1% formic acid; Gradient elution: from A/B (95/5) to A/B (100/0) in 7min, kept for 4 min, then back to A/B (95/5) in 0.1 min, and maintained for additional 1.9 min (13min in total).; Injection volume: 10 μL
Num peaks: 10
71.08569 8160
73.06679 1264
140.11763 1849
140.12408 1844
149.09645 2270
185.11758 53041
186.12183 3817
449.35892 120737
450.3631 29164
451.36594 2567
Name: Antioxidante L
PrecursorMZ: 1051.802
PrecursorType: [2M+Na]+
IonMode: Positive
Formula: C30H58O4S
SMILES: CCCCCCCCCCCCOC(=O)CCSCCC(=O)OCCCCCCCCCCCC
InChI: 
InChIKey: GHKOFFNLGXMVNJ-UHFFFAOYSA-N
RetentionTime: 10.74453
CCS: 
CollisionEnergy: 20-40 eV
InstrumentType: UPLC-QTOF-MS
Comment: PI: Cristina Nerin; Data collector: QiZhi Su, GUIA, University of Zaragoza, Spain; Collision energy: 20-40 V; Instrument: Waters HPLC-QTOF-MS (Xevo G2 QTof); Ionization: ESI; Deconvoluted by MS-DIAL; Column: Waters AtlantisTM premier BEH C18 AX column (2.1 × 100mm x 1.7μm); Flow rate: 0.3mL/min; Mobile phase A and B are water and methnaol, respectively, both with 0.1% formic acid; Gradient elution: from A/B (95/5) to A/B (100/0) in 7min, kept for 4 min, then back to A/B (95/5) in 0.1 min, and maintained for additional 1.9 min (13min in total).; Injection volume: 10 μL
Num peaks: 28
55.01661 1675
89.00601 7888
115.02186 8474
143.01642 50278
144.02037 1818
161.02713 1639
216.98543 2627
221.08752 2671
237.08121 1787
281.05136 2509
329.21283 2757
355.07092 5862
385.17099 6626
429.08801 4557
430.09393 1598
450.29425 3104
450.79382 1593
503.10614 1843
534.38361 22444
534.88647 12567
535.38733 5720
535.89209 2063
537.39319 150045
538.39618 42615
539.39508 9546
542.37402 3212
542.87659 1918
543.37714 1595
Name: bis (2ethylhexyl) sebacate
PrecursorMZ: 427.3789
PrecursorType: [M+H]+
IonMode: Positive
Formula: C26H50O4
SMILES: CCCCC(CC)COC(=O)CCCCCCCCC(=O)OCC(CC)CCCC
InChI: 
InChIKey: VJHINFRRDQUWOJ-UHFFFAOYSA-N
RetentionTime: 9.220583
CCS: 
CollisionEnergy: 20-40 eV
InstrumentType: UPLC-QTOF-MS
Comment: PI: Cristina Nerin; Data collector: QiZhi Su, GUIA, University of Zaragoza, Spain; Collision energy: 20-40 V; Instrument: Waters HPLC-QTOF-MS (Xevo G2 QTof); Ionization: ESI; Deconvoluted by MS-DIAL; Column: Waters AtlantisTM premier BEH C18 AX column (2.1 × 100mm x 1.7μm); Flow rate: 0.3mL/min; Mobile phase A and B are water and methnaol, respectively, both with 0.1% formic acid; Gradient elution: from A/B (95/5) to A/B (100/0) in 7min, kept for 4 min, then back to A/B (95/5) in 0.1 min, and maintained for additional 1.9 min (13min in total).; Injection volume: 10 μL
Num peaks: 4
69.07013 785
71.08582 7677
185.11743 52432
237.08195 880
Name: Antioxidante L
PrecursorMZ: 537.3945
PrecursorType: [M+Na]+
IonMode: Positive
Formula: C30H58O4S
SMILES: CCCCCCCCCCCCOC(=O)CCSCCC(=O)OCCCCCCCCCCCC
InChI: 
InChIKey: GHKOFFNLGXMVNJ-UHFFFAOYSA-N
RetentionTime: 10.74835
CCS: 
CollisionEnergy: 20-40 eV
InstrumentType: UPLC-QTOF-MS
Comment: PI: Cristina Nerin; Data collector: QiZhi Su, GUIA, University of Zaragoza, Spain; Collision energy: 20-40 V; Instrument: Waters HPLC-QTOF-MS (Xevo G2 QTof); Ionization: ESI; Deconvoluted by MS-DIAL; Column: Waters AtlantisTM premier BEH C18 AX column (2.1 × 100mm x 1.7μm); Flow rate: 0.3mL/min; Mobile phase A and B are water and methnaol, respectively, both with 0.1% formic acid; Gradient elution: from A/B (95/5) to A/B (100/0) in 7min, kept for 4 min, then back to A/B (95/5) in 0.1 min, and maintained for additional 1.9 min (13min in total).; Injection volume: 10 μL
Num peaks: 22
55.0182 3167
71.08739 1779
89.00654 7957
115.02206 8617
143.01656 51495
144.02 1802
161.02718 1759
216.98586 3317
221.08629 2586
281.05246 2900
329.21829 2937
355.07077 6039
356.07239 1924
385.17273 6657
429.08972 5039
430.09238 1556
450.29459 3123
503.10928 1593
534.38422 21008
534.8855 12387
535.39026 5608
537.39374 154604
Name: dibutyl phtalate
PrecursorMZ: 579.2946
PrecursorType: [2M+Na]+
IonMode: Positive
Formula: C16H22O4
SMILES: CCCCOC(=O)C1=CC=CC=C1C(=O)OCCCC
InChI: 
InChIKey: DOIRQSBPFJWKBE-UHFFFAOYSA-N
RetentionTime: 7.303633
CCS: 
CollisionEnergy: 20-40 eV
InstrumentType: UPLC-QTOF-MS
Comment: PI: Cristina Nerin; Data collector: QiZhi Su, GUIA, University of Zaragoza, Spain; Collision energy: 20-40 V; Instrument: Waters HPLC-QTOF-MS (Xevo G2 QTof); Ionization: ESI; Deconvoluted by MS-DIAL; Column: Waters AtlantisTM premier BEH C18 AX column (2.1 × 100mm x 1.7μm); Flow rate: 0.3mL/min; Mobile phase A and B are water and methnaol, respectively, both with 0.1% formic acid; Gradient elution: from A/B (95/5) to A/B (100/0) in 7min, kept for 4 min, then back to A/B (95/5) in 0.1 min, and maintained for additional 1.9 min (13min in total).; Injection volume: 10 μL
Num peaks: 24
65.01907 55710
65.03842 69148
65.05213 69122
66.04227 2423
77.03883 11627
77.05676 11691
79.05293 774
92.02708 2595
93.03346 48435
94.04488 742
105.03058 1507
105.03654 1507
105.04478 1500
121.02843 31316
122.03373 1659
122.04609 1655
133.02815 3088
133.03398 3088
133.04794 3131
135.04384 1916
149.02351 60094
150.02737 2515
163.03917 4419
301.14133 3826
Name: bis (2ethylhexyl) sebacate
PrecursorMZ: 427.3795
PrecursorType: [M+H]+
IonMode: Positive
Formula: C26H50O4
SMILES: CCCCC(CC)COC(=O)CCCCCCCCC(=O)OCC(CC)CCCC
InChI: 
InChIKey: VJHINFRRDQUWOJ-UHFFFAOYSA-N
RetentionTime: 9.273883
CCS: 
CollisionEnergy: 20-40 eV
InstrumentType: UPLC-QTOF-MS
Comment: PI: Cristina Nerin; Data collector: QiZhi Su, GUIA, University of Zaragoza, Spain; Collision energy: 20-40 V; Instrument: Waters HPLC-QTOF-MS (Xevo G2 QTof); Ionization: ESI; Deconvoluted by MS-DIAL; Column: Waters AtlantisTM premier BEH C18 AX column (2.1 × 100mm x 1.7μm); Flow rate: 0.3mL/min; Mobile phase A and B are water and methnaol, respectively, both with 0.1% formic acid; Gradient elution: from A/B (95/5) to A/B (100/0) in 7min, kept for 4 min, then back to A/B (95/5) in 0.1 min, and maintained for additional 1.9 min (13min in total).; Injection volume: 10 μL
Num peaks: 133
55.02089 43
57.07106 99
68.05594 74
68.06257 83
70.07384 87
71.07329 165
71.08588 171
72.07803 67
72.08579 60
72.09146 69
74.09303 218
74.09713 219
74.10296 219
81.05247 1201
81.07021 1039
82.06621 57
82.07587 57
83.03548 284
83.04984 193
83.08707 53
83.0921 42
85.05602 226
85.06599 216
87.0468 127
87.05115 126
87.08379 49
87.10001 47
91.05563 328
94.06095 78
94.06784 147
94.07227 147
94.0793 143
95.08567 653
95.10365 704
99.08308 81
103.05293 48
106.06893 40
107.08716 223
108.07957 46
108.08701 40
108.09595 52
112.10285 59
112.12189 80
113.14105 38
115.08017 57
115.10506 40
119.08827 107
122.10403 1367
123.10184 86
128.06578 37
131.08759 69
132.0921 145
133.05365 43
134.08865 56
134.09726 50
134.10843 59
135.09358 37
139.1123 1707
145.08379 37
149.12029 106
150.10565 75
150.11621 65
158.11934 36
167.02257 54
167.0397 69
168.10133 67
168.11377 64
171.11993 42
183.00787 71
185.11777 3550
199.15211 669
207.01596 85
207.09387 43
207.11319 94
208.07394 54
209.13527 43
209.14496 62
214.0256 37
217.06094 40
221.06563 157
224.06154 44
224.0748 59
225.06447 36
225.08939 189
225.09904 189
225.11452 257
226.08916 48
226.10582 43
227.09077 88
227.10077 92
238.03235 117
238.04797 142
239.03438 63
239.04956 126
241.03905 224
242.05151 55
242.0778 141
243.04097 59
256.04587 87
256.05969 83
258.05185 63
259.03879 97
259.05112 200
259.06128 137
259.08154 56
260.06094 52
263.04095 47
263.04935 47
265.03741 234
279.07553 36
288.07199 105
288.08167 103
289.07755 55
289.08951 60
319.23407 41
337.23434 267
338.22461 121
338.24014 42
341.01508 84
354.20663 95
354.23315 63
357.19476 51
357.21347 53
368.17874 37
370.17725 43
370.19861 57
371.17221 123
371.18408 94
390.79773 63
391.29636 48
427.21689 46
427.37271 78
427.38889 92
Name: bis (2ethylhexyl) sebacate
PrecursorMZ: 444.4053
PrecursorType: [M+NH4]+
IonMode: Positive
Formula: C26H50O4
SMILES: CCCCC(CC)COC(=O)CCCCCCCCC(=O)OCC(CC)CCCC
InChI: 
InChIKey: VJHINFRRDQUWOJ-UHFFFAOYSA-N
RetentionTime: 9.281484
CCS: 
CollisionEnergy: 20-40 eV
InstrumentType: UPLC-QTOF-MS
Comment: PI: Cristina Nerin; Data collector: QiZhi Su, GUIA, University of Zaragoza, Spain; Collision energy: 20-40 V; Instrument: Waters HPLC-QTOF-MS (Xevo G2 QTof); Ionization: ESI; Deconvoluted by MS-DIAL; Column: Waters AtlantisTM premier BEH C18 AX column (2.1 × 100mm x 1.7μm); Flow rate: 0.3mL/min; Mobile phase A and B are water and methnaol, respectively, both with 0.1% formic acid; Gradient elution: from A/B (95/5) to A/B (100/0) in 7min, kept for 4 min, then back to A/B (95/5) in 0.1 min, and maintained for additional 1.9 min (13min in total).; Injection volume: 10 μL
Num peaks: 15
57.07 653
57.07556 653
71.08587 591
72.0871 285
72.09382 273
72.09883 284
73.08286 282
140.1172 328
149.09688 528
185.11754 26809
186.12257 1326
199.15372 284
223.06531 851
237.09625 596
257.04913 724
Name: bis (2ethylhexyl) sebacate
PrecursorMZ: 465.3361
PrecursorType: [M+K]+
IonMode: Positive
Formula: C26H50O4
SMILES: CCCCC(CC)COC(=O)CCCCCCCCC(=O)OCC(CC)CCCC
InChI: 
InChIKey: VJHINFRRDQUWOJ-UHFFFAOYSA-N
RetentionTime: 9.281484
CCS: 
CollisionEnergy: 20-40 eV
InstrumentType: UPLC-QTOF-MS
Comment: PI: Cristina Nerin; Data collector: QiZhi Su, GUIA, University of Zaragoza, Spain; Collision energy: 20-40 V; Instrument: Waters HPLC-QTOF-MS (Xevo G2 QTof); Ionization: ESI; Deconvoluted by MS-DIAL; Column: Waters AtlantisTM premier BEH C18 AX column (2.1 × 100mm x 1.7μm); Flow rate: 0.3mL/min; Mobile phase A and B are water and methnaol, respectively, both with 0.1% formic acid; Gradient elution: from A/B (95/5) to A/B (100/0) in 7min, kept for 4 min, then back to A/B (95/5) in 0.1 min, and maintained for additional 1.9 min (13min in total).; Injection volume: 10 μL
Num peaks: 65
71.04639 79
71.05127 85
71.08587 1780
72.0871 313
72.09382 319
72.09883 312
73.08286 254
74.08737 256
74.09678 219
74.10113 217
85.05602 137
85.06415 150
108.07997 80
108.08821 99
108.09878 89
123.08159 98
123.10401 125
132.08217 131
132.09201 127
140.1172 205
149.09688 450
157.10674 194
158.97708 75
158.99443 84
167.02724 127
167.03969 106
167.09077 83
167.10818 210
167.11977 174
185.11754 1218
186.12257 1415
187.12248 99
199.13551 203
199.15372 285
217.1615 78
223.06531 2930
237.04477 89
237.09625 424
239.03874 222
240.03899 75
241.07489 7351
242.07722 127
242.08812 83
243.08232 139
243.10069 135
257.04913 1092
259.04858 171
260.04413 81
261.04553 167
288.06671 146
302.03024 101
302.04962 114
353.20065 1860
356.05133 139
369.16693 200
369.18149 237
370.16742 83
373.15823 88
390.29211 97
446.34399 542
446.36066 314
446.84372 208
446.8707 171
449.30856 91
451.36774 1837
Name: bis (2ethylhexyl) sebacate
PrecursorMZ: 875.7307
PrecursorType: [2M+Na]+
IonMode: Positive
Formula: C26H50O4
SMILES: CCCCC(CC)COC(=O)CCCCCCCCC(=O)OCC(CC)CCCC
InChI: 
InChIKey: VJHINFRRDQUWOJ-UHFFFAOYSA-N
RetentionTime: 9.281484
CCS: 
CollisionEnergy: 20-40 eV
InstrumentType: UPLC-QTOF-MS
Comment: PI: Cristina Nerin; Data collector: QiZhi Su, GUIA, University of Zaragoza, Spain; Collision energy: 20-40 V; Instrument: Waters HPLC-QTOF-MS (Xevo G2 QTof); Ionization: ESI; Deconvoluted by MS-DIAL; Column: Waters AtlantisTM premier BEH C18 AX column (2.1 × 100mm x 1.7μm); Flow rate: 0.3mL/min; Mobile phase A and B are water and methnaol, respectively, both with 0.1% formic acid; Gradient elution: from A/B (95/5) to A/B (100/0) in 7min, kept for 4 min, then back to A/B (95/5) in 0.1 min, and maintained for additional 1.9 min (13min in total).; Injection volume: 10 μL
Num peaks: 19
71.08587 1124
133.10596 380
140.1172 558
149.09688 795
185.11754 9854
186.12257 768
223.06531 2047
239.03874 372
241.07489 5779
257.04913 484
337.21979 615
337.23822 343
353.20065 2283
354.21277 351
371.18204 312
449.3587 29199
450.36261 6690
451.36774 870
667.45129 344
Name: bis (2ethylhexyl) sebacate
PrecursorMZ: 449.3608
PrecursorType: [M+Na]+
IonMode: Positive
Formula: C26H50O4
SMILES: CCCCC(CC)COC(=O)CCCCCCCCC(=O)OCC(CC)CCCC
InChI: 
InChIKey: VJHINFRRDQUWOJ-UHFFFAOYSA-N
RetentionTime: 9.2853
CCS: 
CollisionEnergy: 20-40 eV
InstrumentType: UPLC-QTOF-MS
Comment: PI: Cristina Nerin; Data collector: QiZhi Su, GUIA, University of Zaragoza, Spain; Collision energy: 20-40 V; Instrument: Waters HPLC-QTOF-MS (Xevo G2 QTof); Ionization: ESI; Deconvoluted by MS-DIAL; Column: Waters AtlantisTM premier BEH C18 AX column (2.1 × 100mm x 1.7μm); Flow rate: 0.3mL/min; Mobile phase A and B are water and methnaol, respectively, both with 0.1% formic acid; Gradient elution: from A/B (95/5) to A/B (100/0) in 7min, kept for 4 min, then back to A/B (95/5) in 0.1 min, and maintained for additional 1.9 min (13min in total).; Injection volume: 10 μL
Num peaks: 6
71.08544 2462
81.09045 4769
223.06517 4167
241.07549 14396
353.20013 3581
449.35876 140417
Name: dibutyl phtalate
PrecursorMZ: 301.1426
PrecursorType: [M+Na]+
IonMode: Positive
Formula: C16H22O4
SMILES: CCCCOC(=O)C1=CC=CC=C1C(=O)OCCCC
InChI: 
InChIKey: DOIRQSBPFJWKBE-UHFFFAOYSA-N
RetentionTime: 7.307433
CCS: 
CollisionEnergy: 20-40 eV
InstrumentType: UPLC-QTOF-MS
Comment: PI: Cristina Nerin; Data collector: QiZhi Su, GUIA, University of Zaragoza, Spain; Collision energy: 20-40 V; Instrument: Waters HPLC-QTOF-MS (Xevo G2 QTof); Ionization: ESI; Deconvoluted by MS-DIAL; Column: Waters AtlantisTM premier BEH C18 AX column (2.1 × 100mm x 1.7μm); Flow rate: 0.3mL/min; Mobile phase A and B are water and methnaol, respectively, both with 0.1% formic acid; Gradient elution: from A/B (95/5) to A/B (100/0) in 7min, kept for 4 min, then back to A/B (95/5) in 0.1 min, and maintained for additional 1.9 min (13min in total).; Injection volume: 10 μL
Num peaks: 28
65.03851 69671
66.04276 2362
77.03882 11613
79.03945 725
79.05227 776
79.05892 777
79.06266 772
92.0256 2731
92.03022 2727
93.03359 56816
94.03712 2079
105.03297 1523
121.02853 38417
122.03381 1652
133.02951 3080
135.04483 2887
149.00441 60994
149.02333 60654
150.02812 3568
163.03981 4395
167.99675 2409
176.99893 1130
177.01019 1145
204.97098 1465
204.98346 1439
217.05595 3490
261.04568 4907
301.14148 3674
Name: dibutyl phtalate
PrecursorMZ: 317.1177
PrecursorType: [M+K]+
IonMode: Positive
Formula: C16H22O4
SMILES: CCCCOC(=O)C1=CC=CC=C1C(=O)OCCCC
InChI: 
InChIKey: DOIRQSBPFJWKBE-UHFFFAOYSA-N
RetentionTime: 7.31125
CCS: 
CollisionEnergy: 20-40 eV
InstrumentType: UPLC-QTOF-MS
Comment: PI: Cristina Nerin; Data collector: QiZhi Su, GUIA, University of Zaragoza, Spain; Collision energy: 20-40 V; Instrument: Waters HPLC-QTOF-MS (Xevo G2 QTof); Ionization: ESI; Deconvoluted by MS-DIAL; Column: Waters AtlantisTM premier BEH C18 AX column (2.1 × 100mm x 1.7μm); Flow rate: 0.3mL/min; Mobile phase A and B are water and methnaol, respectively, both with 0.1% formic acid; Gradient elution: from A/B (95/5) to A/B (100/0) in 7min, kept for 4 min, then back to A/B (95/5) in 0.1 min, and maintained for additional 1.9 min (13min in total).; Injection volume: 10 μL
Num peaks: 28
65.03845 69666
65.05424 69666
66.03815 2361
66.04356 2362
77.03899 11612
79.05444 776
79.06229 773
92.01365 2707
92.02669 2730
93.03366 56816
94.0378 2079
105.03439 1523
121.02864 38417
122.03367 1651
133.02966 3080
135.04517 2886
149.02364 60654
150.02844 3566
163.03922 4394
163.05756 4431
167.99687 2409
177.00195 1156
177.0137 1105
204.97762 1447
204.98686 1396
217.05705 3490
261.04474 4903
301.14178 3983
Name: dibutyl phtalate
PrecursorMZ: 279.1614
PrecursorType: [M+H]+
IonMode: Positive
Formula: C16H22O4
SMILES: CCCCOC(=O)C1=CC=CC=C1C(=O)OCCCC
InChI: 
InChIKey: DOIRQSBPFJWKBE-UHFFFAOYSA-N
RetentionTime: 7.31505
CCS: 
CollisionEnergy: 20-40 eV
InstrumentType: UPLC-QTOF-MS
Comment: PI: Cristina Nerin; Data collector: QiZhi Su, GUIA, University of Zaragoza, Spain; Collision energy: 20-40 V; Instrument: Waters HPLC-QTOF-MS (Xevo G2 QTof); Ionization: ESI; Deconvoluted by MS-DIAL; Column: Waters AtlantisTM premier BEH C18 AX column (2.1 × 100mm x 1.7μm); Flow rate: 0.3mL/min; Mobile phase A and B are water and methnaol, respectively, both with 0.1% formic acid; Gradient elution: from A/B (95/5) to A/B (100/0) in 7min, kept for 4 min, then back to A/B (95/5) in 0.1 min, and maintained for additional 1.9 min (13min in total).; Injection volume: 10 μL
Num peaks: 26
65.03852 69671
66.04262 2362
66.05526 2359
77.0387 11613
79.0554 777
92.02663 2730
93.03364 56816
94.03767 2079
105.03439 1523
121.02853 38417
122.03235 1654
133.02989 3080
135.04456 2889
149.00537 60807
149.02364 60654
150.02788 3568
163.03957 4395
167.99733 2409
176.98383 1180
176.99976 1130
177.00883 1132
204.96574 957
204.97687 1447
204.98747 1370
217.05656 3490
261.04504 4904
Name: "2,2,4-Trimethyl-1,3-pentanediol diisobutyrate"
PrecursorMZ: 309.2045
PrecursorType: [M+Na]+
IonMode: Positive
Formula: C16H30O4
SMILES: CC(C)C(C(C)(C)COC(=O)C(C)C)OC(=O)C(C)C
InChI: 
InChIKey: OMVSWZDEEGIJJI-UHFFFAOYSA-N
RetentionTime: 7.554966
CCS: 
CollisionEnergy: 20-40 eV
InstrumentType: UPLC-QTOF-MS
Comment: PI: Cristina Nerin; Data collector: QiZhi Su, GUIA, University of Zaragoza, Spain; Collision energy: 20-40 V; Instrument: Waters HPLC-QTOF-MS (Xevo G2 QTof); Ionization: ESI; Deconvoluted by MS-DIAL; Column: Waters AtlantisTM premier BEH C18 AX column (2.1 × 100mm x 1.7μm); Flow rate: 0.3mL/min; Mobile phase A and B are water and methnaol, respectively, both with 0.1% formic acid; Gradient elution: from A/B (95/5) to A/B (100/0) in 7min, kept for 4 min, then back to A/B (95/5) in 0.1 min, and maintained for additional 1.9 min (13min in total).; Injection volume: 10 μL
Num peaks: 24
55.05398 221
55.05834 221
67.05421 148
67.06081 146
69.07031 8909
70.06516 405
70.07543 405
81.07195 110
83.08132 208
83.08853 209
83.09588 213
94.0649 137
94.07078 137
94.07729 133
111.10325 1671
111.11522 1656
111.12283 1657
121.06827 109
127.00761 2634
215.05949 528
215.071 537
221.14592 101
221.15919 117
309.20618 2976
Name: Lauric acid
PrecursorMZ: 239.1357
PrecursorType: [M+K]+
IonMode: Positive
Formula: C12H24O2
SMILES: CCCCCCCCCCCC(=O)O
InChI: 
InChIKey: POULHZVOKOAJMA-UHFFFAOYSA-N
RetentionTime: 8.046383
CCS: 
CollisionEnergy: 20-40 eV
InstrumentType: UPLC-QTOF-MS
Comment: PI: Cristina Nerin; Data collector: QiZhi Su, GUIA, University of Zaragoza, Spain; Collision energy: 20-40 V; Instrument: Waters HPLC-QTOF-MS (Xevo G2 QTof); Ionization: ESI; Deconvoluted by MS-DIAL; Column: Waters AtlantisTM premier BEH C18 AX column (2.1 × 100mm x 1.7μm); Flow rate: 0.3mL/min; Mobile phase A and B are water and methnaol, respectively, both with 0.1% formic acid; Gradient elution: from A/B (95/5) to A/B (100/0) in 7min, kept for 4 min, then back to A/B (95/5) in 0.1 min, and maintained for additional 1.9 min (13min in total).; Injection volume: 10 μL
Num peaks: 114
67.05644 374
67.07214 333
70.06425 113
70.07116 111
71.0855 197
71.0904 193
73.0295 1009
73.03683 853
73.04629 867
73.05299 852
73.06589 1030
77.03944 89
79.05585 403
81.06853 668
81.07372 665
81.09043 287
83.08654 430
83.0966 435
85.06757 117
85.07264 118
85.08363 173
85.09885 152
85.10376 149
85.11216 153
89.04178 390
89.06084 435
89.07162 413
91.05299 442
91.05856 437
91.06585 434
93.07015 491
93.07779 479
95.01727 85
95.08573 745
97.05116 195
97.06384 205
97.06934 202
105.06817 329
105.07409 330
107.04615 104
107.05251 102
107.07387 271
107.08498 272
107.09473 264
109.03365 222
109.06476 107
109.07677 92
109.08301 282
109.09978 304
109.10514 302
111.0443 175
111.08105 267
111.08611 262
117.08167 97
119.08843 286
121.07615 86
121.10187 278
123.04742 108
123.07341 110
123.08059 118
123.11182 171
123.11892 170
129.07843 89
131.06694 99
131.08498 181
131.09393 182
133.07143 533
133.0891 750
133.10547 595
135.03543 164
135.04543 175
135.05444 186
135.08098 126
135.08916 116
137.0598 187
137.06912 207
137.08038 243
137.09444 93
139.07242 118
139.08548 131
145.10284 149
147.06961 340
147.09654 92
147.11577 121
147.12796 109
149.06734 86
149.08136 108
151.11913 90
159.10435 130
159.11403 98
159.12292 91
161.09514 155
161.10228 134
161.13058 141
161.13977 134
161.14468 139
165.07578 85
165.09689 138
165.11617 93
177.10776 120
177.11292 140
177.12474 124
181.06396 114
181.07501 97
181.0867 87
191.1071 102
191.11487 102
219.16772 184
219.18541 208
219.20348 93
223.15883 288
223.17191 265
237.09396 192
239.13222 8302
Name: Lauric acid
PrecursorMZ: 439.3091
PrecursorType: [2M+K]+
IonMode: Positive
Formula: C12H24O2
SMILES: CCCCCCCCCCCC(=O)O
InChI: 
InChIKey: POULHZVOKOAJMA-UHFFFAOYSA-N
RetentionTime: 8.050183
CCS: 
CollisionEnergy: 20-40 eV
InstrumentType: UPLC-QTOF-MS
Comment: PI: Cristina Nerin; Data collector: QiZhi Su, GUIA, University of Zaragoza, Spain; Collision energy: 20-40 V; Instrument: Waters HPLC-QTOF-MS (Xevo G2 QTof); Ionization: ESI; Deconvoluted by MS-DIAL; Column: Waters AtlantisTM premier BEH C18 AX column (2.1 × 100mm x 1.7μm); Flow rate: 0.3mL/min; Mobile phase A and B are water and methnaol, respectively, both with 0.1% formic acid; Gradient elution: from A/B (95/5) to A/B (100/0) in 7min, kept for 4 min, then back to A/B (95/5) in 0.1 min, and maintained for additional 1.9 min (13min in total).; Injection volume: 10 μL
Num peaks: 160
55.05019 92
55.05693 92
57.06921 88
57.07565 87
67.05514 456
69.03387 83
69.07088 301
73.02842 1149
73.0479 879
73.06464 872
77.03847 93
77.04569 93
79.05069 491
79.05594 490
81.07164 845
83.05043 81
83.06827 307
83.08666 180
85.06793 132
85.07505 134
85.10143 155
85.10629 152
89.04709 429
89.06098 376
91.05502 475
93.06863 631
93.07637 626
95.02303 84
95.0861 941
97.06462 274
97.07325 271
97.07941 271
97.10114 181
105.06479 349
105.0731 349
107.05145 95
107.08415 366
107.09225 365
109.02901 218
109.03638 212
109.06508 116
109.07272 105
109.10136 390
111.0367 172
111.04465 183
111.05324 188
111.07146 327
111.08398 297
111.10086 347
117.07436 81
117.08228 102
119.07931 292
119.08966 291
121.09322 375
121.10324 385
123.04427 108
123.04988 109
123.08434 136
123.09926 241
123.11252 194
123.117 197
123.12585 176
129.06721 85
129.07845 92
129.08795 96
131.07397 179
131.08319 190
131.09114 179
133.06436 200
133.0838 671
133.09012 746
133.10062 727
133.10602 624
135.04521 181
135.05618 186
135.07599 130
135.08333 123
135.09097 126
135.11955 129
137.05827 193
137.06845 209
137.08284 222
137.0907 111
137.0976 93
137.11176 109
137.12929 86
139.07469 128
139.0811 123
139.09874 116
145.09187 168
145.09709 156
145.10847 157
147.06303 363
147.07066 340
147.08501 332
147.10126 160
147.11609 113
147.12967 106
148.08952 89
149.07843 98
149.09114 87
149.12589 94
149.13326 87
151.11693 94
151.13937 98
159.11925 105
159.12508 92
161.07864 103
161.08765 130
161.09685 157
161.11305 173
161.12247 148
161.13309 138
161.13945 140
163.1055 84
163.13066 112
165.09445 126
165.10149 140
165.11626 93
177.1057 124
177.11432 126
177.12363 120
181.05354 91
181.06935 122
181.0834 86
191.10652 102
207.05095 213
219.17067 170
219.1844 198
223.13953 171
223.15643 273
223.16975 269
237.20734 82
237.22093 86
239.13277 8001
240.1382 720
240.14728 716
241.14986 103
243.12076 117
243.13472 108
248.98396 137
248.99321 135
255.1174 148
259.07797 170
281.03403 209
281.07617 194
295.10632 122
324.3248 503
337.20505 117
341.02197 220
341.26385 115
351.12436 147
351.14273 129
355.07187 94
365.14566 143
371.21976 127
399.29959 126
399.32663 99
421.29675 88
431.11111 85
Name: Octadecanamide
PrecursorMZ: 284.2962
PrecursorType: [M+H]+
IonMode: Positive
Formula: C18H37NO
SMILES: CCCCCCCCCCCCCCCCCC(=O)N
InChI: 
InChIKey: LYRFLYHAGKPMFH-UHFFFAOYSA-N
RetentionTime: 8.431367
CCS: 
CollisionEnergy: 20-40 eV
InstrumentType: UPLC-QTOF-MS
Comment: PI: Cristina Nerin; Data collector: QiZhi Su, GUIA, University of Zaragoza, Spain; Collision energy: 20-40 V; Instrument: Waters HPLC-QTOF-MS (Xevo G2 QTof); Ionization: ESI; Deconvoluted by MS-DIAL; Column: Waters AtlantisTM premier BEH C18 AX column (2.1 × 100mm x 1.7μm); Flow rate: 0.3mL/min; Mobile phase A and B are water and methnaol, respectively, both with 0.1% formic acid; Gradient elution: from A/B (95/5) to A/B (100/0) in 7min, kept for 4 min, then back to A/B (95/5) in 0.1 min, and maintained for additional 1.9 min (13min in total).; Injection volume: 10 μL
Num peaks: 10
57.07019 5602
69.07054 5089
71.08685 5638
74.04356 11093
74.06007 11081
88.07564 60877
102.09132 33665
116.09084 8491
116.10753 8485
284.29504 405484
Name: Octadecanamide
PrecursorMZ: 567.5826
PrecursorType: [2M+H]+
IonMode: Positive
Formula: C18H37NO
SMILES: CCCCCCCCCCCCCCCCCC(=O)N
InChI: 
InChIKey: LYRFLYHAGKPMFH-UHFFFAOYSA-N
RetentionTime: 8.435166
CCS: 
CollisionEnergy: 20-40 eV
InstrumentType: UPLC-QTOF-MS
Comment: PI: Cristina Nerin; Data collector: QiZhi Su, GUIA, University of Zaragoza, Spain; Collision energy: 20-40 V; Instrument: Waters HPLC-QTOF-MS (Xevo G2 QTof); Ionization: ESI; Deconvoluted by MS-DIAL; Column: Waters AtlantisTM premier BEH C18 AX column (2.1 × 100mm x 1.7μm); Flow rate: 0.3mL/min; Mobile phase A and B are water and methnaol, respectively, both with 0.1% formic acid; Gradient elution: from A/B (95/5) to A/B (100/0) in 7min, kept for 4 min, then back to A/B (95/5) in 0.1 min, and maintained for additional 1.9 min (13min in total).; Injection volume: 10 μL
Num peaks: 10
57.06981 5578
69.07033 5082
71.08576 5601
71.104 5612
74.06008 11076
88.0756 60843
102.09129 33628
116.10741 7923
284.2948 408155
285.29797 68987
Name: Octadecanamide
PrecursorMZ: 306.277
PrecursorType: [M+Na]+
IonMode: Positive
Formula: C18H37NO
SMILES: CCCCCCCCCCCCCCCCCC(=O)N
InChI: 
InChIKey: LYRFLYHAGKPMFH-UHFFFAOYSA-N
RetentionTime: 8.438967
CCS: 
CollisionEnergy: 20-40 eV
InstrumentType: UPLC-QTOF-MS
Comment: PI: Cristina Nerin; Data collector: QiZhi Su, GUIA, University of Zaragoza, Spain; Collision energy: 20-40 V; Instrument: Waters HPLC-QTOF-MS (Xevo G2 QTof); Ionization: ESI; Deconvoluted by MS-DIAL; Column: Waters AtlantisTM premier BEH C18 AX column (2.1 × 100mm x 1.7μm); Flow rate: 0.3mL/min; Mobile phase A and B are water and methnaol, respectively, both with 0.1% formic acid; Gradient elution: from A/B (95/5) to A/B (100/0) in 7min, kept for 4 min, then back to A/B (95/5) in 0.1 min, and maintained for additional 1.9 min (13min in total).; Injection volume: 10 μL
Num peaks: 25
57.07009 4468
69.06991 4122
69.07399 4127
74.04338 10105
74.06073 9989
83.08581 574
86.06143 1071
86.07616 1140
88.07564 53668
97.10231 764
116.10784 690
144.13882 1133
144.14674 1131
158.15553 1037
284.29486 1747
284.44821 1123
284.46231 1237
284.48029 1209
285.2981 4041
286.3028 904
303.26834 13162
303.76468 4742
303.77509 4742
304.27087 842
306.27609 8921
Name: 3-Formylbenzoic acid
PrecursorMZ: 151.0396
PrecursorType: [M+H]+
IonMode: Positive
Formula: C8H6O3
SMILES: C1=CC(=CC(=C1)C(=O)O)C=O
InChI: 
InChIKey: UHDNUPHSDMOGCR-UHFFFAOYSA-N
RetentionTime: 6.739583
CCS: 
CollisionEnergy: 20-40 eV
InstrumentType: UPLC-QTOF-MS
Comment: PI: Cristina Nerin; Data collector: QiZhi Su, GUIA, University of Zaragoza, Spain; Collision energy: 20-40 V; Instrument: Waters HPLC-QTOF-MS (Xevo G2 QTof); Ionization: ESI; Deconvoluted by MS-DIAL; Column: Waters AtlantisTM premier BEH C18 AX column (2.1 × 100mm x 1.7μm); Flow rate: 0.3mL/min; Mobile phase A and B are water and methnaol, respectively, both with 0.1% formic acid; Gradient elution: from A/B (95/5) to A/B (100/0) in 7min, kept for 4 min, then back to A/B (95/5) in 0.1 min, and maintained for additional 1.9 min (13min in total).; Injection volume: 10 μL
Num peaks: 32
65.04097 406
65.04637 402
66.04266 78
66.04739 78
77.03893 3872
81.06807 68
89.0362 69
91.03479 3650
91.05448 5846
92.0565 353
92.0623 353
93.06246 286
93.07167 285
107.0591 79
119.0525 202
119.07738 59
121.02854 615
121.03394 633
135.04579 612
136.04283 106
136.049 109
140.06929 101
140.07718 102
149.02386 670
149.04143 832
149.05589 69
149.06073 76
150.0267 120
150.04227 141
150.05557 64
151.03944 2015
151.04741 536
Name: Octadecanamide
PrecursorMZ: 589.5649
PrecursorType: [2M+Na]+
IonMode: Positive
Formula: C18H37NO
SMILES: CCCCCCCCCCCCCCCCCC(=O)N
InChI: 
InChIKey: LYRFLYHAGKPMFH-UHFFFAOYSA-N
RetentionTime: 8.438967
CCS: 
CollisionEnergy: 20-40 eV
InstrumentType: UPLC-QTOF-MS
Comment: PI: Cristina Nerin; Data collector: QiZhi Su, GUIA, University of Zaragoza, Spain; Collision energy: 20-40 V; Instrument: Waters HPLC-QTOF-MS (Xevo G2 QTof); Ionization: ESI; Deconvoluted by MS-DIAL; Column: Waters AtlantisTM premier BEH C18 AX column (2.1 × 100mm x 1.7μm); Flow rate: 0.3mL/min; Mobile phase A and B are water and methnaol, respectively, both with 0.1% formic acid; Gradient elution: from A/B (95/5) to A/B (100/0) in 7min, kept for 4 min, then back to A/B (95/5) in 0.1 min, and maintained for additional 1.9 min (13min in total).; Injection volume: 10 μL
Num peaks: 37
55.05456 703
55.0616 704
57.05436 5713
57.07009 5590
69.06991 5046
69.07399 5043
74.04338 10990
74.06073 10943
83.08581 3565
85.10177 2402
86.06143 1175
86.07616 1252
88.07564 59955
97.10231 2189
102.09135 33260
130.1241 2326
144.13882 1337
144.14674 1335
158.15553 1165
200.19894 880
228.2348 604
284.44821 1148
284.46231 1268
284.48029 1215
285.2981 5240
286.3028 719
303.26834 13160
303.76468 4742
303.77509 4742
304.27087 869
306.27609 6204
307.28265 767
444.91193 5303
445.41553 2919
445.91229 626
445.9278 713
452.89587 602
Name: Glyceryl monostearate
PrecursorMZ: 381.2974
PrecursorType: [M+Na]+
IonMode: Positive
Formula: C21H42O4
SMILES: CCCCCCCCCCCCCCCCCC(=O)OCC(CO)O
InChI: 
InChIKey: VBICKXHEKHSIBG-UHFFFAOYSA-N
RetentionTime: 8.465616
CCS: 
CollisionEnergy: 20-40 eV
InstrumentType: UPLC-QTOF-MS
Comment: PI: Cristina Nerin; Data collector: QiZhi Su, GUIA, University of Zaragoza, Spain; Collision energy: 20-40 V; Instrument: Waters HPLC-QTOF-MS (Xevo G2 QTof); Ionization: ESI; Deconvoluted by MS-DIAL; Column: Waters AtlantisTM premier BEH C18 AX column (2.1 × 100mm x 1.7μm); Flow rate: 0.3mL/min; Mobile phase A and B are water and methnaol, respectively, both with 0.1% formic acid; Gradient elution: from A/B (95/5) to A/B (100/0) in 7min, kept for 4 min, then back to A/B (95/5) in 0.1 min, and maintained for additional 1.9 min (13min in total).; Injection volume: 10 μL
Num peaks: 26
57.07018 2350
69.07092 2357
71.08598 3831
74.06032 2921
81.07012 1914
83.08669 2487
85.10179 2611
88.07578 18300
95.08657 3212
97.10246 1857
102.09159 10841
109.10229 1432
116.10777 2677
221.08499 2345
245.1597 4747
281.05206 2430
284.29459 106618
285.29837 17653
323.22647 4960
341.30453 3050
355.06894 5949
356.07333 1599
378.28577 18095
378.79059 7938
379.28995 1762
381.29694 11470
Name: Glyceryl monostearate
PrecursorMZ: 376.3419
PrecursorType: [M+NH4]+
IonMode: Positive
Formula: C21H42O4
SMILES: CCCCCCCCCCCCCCCCCC(=O)OCC(CO)O
InChI: 
InChIKey: VBICKXHEKHSIBG-UHFFFAOYSA-N
RetentionTime: 8.48085
CCS: 
CollisionEnergy: 20-40 eV
InstrumentType: UPLC-QTOF-MS
Comment: PI: Cristina Nerin; Data collector: QiZhi Su, GUIA, University of Zaragoza, Spain; Collision energy: 20-40 V; Instrument: Waters HPLC-QTOF-MS (Xevo G2 QTof); Ionization: ESI; Deconvoluted by MS-DIAL; Column: Waters AtlantisTM premier BEH C18 AX column (2.1 × 100mm x 1.7μm); Flow rate: 0.3mL/min; Mobile phase A and B are water and methnaol, respectively, both with 0.1% formic acid; Gradient elution: from A/B (95/5) to A/B (100/0) in 7min, kept for 4 min, then back to A/B (95/5) in 0.1 min, and maintained for additional 1.9 min (13min in total).; Injection volume: 10 μL
Num peaks: 101
55.04916 140
55.05562 132
57.03014 77
57.03591 82
57.0705 1183
67.0542 632
67.06186 633
69.07039 712
71.04685 99
71.05244 96
71.08572 2572
71.09025 2574
72.08593 169
72.09332 168
73.07097 89
81.05061 555
81.07098 1307
83.08581 938
83.09306 936
84.08388 87
84.09034 82
84.09623 81
85.10213 1861
86.09358 98
86.09941 100
86.10702 102
88.07566 1156
95.0863 2289
96.08507 138
96.09691 133
97.10278 1043
98.09525 64
100.07738 71
100.08358 70
102.09261 567
103.07483 140
103.08607 155
103.09415 156
109.10322 1003
111.11031 344
111.12135 333
112.02884 1073
116.10706 152
123.11803 318
130.11894 116
130.12541 122
130.13875 92
131.00053 657
131.01532 671
135.02829 175
135.04469 233
137.13538 193
144.14154 83
151.15065 79
151.15942 65
186.18498 89
199.11743 321
199.13373 369
199.14972 342
199.63364 82
223.02826 241
223.04491 709
223.05486 701
237.17143 122
245.159 3671
245.66066 1056
246.16119 213
246.17384 185
247.14174 64
247.15875 67
247.16754 67
267.25934 535
267.27478 534
267.29007 374
268.25854 105
268.27255 126
268.28653 118
284.29538 82
285.27643 106
323.22693 3774
324.23013 406
339.19791 364
340.1868 70
340.20364 75
341.30542 6373
342.30893 979
343.30804 83
343.32242 87
356.108 139
359.31754 1076
359.33691 952
360.32175 175
365.30811 94
365.33322 108
370.29379 213
370.32016 88
370.79977 158
370.81479 147
371.29547 199
376.32535 68
376.34091 114
Name: Glyceryl monostearate
PrecursorMZ: 359.315
PrecursorType: [M+H]+
IonMode: Positive
Formula: C21H42O4
SMILES: CCCCCCCCCCCCCCCCCC(=O)OCC(CO)O
InChI: 
InChIKey: VBICKXHEKHSIBG-UHFFFAOYSA-N
RetentionTime: 8.484667
CCS: 
CollisionEnergy: 20-40 eV
InstrumentType: UPLC-QTOF-MS
Comment: PI: Cristina Nerin; Data collector: QiZhi Su, GUIA, University of Zaragoza, Spain; Collision energy: 20-40 V; Instrument: Waters HPLC-QTOF-MS (Xevo G2 QTof); Ionization: ESI; Deconvoluted by MS-DIAL; Column: Waters AtlantisTM premier BEH C18 AX column (2.1 × 100mm x 1.7μm); Flow rate: 0.3mL/min; Mobile phase A and B are water and methnaol, respectively, both with 0.1% formic acid; Gradient elution: from A/B (95/5) to A/B (100/0) in 7min, kept for 4 min, then back to A/B (95/5) in 0.1 min, and maintained for additional 1.9 min (13min in total).; Injection volume: 10 μL
Num peaks: 56
56.05846 52
67.05377 324
67.06022 324
67.07178 403
71.08611 307
73.07014 57
81.07058 586
83.08681 226
85.1024 207
85.11162 230
95.08671 71
97.065 105
97.07551 84
97.08348 931
97.10325 577
98.10494 84
98.11009 84
100.07327 126
100.07859 137
109.08476 345
109.10239 514
109.10815 508
111.11673 149
112.02892 77
114.08585 65
116.09704 187
116.10702 194
116.11327 198
117.06893 44
125.09606 79
125.1008 79
125.13367 50
130.12361 111
131.02654 66
137.13374 171
139.11276 58
172.16502 48
172.17229 49
186.18866 63
199.62686 70
199.64058 67
267.27112 313
268.27142 105
281.08441 148
285.2991 1535
286.29617 192
286.31052 150
324.22632 122
324.23938 91
340.19022 45
341.30518 4368
342.30154 370
342.31992 437
343.32233 55
357.10638 67
359.31799 1454
Name: Glyceryl monostearate
PrecursorMZ: 739.6048
PrecursorType: [2M+Na]+
IonMode: Positive
Formula: C21H42O4
SMILES: CCCCCCCCCCCCCCCCCC(=O)OCC(CO)O
InChI: 
InChIKey: VBICKXHEKHSIBG-UHFFFAOYSA-N
RetentionTime: 8.492267
CCS: 
CollisionEnergy: 20-40 eV
InstrumentType: UPLC-QTOF-MS
Comment: PI: Cristina Nerin; Data collector: QiZhi Su, GUIA, University of Zaragoza, Spain; Collision energy: 20-40 V; Instrument: Waters HPLC-QTOF-MS (Xevo G2 QTof); Ionization: ESI; Deconvoluted by MS-DIAL; Column: Waters AtlantisTM premier BEH C18 AX column (2.1 × 100mm x 1.7μm); Flow rate: 0.3mL/min; Mobile phase A and B are water and methnaol, respectively, both with 0.1% formic acid; Gradient elution: from A/B (95/5) to A/B (100/0) in 7min, kept for 4 min, then back to A/B (95/5) in 0.1 min, and maintained for additional 1.9 min (13min in total).; Injection volume: 10 μL
Num peaks: 118
67.05375 184
67.05833 184
69.05025 454
77.03257 50
77.03968 50
77.04495 51
95.08624 635
96.08456 89
96.09359 89
109.10162 82
111.11099 164
111.11815 166
112.02888 103
112.03514 100
112.04739 151
119.01744 49
123.11806 80
124.12004 49
131.00169 321
131.09142 46
135.03351 192
135.04448 205
135.05171 195
139.16417 52
145.08549 73
145.10178 52
149.11093 60
153.04886 64
155.10512 45
161.13077 46
173.12061 46
173.13693 44
199.125 99
199.13832 107
199.14772 44
223.04655 185
223.0564 111
223.09351 45
224.05263 43
224.06165 66
245.15923 690
245.66302 315
246.14973 46
246.16351 72
267.25833 111
267.27051 95
285.27344 85
296.08859 85
296.10776 74
310.31149 47
310.32837 53
323.22665 742
324.21887 45
325.21127 49
337.19464 61
337.21445 53
339.18768 174
339.20486 181
340.20734 65
341.30585 742
342.31308 125
356.10266 111
365.32236 61
369.13681 136
378.28799 82
378.79022 56
379.28052 359
379.29932 77
379.82138 49
381.29675 4288
382.29984 242
384.27744 72
413.22488 62
413.24271 67
415.26337 236
415.27737 300
431.25113 76
431.35162 44
433.10873 48
447.32751 43
473.3396 50
473.39224 45
473.40234 44
487.36996 57
491.3479 54
504.12906 80
505.13037 84
506.082 54
517.38684 44
517.41626 130
517.8974 159
518.41229 56
526.39111 105
526.41547 204
526.43256 137
526.90564 178
527.42383 69
535.93164 52
561.44281 52
563.41803 49
563.94745 62
637.54938 121
638.56396 83
638.5896 104
651.1687 52
655.5564 55
655.58441 137
687.61163 53
696.57959 210
697.05664 188
697.086 170
697.60413 79
698.04791 45
698.0799 50
737.09351 44
737.12335 45
739.59601 143
739.61456 70
Name: Glyceryl monostearate
PrecursorMZ: 381.2973
PrecursorType: [M+Na]+
IonMode: Positive
Formula: C21H42O4
SMILES: CCCCCCCCCCCCCCCCCC(=O)OCC(CO)O
InChI: 
InChIKey: VBICKXHEKHSIBG-UHFFFAOYSA-N
RetentionTime: 8.496083
CCS: 
CollisionEnergy: 20-40 eV
InstrumentType: UPLC-QTOF-MS
Comment: PI: Cristina Nerin; Data collector: QiZhi Su, GUIA, University of Zaragoza, Spain; Collision energy: 20-40 V; Instrument: Waters HPLC-QTOF-MS (Xevo G2 QTof); Ionization: ESI; Deconvoluted by MS-DIAL; Column: Waters AtlantisTM premier BEH C18 AX column (2.1 × 100mm x 1.7μm); Flow rate: 0.3mL/min; Mobile phase A and B are water and methnaol, respectively, both with 0.1% formic acid; Gradient elution: from A/B (95/5) to A/B (100/0) in 7min, kept for 4 min, then back to A/B (95/5) in 0.1 min, and maintained for additional 1.9 min (13min in total).; Injection volume: 10 μL
Num peaks: 28
67.0554 112
67.0612 110
73.06869 209
82.07098 100
82.07546 100
89.05715 137
95.07299 2556
95.08621 2523
112.02832 212
123.11684 398
135.03442 148
135.04076 168
135.04939 165
135.05714 205
149.12943 105
199.13617 489
199.15384 361
237.16916 162
237.18671 138
245.66177 1374
246.14803 265
246.16458 269
267.25766 174
285.29153 1453
285.30225 1394
340.20779 98
365.32687 153
381.2966 9471
Name: caffeine
PrecursorMZ: 195.089
PrecursorType: [M+H]+
IonMode: Positive
Formula: C8H10N4O2
SMILES: CN1C=NC2=C1C(=O)N(C(=O)N2C)C
InChI: 
InChIKey: RYYVLZVUVIJVGH-UHFFFAOYSA-N
RetentionTime: 3.4735
CCS: 
CollisionEnergy: 20-40 eV
InstrumentType: UPLC-QTOF-MS
Comment: PI: Cristina Nerin; Data collector: QiZhi Su, GUIA, University of Zaragoza, Spain; Collision energy: 20-40 V; Instrument: Waters HPLC-QTOF-MS (Xevo G2 QTof); Ionization: ESI; Deconvoluted by MS-DIAL; Column: Waters AtlantisTM premier BEH C18 AX column (2.1 × 100mm x 1.7μm); Flow rate: 0.3mL/min; Mobile phase A and B are water and methnaol, respectively, both with 0.1% formic acid; Gradient elution: from A/B (95/5) to A/B (100/0) in 7min, kept for 4 min, then back to A/B (95/5) in 0.1 min, and maintained for additional 1.9 min (13min in total).; Injection volume: 10 μL
Num peaks: 19
69.04538 601
81.042 117
81.04851 123
81.0537 129
83.04563 700
83.05924 722
83.06534 717
109.04115 264
110.07193 2415
110.08065 2410
111.04789 204
111.05875 288
111.07186 284
123.03632 630
123.04464 636
138.06694 11360
139.06902 496
139.08078 484
195.08766 1946
Name: Irganox 3114
PrecursorMZ: 806.5085
PrecursorType: [M+Na]+
IonMode: Positive
Formula: C48H69N3O6
SMILES: CC(C)(C)C1=CC(=CC(=C1O)C(C)(C)C)CN2C(=O)N(C(=O)N(C2=O)CC3=CC(=C(C(=C3)C(C)(C)C)O)C(C)(C)C)CC4=CC(=C(C(=C4)C(C)(C)C)O)C(C)(C)C
InChI: 
InChIKey: VNQNXQYZMPJLQX-UHFFFAOYSA-N
RetentionTime: 8.671683
CCS: 
CollisionEnergy: 20-40 eV
InstrumentType: UPLC-QTOF-MS
Comment: PI: Cristina Nerin; Data collector: QiZhi Su, GUIA, University of Zaragoza, Spain; Collision energy: 20-40 V; Instrument: Waters HPLC-QTOF-MS (Xevo G2 QTof); Ionization: ESI; Deconvoluted by MS-DIAL; Column: Waters AtlantisTM premier BEH C18 AX column (2.1 × 100mm x 1.7μm); Flow rate: 0.3mL/min; Mobile phase A and B are water and methnaol, respectively, both with 0.1% formic acid; Gradient elution: from A/B (95/5) to A/B (100/0) in 7min, kept for 4 min, then back to A/B (95/5) in 0.1 min, and maintained for additional 1.9 min (13min in total).; Injection volume: 10 μL
Num peaks: 12
60.07849 168
60.08327 167
191.00418 228
207.03424 818
208.0567 202
223.05623 161
251.0988 277
300.13043 161
370.17374 328
370.18573 311
541.16937 232
806.50543 15051
Name: Irganox 3114
PrecursorMZ: 801.5518
PrecursorType: [M+NH4]+
IonMode: Positive
Formula: C48H69N3O6
SMILES: CC(C)(C)C1=CC(=CC(=C1O)C(C)(C)C)CN2C(=O)N(C(=O)N(C2=O)CC3=CC(=C(C(=C3)C(C)(C)C)O)C(C)(C)C)CC4=CC(=C(C(=C4)C(C)(C)C)O)C(C)(C)C
InChI: 
InChIKey: VNQNXQYZMPJLQX-UHFFFAOYSA-N
RetentionTime: 8.698334
CCS: 
CollisionEnergy: 20-40 eV
InstrumentType: UPLC-QTOF-MS
Comment: PI: Cristina Nerin; Data collector: QiZhi Su, GUIA, University of Zaragoza, Spain; Collision energy: 20-40 V; Instrument: Waters HPLC-QTOF-MS (Xevo G2 QTof); Ionization: ESI; Deconvoluted by MS-DIAL; Column: Waters AtlantisTM premier BEH C18 AX column (2.1 × 100mm x 1.7μm); Flow rate: 0.3mL/min; Mobile phase A and B are water and methnaol, respectively, both with 0.1% formic acid; Gradient elution: from A/B (95/5) to A/B (100/0) in 7min, kept for 4 min, then back to A/B (95/5) in 0.1 min, and maintained for additional 1.9 min (13min in total).; Injection volume: 10 μL
Num peaks: 16
91.04683 899
91.0564 892
91.06365 893
105.07032 1350
105.07983 1352
119.08669 2318
119.10229 2336
121.10179 1912
133.10243 1939
161.13309 926
203.14349 12813
204.14478 1171
204.15361 1154
219.17477 82285
220.17834 8790
237.08185 1674
Name: Irganox 3114
PrecursorMZ: 784.5239
PrecursorType: [M+H]+
IonMode: Positive
Formula: C48H69N3O6
SMILES: CC(C)(C)C1=CC(=CC(=C1O)C(C)(C)C)CN2C(=O)N(C(=O)N(C2=O)CC3=CC(=C(C(=C3)C(C)(C)C)O)C(C)(C)C)CC4=CC(=C(C(=C4)C(C)(C)C)O)C(C)(C)C
InChI: 
InChIKey: VNQNXQYZMPJLQX-UHFFFAOYSA-N
RetentionTime: 8.70975
CCS: 
CollisionEnergy: 20-40 eV
InstrumentType: UPLC-QTOF-MS
Comment: PI: Cristina Nerin; Data collector: QiZhi Su, GUIA, University of Zaragoza, Spain; Collision energy: 20-40 V; Instrument: Waters HPLC-QTOF-MS (Xevo G2 QTof); Ionization: ESI; Deconvoluted by MS-DIAL; Column: Waters AtlantisTM premier BEH C18 AX column (2.1 × 100mm x 1.7μm); Flow rate: 0.3mL/min; Mobile phase A and B are water and methnaol, respectively, both with 0.1% formic acid; Gradient elution: from A/B (95/5) to A/B (100/0) in 7min, kept for 4 min, then back to A/B (95/5) in 0.1 min, and maintained for additional 1.9 min (13min in total).; Injection volume: 10 μL
Num peaks: 15
73.04757 896
91.05593 902
105.07066 1350
105.07604 1350
119.08604 2320
121.087 1820
121.10191 1820
133.10164 1879
161.13353 888
203.14363 12813
204.14731 1168
204.15646 1156
219.17438 82437
220.17824 8801
237.07991 1558
Name: Irganox 3114
PrecursorMZ: 806.5073
PrecursorType: [M+Na]+
IonMode: Positive
Formula: C48H69N3O6
SMILES: CC(C)(C)C1=CC(=CC(=C1O)C(C)(C)C)CN2C(=O)N(C(=O)N(C2=O)CC3=CC(=C(C(=C3)C(C)(C)C)O)C(C)(C)C)CC4=CC(=C(C(=C4)C(C)(C)C)O)C(C)(C)C
InChI: 
InChIKey: VNQNXQYZMPJLQX-UHFFFAOYSA-N
RetentionTime: 8.7364
CCS: 
CollisionEnergy: 20-40 eV
InstrumentType: UPLC-QTOF-MS
Comment: PI: Cristina Nerin; Data collector: QiZhi Su, GUIA, University of Zaragoza, Spain; Collision energy: 20-40 V; Instrument: Waters HPLC-QTOF-MS (Xevo G2 QTof); Ionization: ESI; Deconvoluted by MS-DIAL; Column: Waters AtlantisTM premier BEH C18 AX column (2.1 × 100mm x 1.7μm); Flow rate: 0.3mL/min; Mobile phase A and B are water and methnaol, respectively, both with 0.1% formic acid; Gradient elution: from A/B (95/5) to A/B (100/0) in 7min, kept for 4 min, then back to A/B (95/5) in 0.1 min, and maintained for additional 1.9 min (13min in total).; Injection volume: 10 μL
Num peaks: 39
73.04694 3560
74.04568 196
74.05324 215
74.06152 209
88.06307 189
88.07414 198
88.08241 198
147.06772 1750
148.06949 196
148.08093 185
149.05229 253
149.0661 193
207.01646 316
223.07545 238
267.00055 1038
281.05222 943
324.97073 199
324.98938 228
341.01895 4489
342.01328 928
342.026 943
343.01523 644
344.02078 229
355.06952 1386
356.07056 209
370.17392 313
370.19333 342
430.09067 294
588.33221 254
691.13 275
735.18372 3289
735.20502 3609
736.18475 1336
736.2229 1449
737.18689 1482
737.21924 1117
738.17828 196
738.21533 232
806.50586 18471
Name: Ralox 35
PrecursorMZ: 310.2407
PrecursorType: [M+NH4]+
IonMode: Positive
Formula: C18H28O3
SMILES: CC(C)(C)C1=CC(=CC(=C1O)C(C)(C)C)CCC(=O)OC
InChI: 
InChIKey: PXMJCECEFTYEKE-UHFFFAOYSA-N
RetentionTime: 7.478633
CCS: 
CollisionEnergy: 20-40 eV
InstrumentType: UPLC-QTOF-MS
Comment: PI: Cristina Nerin; Data collector: QiZhi Su, GUIA, University of Zaragoza, Spain; Collision energy: 20-40 V; Instrument: Waters HPLC-QTOF-MS (Xevo G2 QTof); Ionization: ESI; Deconvoluted by MS-DIAL; Column: Waters AtlantisTM premier BEH C18 AX column (2.1 × 100mm x 1.7μm); Flow rate: 0.3mL/min; Mobile phase A and B are water and methnaol, respectively, both with 0.1% formic acid; Gradient elution: from A/B (95/5) to A/B (100/0) in 7min, kept for 4 min, then back to A/B (95/5) in 0.1 min, and maintained for additional 1.9 min (13min in total).; Injection volume: 10 μL
Num peaks: 23
77.04037 2052
79.04458 415
79.05643 410
91.04845 647
91.05682 647
107.04948 35458
108.05381 1542
121.04871 498
121.06185 621
121.06933 602
149.05742 382
149.06525 391
166.0829 465
203.14507 1627
219.17618 6350
220.18077 850
243.10829 857
243.12724 622
259.1387 2190
259.15201 2163
289.15158 3507
290.14563 394
290.15692 437
Name: caffeine
PrecursorMZ: 195.0894
PrecursorType: [M+H]+
IonMode: Positive
Formula: C8H10N4O2
SMILES: CN1C=NC2=C1C(=O)N(C(=O)N2C)C
InChI: 
InChIKey: RYYVLZVUVIJVGH-UHFFFAOYSA-N
RetentionTime: 3.469717
CCS: 
CollisionEnergy: 20-40 eV
InstrumentType: UPLC-QTOF-MS
Comment: PI: Cristina Nerin; Data collector: QiZhi Su, GUIA, University of Zaragoza, Spain; Collision energy: 20-40 V; Instrument: Waters HPLC-QTOF-MS (Xevo G2 QTof); Ionization: ESI; Deconvoluted by MS-DIAL; Column: Waters AtlantisTM premier BEH C18 AX column (2.1 × 100mm x 1.7μm); Flow rate: 0.3mL/min; Mobile phase A and B are water and methnaol, respectively, both with 0.1% formic acid; Gradient elution: from A/B (95/5) to A/B (100/0) in 7min, kept for 4 min, then back to A/B (95/5) in 0.1 min, and maintained for additional 1.9 min (13min in total).; Injection volume: 10 μL
Num peaks: 12
69.04456 3649
69.04929 3665
69.0602 3679
83.06142 4167
109.041 1168
110.05387 14953
110.07223 14517
110.08964 14508
123.04477 2420
138.06702 57635
139.06993 2789
195.08894 14476
Name: Ralox 35
PrecursorMZ: 315.1941
PrecursorType: [M+Na]+
IonMode: Positive
Formula: C18H28O3
SMILES: CC(C)(C)C1=CC(=CC(=C1O)C(C)(C)C)CCC(=O)OC
InChI: 
InChIKey: PXMJCECEFTYEKE-UHFFFAOYSA-N
RetentionTime: 7.48625
CCS: 
CollisionEnergy: 20-40 eV
InstrumentType: UPLC-QTOF-MS
Comment: PI: Cristina Nerin; Data collector: QiZhi Su, GUIA, University of Zaragoza, Spain; Collision energy: 20-40 V; Instrument: Waters HPLC-QTOF-MS (Xevo G2 QTof); Ionization: ESI; Deconvoluted by MS-DIAL; Column: Waters AtlantisTM premier BEH C18 AX column (2.1 × 100mm x 1.7μm); Flow rate: 0.3mL/min; Mobile phase A and B are water and methnaol, respectively, both with 0.1% formic acid; Gradient elution: from A/B (95/5) to A/B (100/0) in 7min, kept for 4 min, then back to A/B (95/5) in 0.1 min, and maintained for additional 1.9 min (13min in total).; Injection volume: 10 μL
Num peaks: 24
69.07148 433
70.98179 334
77.04015 1554
79.05443 750
81.07068 643
91.05727 1362
93.07082 483
107.04941 28013
108.0533 1345
119.08788 517
121.06682 622
121.10675 437
133.10252 348
138.07556 307
163.11215 356
166.08606 327
203.14645 2172
219.1748 5528
220.17953 700
243.10898 903
259.14011 1881
289.14996 3195
290.15045 350
315.19992 926
Name: Dibutyl sebacate
PrecursorMZ: 315.2547
PrecursorType: [M+H]+
IonMode: Positive
Formula: C18H34O4
SMILES: CCCCOC(=O)CCCCCCCCC(=O)OCCCC
InChI: 
InChIKey: PYGXAGIECVVIOZ-UHFFFAOYSA-N
RetentionTime: 8.063586
CCS: 
CollisionEnergy: 20-40 eV
InstrumentType: UPLC-QTOF-MS
Comment: PI: Cristina Nerin; Data collector: QiZhi Su, GUIA, University of Zaragoza, Spain; Collision energy: 20-40 V; Instrument: Waters HPLC-QTOF-MS (Xevo G2 QTof); Ionization: ESI; Deconvoluted by MS-DIAL; Column: Waters AtlantisTM premier BEH C18 AX column (2.1 × 100mm x 1.7μm); Flow rate: 0.3mL/min; Mobile phase A and B are water and methnaol, respectively, both with 0.1% formic acid; Gradient elution: from A/B (95/5) to A/B (100/0) in 7min, kept for 4 min, then back to A/B (95/5) in 0.1 min, and maintained for additional 1.9 min (13min in total).; Injection volume: 10 μL
Num peaks: 110
55.04353 3383
55.05331 3370
57.06894 1373
67.05307 7609
69.0327 840
69.0689 37930
70.05667 1896
70.07373 1959
70.09151 1738
71.04505 778
71.05075 827
71.05498 873
77.02482 924
77.03361 947
77.03849 949
79.053 16249
79.07125 16363
80.05642 986
81.0685 25887
82.07305 1296
83.04783 6273
83.08481 1251
83.09982 1244
85.02719 566
85.04702 993
85.06316 751
89.02429 711
89.04044 1591
89.05949 1668
89.06468 855
89.07261 662
91.05353 2717
91.06696 2716
93.06868 36363
94.07323 2120
95.08433 17970
96.08799 1009
97.04451 13780
97.0635 13493
97.09993 19517
98.06594 806
98.0817 977
98.09711 1271
98.10327 1259
98.10902 1262
99.063 634
99.07818 651
99.09696 662
101.06039 996
101.0755 987
105.06925 2023
107.0685 7382
107.0843 7086
107.09821 7087
109.10099 868
111.11591 6126
111.13311 6023
119.06943 2420
119.08047 2424
119.08636 2423
121.09988 55058
122.10281 4402
122.11922 4410
123.08055 690
123.10606 576
123.11416 581
123.12284 559
131.08432 5453
133.04947 1209
133.08459 981
133.0993 1008
135.0433 1312
135.05609 1175
135.06308 1063
139.11038 48600
140.11456 3939
147.06429 7646
148.06572 1079
149.0952 5454
157.1208 2567
161.09224 962
161.1028 932
167.03635 6332
167.08595 750
167.10487 1867
179.03566 1193
185.11552 19919
186.11903 1953
193.05199 1620
197.09326 606
205.05347 3548
207.06868 4713
207.0876 5276
223.06308 21063
224.06531 1101
225.08731 732
225.10204 660
237.07835 3890
238.07339 757
238.08658 770
239.03046 551
241.07326 30497
241.17027 1020
241.1879 967
242.06815 2388
242.07787 2336
281.13989 931
281.15399 1041
297.13608 21173
298.13968 2416
Name: Dibutyl sebacate
PrecursorMZ: 337.2362
PrecursorType: [M+Na]+
IonMode: Positive
Formula: C18H34O4
SMILES: CCCCOC(=O)CCCCCCCCC(=O)OCCCC
InChI: 
InChIKey: PYGXAGIECVVIOZ-UHFFFAOYSA-N
RetentionTime: 8.064858
CCS: 
CollisionEnergy: 20-40 eV
InstrumentType: UPLC-QTOF-MS
Comment: PI: Cristina Nerin; Data collector: QiZhi Su, GUIA, University of Zaragoza, Spain; Collision energy: 20-40 V; Instrument: Waters HPLC-QTOF-MS (Xevo G2 QTof); Ionization: ESI; Deconvoluted by MS-DIAL; Column: Waters AtlantisTM premier BEH C18 AX column (2.1 × 100mm x 1.7μm); Flow rate: 0.3mL/min; Mobile phase A and B are water and methnaol, respectively, both with 0.1% formic acid; Gradient elution: from A/B (95/5) to A/B (100/0) in 7min, kept for 4 min, then back to A/B (95/5) in 0.1 min, and maintained for additional 1.9 min (13min in total).; Injection volume: 10 μL
Num peaks: 120
55.05359 3370
57.06851 1373
57.08133 1373
67.03689 7477
67.05348 7609
69.03354 840
69.0522 38622
69.06886 37930
69.08138 37925
70.07298 1959
71.04684 791
71.05131 826
71.05779 889
73.06716 1046
77.03653 945
77.04113 942
79.05314 16249
80.04581 978
80.05629 986
81.04875 10822
81.06883 25881
82.07133 1292
83.04829 6273
83.08473 1251
83.09995 1244
85.0489 940
85.06139 742
85.06774 716
89.0261 841
89.04045 1591
89.0587 1520
89.07854 695
91.05353 2717
93.0685 36363
94.07204 2120
94.08418 2128
95.08432 17970
95.1029 17977
96.0843 1006
96.08905 1009
97.04695 13615
97.06361 13493
97.0808 33489
97.10015 19517
98.05339 807
98.06613 806
98.07054 809
98.0776 936
98.09722 1271
98.10401 1261
98.11079 1268
99.0655 608
99.07914 652
101.04115 802
101.05166 965
101.06142 989
101.07642 1007
105.06632 2020
105.07326 2027
107.08443 7086
109.10115 868
111.11594 6126
119.08481 2423
121.0998 55058
122.10468 4403
123.07946 688
123.11259 588
123.12023 583
131.08466 5448
133.04918 1202
133.08237 901
133.09262 952
133.10028 1034
135.04469 1071
135.05795 1221
135.06566 724
139.11041 48600
140.11469 3939
147.06404 7646
148.0657 1079
149.09489 5462
157.10526 2373
157.12103 2567
161.09555 962
167.03632 6332
167.10637 1853
179.03989 1229
185.11594 19916
186.12109 1954
193.04521 1713
193.05559 1633
197.09439 668
205.05299 3551
207.0685 4713
223.06311 21063
224.06673 1097
225.09692 768
237.07852 3890
238.07861 782
239.03537 567
239.09309 723
241.0737 30497
241.17184 1015
241.18541 1037
241.1958 680
242.07716 2330
281.13165 749
281.1467 1007
297.13632 21175
298.14188 2419
324.9856 3508
325.98517 1176
326.96799 4422
327.9693 895
328.96585 602
328.98416 746
334.22079 2782
334.71921 786
334.73553 760
337.23285 40809
Name: Erucamide
PrecursorMZ: 338.3435
PrecursorType: [M+H]+
IonMode: Positive
Formula: C22H43NO
SMILES: CCCCCCCCC=CCCCCCCCCCCCC(=O)N
InChI: 
InChIKey: UAUDZVJPLUQNMU-KTKRTIGZSA-N
RetentionTime: 8.853372
CCS: 
CollisionEnergy: 20-40 eV
InstrumentType: UPLC-QTOF-MS
Comment: PI: Cristina Nerin; Data collector: QiZhi Su, GUIA, University of Zaragoza, Spain; Collision energy: 20-40 V; Instrument: Waters HPLC-QTOF-MS (Xevo G2 QTof); Ionization: ESI; Deconvoluted by MS-DIAL; Column: Waters AtlantisTM premier BEH C18 AX column (2.1 × 100mm x 1.7μm); Flow rate: 0.3mL/min; Mobile phase A and B are water and methnaol, respectively, both with 0.1% formic acid; Gradient elution: from A/B (95/5) to A/B (100/0) in 7min, kept for 4 min, then back to A/B (95/5) in 0.1 min, and maintained for additional 1.9 min (13min in total).; Injection volume: 10 μL
Num peaks: 224
55.04553 281
55.05263 287
55.05859 294
57.06424 137
57.07039 136
60.0806 123
60.08867 111
67.03316 129
67.04984 118
67.05443 99
69.05811 1159
69.06931 1133
70.05875 106
70.06566 105
70.07202 108
70.08524 136
73.02901 9077
73.04609 8913
73.06415 8662
74.04782 1212
74.0664 1506
74.09599 252
75.02683 693
75.04163 568
75.04618 703
81.07052 1019
82.06262 186
82.07192 187
83.08543 1478
84.07035 118
84.08839 102
85.04543 106
86.04916 151
86.05674 157
86.06536 161
86.07218 165
86.09432 196
86.10124 197
86.10874 192
91.05538 196
93.05565 280
93.06992 190
93.08411 221
95.06604 821
95.08551 809
96.08906 156
97.06469 230
97.06929 251
97.08514 1262
97.10154 1240
97.11613 1262
98.9744 109
98.99013 111
100.07435 383
100.07912 384
107.07327 388
107.08426 400
107.08939 407
107.10062 400
108.07938 117
108.0855 104
108.09364 117
109.04346 128
109.08709 373
109.10082 567
111.07897 283
111.08884 262
111.1146 370
111.12091 373
114.08602 253
114.09653 256
115.07622 174
121.09274 274
121.10237 322
121.11556 282
123.11557 116
123.12375 107
125.08958 264
125.09898 228
125.11655 302
128.10356 172
130.15891 332
130.1682 330
135.07382 115
135.08913 204
135.10785 298
135.11839 251
139.05794 124
147.06599 2135
149.04544 940
149.06331 549
149.13324 284
150.04593 104
151.05713 335
151.07329 159
151.08911 102
153.12657 114
155.01085 100
159.02654 100
161.06152 102
161.07268 185
161.08923 218
163.06061 213
164.05821 1696
164.06546 1671
165.0385 136
165.08083 187
167.07089 276
177.0775 204
177.13338 131
184.07069 98
187.03363 543
187.04306 552
187.10612 101
187.11633 110
188.64748 296
188.65874 296
189.05183 197
189.13768 123
193.00061 149
193.00928 155
193.01979 243
193.11598 103
196.08459 122
201.15616 133
201.17134 141
205.04622 308
205.05392 233
205.08409 124
205.0928 108
205.18791 117
207.03329 4088
207.20959 133
208.03557 534
209.01071 284
209.03514 491
209.08861 263
209.99707 115
210.01306 106
218.09119 108
221.08582 904
222.08168 120
222.10115 102
223.09598 370
224.02486 113
233.03778 186
233.10017 140
239.14209 169
239.1535 154
239.16365 102
240.08479 102
249.11366 130
251.03773 118
251.14198 140
251.16557 100
252.11942 323
252.95006 106
253.10834 140
262.11792 113
263.0842 528
263.09747 602
264.0994 107
265.14352 164
265.19382 609
265.69745 160
268.02435 230
277.12445 201
279.08795 115
283.19208 173
284.02621 121
284.28351 174
284.29855 149
287.19385 488
287.20657 626
287.22391 317
294.55338 118
294.56097 129
295.10446 107
295.12595 158
295.19318 205
302.07141 143
302.0817 126
302.58243 118
303.30499 215
303.31656 204
304.9556 112
305.21609 204
305.2384 399
305.2518 260
307.05307 185
308.05719 107
309.03372 153
309.0726 311
309.5191 123
310.01132 108
310.03296 147
310.06555 166
310.23853 128
310.56848 104
312.31784 129
312.3381 104
316.57584 138
319.20801 376
321.15274 110
321.21115 9798
321.28696 103
321.31079 397
321.32639 378
322.20557 1383
322.21805 1446
322.32431 114
323.19745 343
325.11966 115
325.13339 142
325.20248 176
325.96347 169
327.00327 1097
327.94922 244
331.72192 105
337.11893 155
337.17386 98
337.19183 138
338.33044 385
338.3446 1904
Name: Dibutyl sebacate
PrecursorMZ: 353.2101
PrecursorType: [M+K]+
IonMode: Positive
Formula: C18H34O4
SMILES: CCCCOC(=O)CCCCCCCCC(=O)OCCCC
InChI: 
InChIKey: PYGXAGIECVVIOZ-UHFFFAOYSA-N
RetentionTime: 8.064716
CCS: 
CollisionEnergy: 20-40 eV
InstrumentType: UPLC-QTOF-MS
Comment: PI: Cristina Nerin; Data collector: QiZhi Su, GUIA, University of Zaragoza, Spain; Collision energy: 20-40 V; Instrument: Waters HPLC-QTOF-MS (Xevo G2 QTof); Ionization: ESI; Deconvoluted by MS-DIAL; Column: Waters AtlantisTM premier BEH C18 AX column (2.1 × 100mm x 1.7μm); Flow rate: 0.3mL/min; Mobile phase A and B are water and methnaol, respectively, both with 0.1% formic acid; Gradient elution: from A/B (95/5) to A/B (100/0) in 7min, kept for 4 min, then back to A/B (95/5) in 0.1 min, and maintained for additional 1.9 min (13min in total).; Injection volume: 10 μL
Num peaks: 125
55.05359 3370
57.06851 1373
57.08133 1373
67.03689 7477
67.05348 7609
69.03354 840
69.0522 38622
69.06886 37930
69.08138 37925
70.07298 1959
71.04684 791
71.05131 826
71.05779 889
73.06716 1046
77.03653 945
77.04113 942
79.05314 16249
80.04581 978
80.05629 986
81.04875 10822
81.06883 25881
82.07133 1292
83.04829 6273
83.08473 1251
83.09995 1244
85.0489 940
85.06139 742
85.06774 716
89.0261 841
89.04045 1591
89.0587 1520
89.07854 695
91.05353 2717
93.0685 36363
94.07204 2120
94.08418 2128
95.08432 17970
95.1029 17977
96.0843 1006
96.08905 1009
97.04695 13615
97.06361 13493
97.0808 33489
97.10015 19517
98.05339 807
98.06613 806
98.07054 809
98.0776 936
98.09722 1271
98.10401 1261
98.11079 1268
99.0655 608
99.07914 652
101.04115 802
101.05166 965
101.06142 989
101.07642 1007
105.06632 2020
105.07326 2027
107.08443 7086
109.10115 868
111.11594 6126
119.08481 2423
121.0998 55058
122.10468 4403
123.07946 688
123.11259 588
123.12023 583
131.08466 5448
133.04918 1202
133.08237 901
133.09262 952
133.10028 1034
135.04469 1071
135.05795 1221
135.06566 724
139.11041 48600
140.11469 3939
147.06404 7646
148.0657 1079
149.09489 5462
157.10526 2373
157.12103 2567
161.09555 962
167.03632 6332
167.10637 1853
179.03989 1229
185.11594 19916
186.12109 1954
193.04521 1713
193.05559 1633
197.09439 668
205.05299 3551
207.0685 4713
223.06311 21063
224.06673 1097
225.09692 768
237.07852 3890
238.07861 782
239.03537 567
239.09309 723
241.0737 30497
241.17184 1015
241.18541 1037
241.1958 680
242.07716 2330
281.13165 749
281.1467 1007
297.13632 21175
298.14188 2419
324.9856 3508
325.98517 1176
326.96799 4422
327.9693 895
328.96585 602
328.98416 746
334.22079 2782
334.71921 786
334.73553 760
337.23285 36977
338.23529 5586
339.2262 562
339.23865 671
339.25061 671
343.01425 1008
Name: Erucamide
PrecursorMZ: 360.3249
PrecursorType: [M+Na]+
IonMode: Positive
Formula: C22H43NO
SMILES: CCCCCCCCC=CCCCCCCCCCCCC(=O)N
InChI: 
InChIKey: UAUDZVJPLUQNMU-KTKRTIGZSA-N
RetentionTime: 8.856744
CCS: 
CollisionEnergy: 20-40 eV
InstrumentType: UPLC-QTOF-MS
Comment: PI: Cristina Nerin; Data collector: QiZhi Su, GUIA, University of Zaragoza, Spain; Collision energy: 20-40 V; Instrument: Waters HPLC-QTOF-MS (Xevo G2 QTof); Ionization: ESI; Deconvoluted by MS-DIAL; Column: Waters AtlantisTM premier BEH C18 AX column (2.1 × 100mm x 1.7μm); Flow rate: 0.3mL/min; Mobile phase A and B are water and methnaol, respectively, both with 0.1% formic acid; Gradient elution: from A/B (95/5) to A/B (100/0) in 7min, kept for 4 min, then back to A/B (95/5) in 0.1 min, and maintained for additional 1.9 min (13min in total).; Injection volume: 10 μL
Num peaks: 61
57.05382 4890
57.06895 4739
67.03846 4754
67.0533 4749
69.05362 25215
69.06871 25200
69.08322 25196
71.07136 18201
71.08453 18189
81.06918 17977
83.08447 32524
85.10065 14149
85.11366 14129
86.05997 3698
93.05753 7535
93.06878 7552
95.08453 21644
97.04876 6784
97.06403 6760
97.1001 33516
100.07527 8274
100.09258 8586
107.08441 8233
109.10023 14417
111.08036 7479
111.11603 14923
114.0902 9148
121.10063 13404
123.09874 8466
123.11574 8301
125.09542 5909
125.13151 4649
128.10744 6584
135.11615 17056
137.13098 3652
139.11165 4517
142.12138 4036
149.02278 11061
149.13112 12728
149.14908 12814
156.13744 3758
163.14769 6815
163.16762 3819
177.16278 4036
198.18402 3230
240.23328 3460
254.2444 3295
254.25513 3296
303.30362 36203
304.30872 7001
321.314 59145
322.31818 11978
338.3399 319327
339.34311 72367
340.34656 6494
340.36414 6262
357.31342 28719
357.81509 13252
358.31567 3362
358.3298 3255
360.32202 35182
Name: Diisononyl phthalate
PrecursorMZ: 419.3162
PrecursorType: [M+H]+
IonMode: Positive
Formula: C26H42O4
SMILES: CC(C)CCCCCCOC(=O)C1=CC=CC=C1C(=O)OCCCCCCC(C)C
InChI: 
InChIKey: HBGGXOJOCNVPFY-UHFFFAOYSA-N
RetentionTime: 8.877283
CCS: 
CollisionEnergy: 20-40 eV
InstrumentType: UPLC-QTOF-MS
Comment: PI: Cristina Nerin; Data collector: QiZhi Su, GUIA, University of Zaragoza, Spain; Collision energy: 20-40 V; Instrument: Waters HPLC-QTOF-MS (Xevo G2 QTof); Ionization: ESI; Deconvoluted by MS-DIAL; Column: Waters AtlantisTM premier BEH C18 AX column (2.1 × 100mm x 1.7μm); Flow rate: 0.3mL/min; Mobile phase A and B are water and methnaol, respectively, both with 0.1% formic acid; Gradient elution: from A/B (95/5) to A/B (100/0) in 7min, kept for 4 min, then back to A/B (95/5) in 0.1 min, and maintained for additional 1.9 min (13min in total).; Injection volume: 10 μL
Num peaks: 104
55.05395 1821
57.06933 4934
67.0536 3469
69.06892 15158
71.0846 22218
73.04589 57688
74.04702 3063
81.06879 11643
83.08453 18330
85.10004 15968
86.06007 2028
89.04128 2389
89.05865 1809
93.06974 3841
95.08496 13340
97.06429 3133
97.10024 17586
100.07522 4364
107.0841 5625
109.10113 9475
111.0791 3907
111.11591 7059
114.08988 5022
121.10104 7700
123.11599 4813
125.09541 2680
125.13185 2660
128.10683 3396
135.11627 8961
139.11183 2233
147.06482 33813
148.06633 3052
149.02269 18786
149.04863 3171
149.06274 1724
149.13229 6566
156.13843 1598
163.05983 31116
163.14803 3022
164.06056 3702
165.05798 1782
177.16278 1907
191.00255 1849
207.03247 21018
207.06859 6547
208.03307 3004
209.02679 1720
221.08423 23495
222.08539 4008
223.06538 7695
237.07872 115999
238.07959 24834
239.07689 10800
240.0789 1674
248.98816 2250
250.96896 2393
265.01843 3689
266.9993 21087
267.99847 3691
268.99738 2336
281.05026 98169
282.05103 22208
283.04889 14106
284.05005 2204
295.10214 2517
303.30365 13163
304.30765 2961
311.09793 15382
312.10031 4171
313.09991 1855
321.31482 23226
322.30841 1536
322.3251 2708
324.98734 4348
326.96512 6517
327.96405 1579
331.1221 8232
338.34039 142768
339.34357 29915
340.34772 2634
341.01694 50580
342.01657 13421
343.01572 8627
355.06833 64891
356.06964 20293
357.06757 12693
357.30963 3488
357.32245 2902
357.815 2357
358.06735 2373
360.32184 8756
367.05786 1721
371.10007 10840
372.10104 3778
373.095 2038
376.28738 5082
385.11713 2158
397.79822 9270
398.29926 4086
398.80811 1465
400.98212 1872
415.03723 8379
416.03735 2972
417.03644 2030
Name: Diisononyl phthalate
PrecursorMZ: 441.2988
PrecursorType: [M+Na]+
IonMode: Positive
Formula: C26H42O4
SMILES: CC(C)CCCCCCOC(=O)C1=CC=CC=C1C(=O)OCCCCCCC(C)C
InChI: 
InChIKey: HBGGXOJOCNVPFY-UHFFFAOYSA-N
RetentionTime: 8.873478
CCS: 
CollisionEnergy: 20-40 eV
InstrumentType: UPLC-QTOF-MS
Comment: PI: Cristina Nerin; Data collector: QiZhi Su, GUIA, University of Zaragoza, Spain; Collision energy: 20-40 V; Instrument: Waters HPLC-QTOF-MS (Xevo G2 QTof); Ionization: ESI; Deconvoluted by MS-DIAL; Column: Waters AtlantisTM premier BEH C18 AX column (2.1 × 100mm x 1.7μm); Flow rate: 0.3mL/min; Mobile phase A and B are water and methnaol, respectively, both with 0.1% formic acid; Gradient elution: from A/B (95/5) to A/B (100/0) in 7min, kept for 4 min, then back to A/B (95/5) in 0.1 min, and maintained for additional 1.9 min (13min in total).; Injection volume: 10 μL
Num peaks: 124
57.06677 730
57.07262 752
60.05964 234
67.05399 418
67.06089 406
69.06877 1585
71.08523 3410
72.06876 270
72.08009 387
72.08725 383
72.09251 376
81.05331 1418
81.06922 1311
81.08694 1322
83.08502 1790
85.1001 2458
85.11395 2464
89.04246 238
89.07634 632
93.06955 549
95.08529 1472
97.06358 425
97.07018 443
97.10063 1729
97.11006 1710
100.07505 377
100.08333 383
107.0845 428
111.08115 349
111.11668 652
114.09097 328
114.09819 327
121.10003 991
123.11624 426
123.132 259
125.09197 240
125.10134 256
133.04892 424
133.08549 1137
133.10333 1199
135.11702 662
137.12375 239
144.99713 669
145.00714 662
145.01855 387
149.01515 1837
149.02342 2446
149.13075 372
163.1508 335
177.11259 521
177.12721 543
181.07964 232
181.09076 235
181.10388 283
183.08609 382
183.10658 667
188.64713 351
189.05298 230
219.011 900
219.02145 934
221.13608 300
221.14981 273
222.06096 264
222.10675 966
233.06238 335
233.07455 344
242.02068 615
242.03603 714
242.53854 471
277.09137 294
277.11432 262
279.03574 345
279.05212 2021
279.55017 666
279.56161 680
280.02515 427
280.04404 890
280.53601 329
280.55103 298
280.56342 314
287.12521 631
287.1438 648
293.02982 1355
293.0462 1294
294.03824 308
309.18304 241
316.04269 1395
316.05707 1392
316.54657 670
316.55804 650
317.05554 628
317.54819 279
317.56415 245
331.12344 3202
332.1196 519
332.15073 308
353.03421 258
367.0553 5280
368.06122 1211
369.05408 774
375.22641 228
376.28738 1078
376.30905 513
377.29355 242
390.07932 417
391.05679 330
397.78296 343
400.95901 353
406.08835 2196
406.10559 2019
406.56039 244
406.58749 1694
407.08914 1466
407.58539 780
408.06866 287
408.0896 385
427.08392 1248
427.10556 262
427.59293 489
438.289 875
438.7883 395
441.07385 2434
441.29779 22735
441.7941 293
Name: Diisononyl phthalate
PrecursorMZ: 457.2731
PrecursorType: [M+K]+
IonMode: Positive
Formula: C26H42O4
SMILES: CC(C)CCCCCCOC(=O)C1=CC=CC=C1C(=O)OCCCCCCC(C)C
InChI: 
InChIKey: HBGGXOJOCNVPFY-UHFFFAOYSA-N
RetentionTime: 8.888617
CCS: 
CollisionEnergy: 20-40 eV
InstrumentType: UPLC-QTOF-MS
Comment: PI: Cristina Nerin; Data collector: QiZhi Su, GUIA, University of Zaragoza, Spain; Collision energy: 20-40 V; Instrument: Waters HPLC-QTOF-MS (Xevo G2 QTof); Ionization: ESI; Deconvoluted by MS-DIAL; Column: Waters AtlantisTM premier BEH C18 AX column (2.1 × 100mm x 1.7μm); Flow rate: 0.3mL/min; Mobile phase A and B are water and methnaol, respectively, both with 0.1% formic acid; Gradient elution: from A/B (95/5) to A/B (100/0) in 7min, kept for 4 min, then back to A/B (95/5) in 0.1 min, and maintained for additional 1.9 min (13min in total).; Injection volume: 10 μL
Num peaks: 37
57.06924 3190
69.06908 3290
71.07322 25247
71.08466 25265
73.03084 3672
73.04601 3610
73.06361 3401
83.08473 3282
85.08498 19532
85.10047 19480
147.06506 10200
149.02281 26693
163.06023 3621
207.03209 5299
221.08455 12451
281.0506 86263
282.05209 21909
283.04944 11540
311.09909 8023
326.96835 3249
331.12207 3638
343.01669 5371
355.06915 11669
356.07022 3802
357.06799 4034
371.1012 7361
415.03412 7185
415.0481 7241
429.08832 11640
430.08963 4052
438.2861 9073
438.77521 5172
438.79395 5396
441.29654 318911
442.29996 83609
443.30298 10736
457.27124 5470
Name: Tri(ethyleneglycol)diacrylate
PrecursorMZ: 259.1199
PrecursorType: [M+H]+
IonMode: Positive
Formula: C12H18O6
SMILES: C=CC(=O)OCCOCCOCCOC(=O)C=C
InChI: 
InChIKey: INQDDHNZXOAFFD-UHFFFAOYSA-N
RetentionTime: 4.93445
CCS: 
CollisionEnergy: 20-40 eV
InstrumentType: UPLC-QTOF-MS
Comment: PI: Cristina Nerin; Data collector: QiZhi Su, GUIA, University of Zaragoza, Spain; Collision energy: 20-40 V; Instrument: Waters HPLC-QTOF-MS (Xevo G2 QTof); Ionization: ESI; Deconvoluted by MS-DIAL; Column: Waters AtlantisTM premier BEH C18 AX column (2.1 × 100mm x 1.7μm); Flow rate: 0.3mL/min; Mobile phase A and B are water and methnaol, respectively, both with 0.1% formic acid; Gradient elution: from A/B (95/5) to A/B (100/0) in 7min, kept for 4 min, then back to A/B (95/5) in 0.1 min, and maintained for additional 1.9 min (13min in total).; Injection volume: 10 μL
Num peaks: 37
55.01226 616
55.01779 622
55.0233 617
66.98339 354
66.98942 354
99.0432 11983
100.04462 573
100.0509 569
100.05888 558
100.97456 699
100.98457 739
100.99117 703
110.975 11253
111.95864 207
111.96949 323
111.97847 330
111.9868 311
114.96947 135
133.02998 149
142.99924 132
143.0089 127
145.01562 2478
145.03227 2507
149.02498 155
154.99986 384
155.01076 364
189.03773 157
189.04532 174
199.02867 3512
200.01807 219
200.03075 205
217.0318 162
217.04924 173
243.05437 2134
244.04222 164
244.05336 219
244.06575 222
Name: Dibutyl sebacate
PrecursorMZ: 651.4826
PrecursorType: [2M+Na]+
IonMode: Positive
Formula: C18H34O4
SMILES: CCCCOC(=O)CCCCCCCCC(=O)OCCCC
InChI: 
InChIKey: PYGXAGIECVVIOZ-UHFFFAOYSA-N
RetentionTime: 8.064716
CCS: 
CollisionEnergy: 20-40 eV
InstrumentType: UPLC-QTOF-MS
Comment: PI: Cristina Nerin; Data collector: QiZhi Su, GUIA, University of Zaragoza, Spain; Collision energy: 20-40 V; Instrument: Waters HPLC-QTOF-MS (Xevo G2 QTof); Ionization: ESI; Deconvoluted by MS-DIAL; Column: Waters AtlantisTM premier BEH C18 AX column (2.1 × 100mm x 1.7μm); Flow rate: 0.3mL/min; Mobile phase A and B are water and methnaol, respectively, both with 0.1% formic acid; Gradient elution: from A/B (95/5) to A/B (100/0) in 7min, kept for 4 min, then back to A/B (95/5) in 0.1 min, and maintained for additional 1.9 min (13min in total).; Injection volume: 10 μL
Num peaks: 158
55.03774 1128
55.05407 1219
57.06881 778
67.05373 1913
67.05868 1904
69.03094 304
69.03878 296
69.04725 300
69.06905 12763
70.05893 445
70.0724 457
70.08042 447
73.02571 9611
74.04227 514
74.0471 512
74.05738 504
77.03967 261
79.05345 4703
80.04685 273
80.05359 267
80.05917 268
81.06946 7951
82.07294 339
83.04908 2429
85.05906 242
85.0649 221
85.07143 253
91.03645 741
91.05386 651
91.06737 674
93.06898 11704
94.06075 646
94.07198 701
94.08249 694
95.08446 5528
96.0877 241
96.09753 241
97.0645 4506
97.10008 5888
97.11064 5887
98.05141 315
98.06441 280
98.06926 279
98.077 264
98.08929 423
98.10303 376
99.06723 225
99.07606 241
99.08418 243
101.05349 230
101.0655 255
105.05479 689
105.07066 563
107.08435 1976
107.09878 1998
111.09625 421
111.11671 2198
119.06872 494
119.08516 617
121.10009 20019
122.08434 1032
122.10404 1456
123.09265 349
131.06737 1694
131.08406 1931
131.0934 1950
133.10272 252
139.11098 17847
140.1154 1412
140.12822 1418
149.02524 1158
149.04468 321
149.07521 316
149.0956 2042
150.08041 224
150.09894 272
151.04321 408
151.05806 382
157.11998 833
157.12801 915
161.07133 244
167.0379 4107
167.10121 508
167.11095 494
168.03383 229
168.04175 219
177.05688 290
177.06505 309
179.03915 682
185.11742 8162
186.10881 624
186.12361 625
193.0531 1149
193.06776 1033
205.05289 2005
206.04166 219
207.10291 325
209.07779 231
209.09364 407
222.08585 215
222.09651 251
222.10516 219
223.06392 18061
224.06093 1362
224.07205 1383
225.10164 437
227.0507 233
239.03464 554
241.07433 20669
241.17256 256
241.18991 259
242.07867 1808
243.07515 312
245.04854 263
245.06721 330
245.08269 321
247.02553 232
247.03453 250
257.05215 287
279.1214 331
279.13589 297
281.14175 929
281.15747 915
281.16876 973
297.13763 16486
298.1387 1954
298.15506 2111
299.13263 336
299.14954 325
324.98685 755
325.98877 332
326.99908 771
334.2247 1684
334.70721 452
334.72195 466
334.74203 446
337.23346 14566
338.23685 2303
338.25259 2369
341.01779 2180
342.01904 965
342.99789 1009
399.20444 9680
400.20535 1590
400.21973 1676
401.19931 245
401.21103 376
401.2247 251
443.31787 533
443.33514 766
443.35263 800
487.3667 687
488.35602 361
531.40063 1012
555.30927 556
555.33752 337
559.17218 269
611.37158 225
Name: Erucamide
PrecursorMZ: 675.6801
PrecursorType: [2M+H]+
IonMode: Positive
Formula: C22H43NO
SMILES: CCCCCCCCC=CCCCCCCCCCCCC(=O)N
InChI: 
InChIKey: UAUDZVJPLUQNMU-KTKRTIGZSA-N
RetentionTime: 8.851942
CCS: 
CollisionEnergy: 20-40 eV
InstrumentType: UPLC-QTOF-MS
Comment: PI: Cristina Nerin; Data collector: QiZhi Su, GUIA, University of Zaragoza, Spain; Collision energy: 20-40 V; Instrument: Waters HPLC-QTOF-MS (Xevo G2 QTof); Ionization: ESI; Deconvoluted by MS-DIAL; Column: Waters AtlantisTM premier BEH C18 AX column (2.1 × 100mm x 1.7μm); Flow rate: 0.3mL/min; Mobile phase A and B are water and methnaol, respectively, both with 0.1% formic acid; Gradient elution: from A/B (95/5) to A/B (100/0) in 7min, kept for 4 min, then back to A/B (95/5) in 0.1 min, and maintained for additional 1.9 min (13min in total).; Injection volume: 10 μL
Num peaks: 212
55.05001 867
55.05621 865
57.06837 739
57.07241 737
60.07993 621
60.08603 629
67.05374 864
69.05491 4948
69.06927 4979
70.06146 345
70.07208 339
70.0776 315
71.08479 3446
72.07993 553
72.08624 537
72.09167 564
73.04596 22716
74.03022 1743
74.04829 1689
75.02407 701
75.03072 669
75.04176 655
79.04098 803
79.0526 726
79.0586 713
81.06948 2394
83.04465 408
83.04906 398
83.05775 387
83.08497 6379
84.07698 410
84.08606 404
84.09557 414
85.10084 1687
86.06023 503
86.08784 367
86.09655 393
86.1041 400
86.11024 383
89.06 565
93.07061 1644
95.08501 2972
97.06261 1017
97.06805 1015
97.10085 4960
98.09835 516
98.10563 508
100.07611 1344
107.06754 1017
107.08549 1892
108.07699 340
108.08771 330
109.08489 781
109.09921 1615
109.10497 1613
111.08064 1283
111.11552 1860
114.09135 1527
114.1069 1423
121.10204 2368
123.11732 646
125.09695 788
125.13237 594
128.10799 660
133.03214 618
133.04921 614
135.11737 2550
137.13358 475
139.10683 849
139.11458 846
142.10762 512
142.12308 610
147.06548 20811
148.06023 2914
148.06813 2918
149.01576 800
149.04527 4634
149.13191 1465
150.03909 598
150.04857 570
153.12448 292
153.13286 309
163.06056 3538
163.14304 938
163.15009 937
164.04065 335
164.06136 421
165.03262 327
165.05251 317
165.06404 297
177.16443 566
188.63322 924
188.64844 937
188.97989 304
190.99451 525
191.00511 474
191.17575 339
191.18745 336
205.1949 289
205.20737 316
207.03197 5851
208.03653 957
208.08159 283
209.03183 610
209.08754 284
210.02025 287
219.21541 291
219.22202 294
233.2226 280
237.07962 8965
238.08086 1951
239.07799 470
243.06122 285
244.02704 328
247.23038 357
247.24609 346
279.01788 380
280.02997 674
280.04297 765
295.10352 286
295.11954 327
296.32941 365
303.30594 2043
304.2897 430
304.30399 501
304.31927 558
311.09979 1814
312.10184 563
321.31479 2745
322.31647 582
322.32968 591
324.98752 8017
325.9751 1874
325.9874 1935
326.0025 1972
326.97299 2625
327.97977 513
338.34247 16259
339.34634 3345
340.35168 422
340.36758 314
341.01804 27991
342.01767 8391
343.01566 5264
344.00592 886
344.02216 888
345.02411 311
356.07141 361
357.31738 1078
357.33658 476
357.81363 556
357.82996 441
360.31122 603
360.32477 629
360.33954 465
374.27814 294
376.28812 3074
377.28769 707
377.30518 673
397.80542 351
406.08932 575
406.57303 508
407.58563 692
407.59848 441
411.02368 303
415.03735 1374
416.03778 626
417.01816 792
417.03601 376
422.29565 1934
423.29581 523
427.09369 623
427.58307 478
427.60226 453
428.08023 580
428.09525 539
428.58371 301
430.1102 2402
441.29959 5894
442.30411 1479
443.08884 898
443.59903 436
446.13583 679
447.11969 281
463.30856 1037
463.33984 356
463.81705 473
480.09564 443
480.11035 513
480.59763 353
481.09973 508
485.31137 1654
485.33487 1688
485.82928 1262
486.3089 419
486.32608 460
503.11121 2260
503.24991 632
503.28271 909
504.09137 764
504.11783 554
504.2905 285
507.82593 451
517.08148 322
517.09961 349
529.08191 466
529.8468 339
531.0636 280
566.47083 329
601.18927 306
607.16321 420
607.18542 433
Name: Erucamide
PrecursorMZ: 697.6618
PrecursorType: [2M+Na]+
IonMode: Positive
Formula: C22H43NO
SMILES: CCCCCCCCC=CCCCCCCCCCCCC(=O)N
InChI: 
InChIKey: UAUDZVJPLUQNMU-KTKRTIGZSA-N
RetentionTime: 8.855683
CCS: 
CollisionEnergy: 20-40 eV
InstrumentType: UPLC-QTOF-MS
Comment: PI: Cristina Nerin; Data collector: QiZhi Su, GUIA, University of Zaragoza, Spain; Collision energy: 20-40 V; Instrument: Waters HPLC-QTOF-MS (Xevo G2 QTof); Ionization: ESI; Deconvoluted by MS-DIAL; Column: Waters AtlantisTM premier BEH C18 AX column (2.1 × 100mm x 1.7μm); Flow rate: 0.3mL/min; Mobile phase A and B are water and methnaol, respectively, both with 0.1% formic acid; Gradient elution: from A/B (95/5) to A/B (100/0) in 7min, kept for 4 min, then back to A/B (95/5) in 0.1 min, and maintained for additional 1.9 min (13min in total).; Injection volume: 10 μL
Num peaks: 69
57.05382 3423
67.03846 3946
67.0533 3688
69.05362 23501
69.06871 23684
69.08322 23681
71.07136 12782
71.08453 12871
81.06918 17518
83.08447 30816
85.10065 12525
85.11366 12532
86.05997 3705
93.05753 6962
93.06878 7071
95.08453 19745
97.04876 6405
97.06403 6430
97.1001 33120
100.07527 7666
100.09258 7931
107.08441 7163
109.10023 12680
111.08036 6867
111.11603 14156
114.0902 8755
121.10063 13042
123.09874 7741
123.11574 8023
125.09542 5384
125.13151 4640
128.10744 6238
135.11615 17344
139.11165 4695
142.12138 3886
149.02278 7877
149.13112 12994
149.14908 13057
156.13744 3954
163.14769 6997
177.16278 3810
198.18402 3268
240.23328 3603
254.2444 3315
254.25513 3316
303.30362 36958
304.30872 7229
321.314 60044
322.31818 12346
338.3399 319320
339.34311 72905
340.34656 6554
340.36414 5774
357.31342 27599
357.81509 13074
358.31567 3391
358.3298 3529
360.32202 25057
361.3255 3568
422.29382 3512
441.29523 86370
442.30063 21433
503.1055 3806
525.98029 22005
526.4812 17087
526.97272 5676
526.99298 4437
668.45453 5405
694.64429 4548
Name: Tri(ethyleneglycol)diacrylate
PrecursorMZ: 276.1466
PrecursorType: [M+NH4]+
IonMode: Positive
Formula: C12H18O6
SMILES: C=CC(=O)OCCOCCOCCOC(=O)C=C
InChI: 
InChIKey: INQDDHNZXOAFFD-UHFFFAOYSA-N
RetentionTime: 4.937619
CCS: 
CollisionEnergy: 20-40 eV
InstrumentType: UPLC-QTOF-MS
Comment: PI: Cristina Nerin; Data collector: QiZhi Su, GUIA, University of Zaragoza, Spain; Collision energy: 20-40 V; Instrument: Waters HPLC-QTOF-MS (Xevo G2 QTof); Ionization: ESI; Deconvoluted by MS-DIAL; Column: Waters AtlantisTM premier BEH C18 AX column (2.1 × 100mm x 1.7μm); Flow rate: 0.3mL/min; Mobile phase A and B are water and methnaol, respectively, both with 0.1% formic acid; Gradient elution: from A/B (95/5) to A/B (100/0) in 7min, kept for 4 min, then back to A/B (95/5) in 0.1 min, and maintained for additional 1.9 min (13min in total).; Injection volume: 10 μL
Num peaks: 22
55.01581 637
55.02042 806
66.98183 268
66.98557 362
99.04324 22510
100.04659 986
100.99139 1071
100.99786 360
110.97475 19617
122.03491 274
145.01741 4363
149.03868 432
155.00395 409
187.02548 285
189.04799 392
199.02788 6531
200.03032 683
200.03893 326
243.05428 4152
259.02228 235
271.04788 757
271.06073 321
Name: Tri(ethyleneglycol)diacrylate
PrecursorMZ: 281.1005
PrecursorType: [M+Na]+
IonMode: Positive
Formula: C12H18O6
SMILES: C=CC(=O)OCCOCCOCCOC(=O)C=C
InChI: 
InChIKey: INQDDHNZXOAFFD-UHFFFAOYSA-N
RetentionTime: 4.936213
CCS: 
CollisionEnergy: 20-40 eV
InstrumentType: UPLC-QTOF-MS
Comment: PI: Cristina Nerin; Data collector: QiZhi Su, GUIA, University of Zaragoza, Spain; Collision energy: 20-40 V; Instrument: Waters HPLC-QTOF-MS (Xevo G2 QTof); Ionization: ESI; Deconvoluted by MS-DIAL; Column: Waters AtlantisTM premier BEH C18 AX column (2.1 × 100mm x 1.7μm); Flow rate: 0.3mL/min; Mobile phase A and B are water and methnaol, respectively, both with 0.1% formic acid; Gradient elution: from A/B (95/5) to A/B (100/0) in 7min, kept for 4 min, then back to A/B (95/5) in 0.1 min, and maintained for additional 1.9 min (13min in total).; Injection volume: 10 μL
Num peaks: 38
55.01748 622
55.03576 602
66.98448 354
99.04285 11963
99.06297 8768
100.033 572
100.04337 573
100.05174 569
100.96784 161
100.97204 698
100.9911 703
110.97405 11250
111.97385 323
111.98016 327
111.98752 311
114.95652 141
114.96676 121
114.97323 142
142.99898 132
143.00835 127
145.01738 2482
154.9893 347
155.00172 384
155.01225 363
171.02734 123
189.04137 179
199.02881 3512
200.02087 213
200.03711 194
217.03146 162
217.04395 168
243.0522 2134
243.07674 368
244.0602 225
259.01932 131
271.0509 334
271.07019 216
281.10034 1820
Name: Tri(ethyleneglycol)diacrylate
PrecursorMZ: 297.0746
PrecursorType: [M+K]+
IonMode: Positive
Formula: C12H18O6
SMILES: C=CC(=O)OCCOCCOCCOC(=O)C=C
InChI: 
InChIKey: INQDDHNZXOAFFD-UHFFFAOYSA-N
RetentionTime: 4.936353
CCS: 
CollisionEnergy: 20-40 eV
InstrumentType: UPLC-QTOF-MS
Comment: PI: Cristina Nerin; Data collector: QiZhi Su, GUIA, University of Zaragoza, Spain; Collision energy: 20-40 V; Instrument: Waters HPLC-QTOF-MS (Xevo G2 QTof); Ionization: ESI; Deconvoluted by MS-DIAL; Column: Waters AtlantisTM premier BEH C18 AX column (2.1 × 100mm x 1.7μm); Flow rate: 0.3mL/min; Mobile phase A and B are water and methnaol, respectively, both with 0.1% formic acid; Gradient elution: from A/B (95/5) to A/B (100/0) in 7min, kept for 4 min, then back to A/B (95/5) in 0.1 min, and maintained for additional 1.9 min (13min in total).; Injection volume: 10 μL
Num peaks: 28
55.01822 1177
66.98399 330
66.98959 330
99.0248 16466
99.04355 16169
100.04657 691
100.06185 726
100.97548 396
100.98989 623
110.97471 6739
114.97617 197
145.01797 923
149.01938 182
149.03442 225
149.0412 190
154.99252 388
155.00336 391
189.03236 254
199.02809 2413
200.03708 186
243.054 1534
244.05704 189
271.05145 511
281.09872 2427
281.10965 2472
282.10516 217
282.11469 213
297.05896 890
Name: Diisononyl phthalate
PrecursorMZ: 859.6089
PrecursorType: [2M+Na]+
IonMode: Positive
Formula: C26H42O4
SMILES: CC(C)CCCCCCOC(=O)C1=CC=CC=C1C(=O)OCCCCCCC(C)C
InChI: 
InChIKey: HBGGXOJOCNVPFY-UHFFFAOYSA-N
RetentionTime: 8.889629
CCS: 
CollisionEnergy: 20-40 eV
InstrumentType: UPLC-QTOF-MS
Comment: PI: Cristina Nerin; Data collector: QiZhi Su, GUIA, University of Zaragoza, Spain; Collision energy: 20-40 V; Instrument: Waters HPLC-QTOF-MS (Xevo G2 QTof); Ionization: ESI; Deconvoluted by MS-DIAL; Column: Waters AtlantisTM premier BEH C18 AX column (2.1 × 100mm x 1.7μm); Flow rate: 0.3mL/min; Mobile phase A and B are water and methnaol, respectively, both with 0.1% formic acid; Gradient elution: from A/B (95/5) to A/B (100/0) in 7min, kept for 4 min, then back to A/B (95/5) in 0.1 min, and maintained for additional 1.9 min (13min in total).; Injection volume: 10 μL
Num peaks: 39
71.08456 9032
83.08611 1338
85.10033 5481
149.02269 3615
191.00142 1850
208.0686 1428
208.08238 1505
240.07835 1466
266.01425 2708
266.02893 2707
313.09604 2879
313.11029 3118
324.98593 5903
325.98801 1743
331.12149 7232
344.01776 2079
356.06964 9353
357.06693 5791
406.08652 1464
438.28659 5199
438.78824 2577
441.29584 132509
442.30032 34369
443.30261 4593
457.26263 1542
503.27347 1817
601.41339 4568
602.422 1365
623.29297 1809
647.44061 5102
647.94202 4222
648.44263 1786
749.42712 9753
750.43036 2940
755.20959 3210
756.19678 1947
756.22577 1846
795.20074 2606
796.20099 1491
Name: Diisononyl phthalate
PrecursorMZ: 859.6093
PrecursorType: [2M+Na]+
IonMode: Positive
Formula: C26H42O4
SMILES: CC(C)CCCCCCOC(=O)C1=CC=CC=C1C(=O)OCCCCCCC(C)C
InChI: 
InChIKey: HBGGXOJOCNVPFY-UHFFFAOYSA-N
RetentionTime: 8.831577
CCS: 
CollisionEnergy: 20-40 eV
InstrumentType: UPLC-QTOF-MS
Comment: PI: Cristina Nerin; Data collector: QiZhi Su, GUIA, University of Zaragoza, Spain; Collision energy: 20-40 V; Instrument: Waters HPLC-QTOF-MS (Xevo G2 QTof); Ionization: ESI; Deconvoluted by MS-DIAL; Column: Waters AtlantisTM premier BEH C18 AX column (2.1 × 100mm x 1.7μm); Flow rate: 0.3mL/min; Mobile phase A and B are water and methnaol, respectively, both with 0.1% formic acid; Gradient elution: from A/B (95/5) to A/B (100/0) in 7min, kept for 4 min, then back to A/B (95/5) in 0.1 min, and maintained for additional 1.9 min (13min in total).; Injection volume: 10 μL
Num peaks: 113
55.05363 618
55.06615 585
57.05838 1623
57.06868 1625
67.05264 1041
69.05461 5387
69.06895 5270
70.05698 337
70.06604 338
70.07246 335
71.08463 10557
71.09758 10558
72.07471 966
72.08234 956
72.08841 951
72.09177 946
79.05414 711
79.05975 714
81.06895 3204
83.06087 349
83.08463 6074
84.07196 314
85.10015 7836
86.04915 473
86.0583 464
86.06507 472
86.0734 441
86.09792 838
86.10444 846
93.06883 1924
95.08525 3332
97.06397 1065
97.10019 4687
97.11941 4764
98.09549 417
98.10526 397
100.0756 1183
107.08459 1760
109.09995 2549
111.08041 730
111.11559 1454
114.08802 1476
114.09502 1494
121.02603 359
121.10034 1996
123.09798 1074
123.11427 913
123.12498 915
125.09586 563
128.10678 366
133.07137 461
135.1158 1771
137.13261 686
149.02342 15752
149.13188 1038
150.02672 363
150.0386 536
163.05946 1627
163.14571 393
163.15572 432
165.08482 318
167.06458 446
167.07843 479
177.10309 308
187.0365 457
242.03609 1000
242.53699 396
243.02916 330
279.0242 326
297.11502 427
331.11975 681
400.96945 926
400.98474 966
401.98776 573
438.28671 628
438.7756 395
438.79059 333
438.81015 394
441.29514 30598
442.29803 8529
443.30219 910
447.28738 1204
457.26767 376
457.28384 355
467.09644 621
473.58047 691
473.5957 799
474.09531 572
501.07187 1137
502.0759 332
505.08264 332
575.078 356
606.93622 960
606.95856 1060
607.15778 705
607.17957 582
607.45276 887
609.15808 400
623.2937 542
647.42694 3686
647.44989 3775
647.93524 428
681.17053 477
682.21246 459
749.42407 2214
750.40271 566
750.43011 789
795.20081 2233
796.198 1525
797.20465 1192
829.22198 371
830.22723 362
831.23254 310
Name: (1S)-(-)-Verbenone
PrecursorMZ: 151.1115
PrecursorType: [M+H]+
IonMode: Positive
Formula: C10H14O
SMILES: CC1=CC(=O)C2CC1C2(C)C
InChI: 
InChIKey: DCSCXTJOXBUFGB-JGVFFNPUSA-N
RetentionTime: 5.455167
CCS: 
CollisionEnergy: 20-40 eV
InstrumentType: UPLC-QTOF-MS
Comment: PI: Cristina Nerin; Data collector: QiZhi Su, GUIA, University of Zaragoza, Spain; Collision energy: 20-40 V; Instrument: Waters HPLC-QTOF-MS (Xevo G2 QTof); Ionization: ESI; Deconvoluted by MS-DIAL; Column: Waters AtlantisTM premier BEH C18 AX column (2.1 × 100mm x 1.7μm); Flow rate: 0.3mL/min; Mobile phase A and B are water and methnaol, respectively, both with 0.1% formic acid; Gradient elution: from A/B (95/5) to A/B (100/0) in 7min, kept for 4 min, then back to A/B (95/5) in 0.1 min, and maintained for additional 1.9 min (13min in total).; Injection volume: 10 μL
Num peaks: 208
56.96291 68
56.96857 69
65.03874 553
66.03863 153
66.04308 154
66.04714 154
66.05361 152
67.05402 510
69.06951 537
77.03119 615
77.03847 612
78.9824 73
79.05357 1088
80.05651 185
80.06836 185
81.03304 81
81.06893 1855
82.0701 182
82.07972 182
83.048 88
83.05894 91
84.95965 114
90.04887 83
91.05366 3756
92.01281 110
92.02461 116
92.0377 240
92.05239 237
92.06039 243
92.06975 232
93.03193 318
93.06348 385
93.07236 385
94.04072 2629
95.01761 189
95.02692 325
95.03588 569
95.04217 557
95.04839 558
95.05434 540
95.08622 389
95.09942 391
96.04284 98
96.05006 95
96.05793 97
99.02168 74
101.02406 98
101.0332 102
101.94537 82
103.01439 94
103.02788 87
103.03915 236
103.05263 167
103.05865 159
104.03543 434
104.04514 435
104.05348 361
104.53731 95
104.54571 89
105.06905 875
105.07719 836
106.07244 140
106.0805 144
107.04787 1150
107.06384 1587
107.08371 356
108.05428 779
108.06024 739
109.06428 6734
109.09953 246
110.05235 412
110.06945 431
110.08881 287
110.97455 252
112.05763 74
113.02837 415
113.04263 450
113.06017 377
115.04135 78
115.05829 91
115.06645 108
116.0422 99
116.05369 108
117.05404 150
117.07317 106
118.0335 97
118.07949 71
119.01154 108
119.02366 102
120.04829 77
120.06413 94
121.03264 98
121.04292 184
121.05009 185
121.06389 179
121.07213 158
122.04176 467
122.05247 468
122.06633 338
123.08105 1673
123.09517 1826
123.11479 113
123.12554 102
124.09332 79
126.06286 90
127.04877 98
127.52184 114
127.53047 114
127.53754 117
128.03516 440
128.05061 447
128.53394 175
128.54712 136
129.05305 92
129.07079 90
130.03267 70
130.04887 81
130.0752 70
131.02217 112
131.03288 110
131.04955 85
131.07866 79
132.0302 82
132.04294 91
132.05551 80
132.99405 165
133.00989 173
133.08569 486
133.09746 441
133.10455 429
134.0282 120
134.03769 177
134.04849 185
134.06062 113
134.10423 108
134.53117 116
134.54265 131
134.56006 94
135.01926 85
135.04282 886
135.06537 226
135.07828 111
135.54605 253
135.55449 285
135.56209 226
136.03949 80
137.02441 304
137.04172 278
137.05843 314
137.52902 133
137.54852 207
137.56532 186
141.0417 103
141.05978 92
141.07832 98
141.54356 89
141.55273 120
141.56735 112
142.04688 273
142.05586 368
142.06969 208
142.55113 150
142.55888 139
142.5658 134
142.57706 85
143.05548 119
144.05034 360
144.06659 394
144.5475 134
144.55771 148
145.01385 72
145.02684 115
146.03777 147
146.04622 174
146.06081 150
146.06885 85
147.01114 5950
147.0468 72
148.00853 402
148.01466 389
148.06595 109
148.07697 116
148.08595 107
148.54871 105
148.55925 115
148.5701 97
149.0174 71
149.03725 285
149.0614 3058
149.08809 277
149.09964 134
149.54195 349
149.55698 370
149.56667 359
150.04657 203
150.0623 253
150.07704 243
150.56274 87
150.57161 71
151.00114 196
151.00899 183
151.033 169
151.05069 312
151.05797 305
151.07634 166
151.10767 405
151.11525 582
151.56519 84
Name: 12-Aminododecanolactam
PrecursorMZ: 198.1859
PrecursorType: [M+H]+
IonMode: Positive
Formula: C12H23NO
SMILES: C1CCCCCC(=O)NCCCCC1
InChI: 
InChIKey: JHWNWJKBPDFINM-UHFFFAOYSA-N
RetentionTime: 6.41935
CCS: 
CollisionEnergy: 20-40 eV
InstrumentType: UPLC-QTOF-MS
Comment: PI: Cristina Nerin; Data collector: QiZhi Su, GUIA, University of Zaragoza, Spain; Collision energy: 20-40 V; Instrument: Waters HPLC-QTOF-MS (Xevo G2 QTof); Ionization: ESI; Deconvoluted by MS-DIAL; Column: Waters AtlantisTM premier BEH C18 AX column (2.1 × 100mm x 1.7μm); Flow rate: 0.3mL/min; Mobile phase A and B are water and methnaol, respectively, both with 0.1% formic acid; Gradient elution: from A/B (95/5) to A/B (100/0) in 7min, kept for 4 min, then back to A/B (95/5) in 0.1 min, and maintained for additional 1.9 min (13min in total).; Injection volume: 10 μL
Num peaks: 39
55.05407 4505
55.06463 4498
57.06939 2766
57.08722 2788
67.04308 2045
67.05386 2043
69.05078 15371
69.06927 14985
71.08451 2206
71.09618 2190
72.07996 2062
72.09222 2053
79.05466 3471
79.06868 3495
81.05196 3874
81.06967 3918
82.06445 1756
82.07829 1729
83.07085 13791
83.08477 13549
86.05952 2670
93.06512 3841
93.07043 3851
95.0694 3114
95.08533 3226
95.09723 3167
96.06847 2162
96.08084 2284
96.08524 2282
97.06459 2207
97.08417 8947
97.10028 7207
100.05841 2703
100.07572 2860
107.08578 2442
111.07934 1494
111.08679 1533
121.1003 1476
198.18532 137306
Name: (1S)-(-)-Verbenone
PrecursorMZ: 173.0933
PrecursorType: [M+Na]+
IonMode: Positive
Formula: C10H14O
SMILES: CC1=CC(=O)C2CC1C2(C)C
InChI: 
InChIKey: DCSCXTJOXBUFGB-JGVFFNPUSA-N
RetentionTime: 5.455167
CCS: 
CollisionEnergy: 20-40 eV
InstrumentType: UPLC-QTOF-MS
Comment: PI: Cristina Nerin; Data collector: QiZhi Su, GUIA, University of Zaragoza, Spain; Collision energy: 20-40 V; Instrument: Waters HPLC-QTOF-MS (Xevo G2 QTof); Ionization: ESI; Deconvoluted by MS-DIAL; Column: Waters AtlantisTM premier BEH C18 AX column (2.1 × 100mm x 1.7μm); Flow rate: 0.3mL/min; Mobile phase A and B are water and methnaol, respectively, both with 0.1% formic acid; Gradient elution: from A/B (95/5) to A/B (100/0) in 7min, kept for 4 min, then back to A/B (95/5) in 0.1 min, and maintained for additional 1.9 min (13min in total).; Injection volume: 10 μL
Num peaks: 273
56.96291 68
56.96857 69
65.03874 550
66.03863 153
66.04308 154
66.04714 154
66.05361 152
67.05402 510
69.06951 537
77.03119 615
77.03847 609
78.9824 70
79.05357 1088
80.05651 185
80.06836 185
81.03304 81
81.06893 1855
82.0701 182
82.07972 182
83.048 88
83.05894 91
84.95965 114
90.04887 83
91.05366 3756
92.01281 110
92.02461 117
92.0377 240
92.05239 237
92.06039 243
92.06975 232
93.03193 318
93.06348 385
93.07236 385
94.04072 2629
95.01761 190
95.02692 326
95.03588 571
95.04217 560
95.04839 561
95.05434 533
95.08622 389
95.09942 391
96.04284 98
96.05006 95
96.05793 97
99.02168 74
101.02406 98
101.0332 102
101.94537 86
101.94905 69
101.95956 68
103.01439 94
103.02788 87
103.03915 236
103.05263 167
103.05865 159
104.03543 434
104.04514 435
104.05348 360
104.53731 95
104.54571 89
105.06905 875
105.07719 836
106.07244 140
106.0805 144
107.04787 1150
107.06384 1587
107.08371 356
108.05428 779
108.06024 739
109.06428 6696
109.09953 246
110.05235 412
110.06945 431
110.08881 287
110.97455 252
112.05763 74
113.02837 415
113.04263 450
113.06017 377
115.04135 78
115.05829 91
115.06645 108
116.0422 99
116.05369 111
117.05404 150
117.07317 106
118.0335 97
118.07949 71
119.01154 108
119.02366 102
120.04829 77
120.06413 94
121.03264 98
121.04292 184
121.05009 185
121.06389 179
121.07213 158
122.04176 467
122.05247 468
122.06633 338
123.08105 1673
123.09517 1826
123.11479 113
123.12554 102
124.09332 79
126.06286 90
127.04877 98
127.52184 114
127.53047 114
127.53754 117
128.03516 440
128.05061 447
128.53394 175
128.54712 136
129.05305 92
129.07079 86
130.03267 70
130.04887 81
130.0752 70
131.02217 112
131.03288 110
131.04955 85
131.07866 79
132.0302 82
132.04294 91
132.05551 80
132.99405 165
133.00989 173
133.04848 67
133.08569 486
133.09746 441
133.10455 429
134.0282 120
134.03769 177
134.04849 185
134.06062 113
134.10423 108
134.53117 116
134.54265 131
134.56006 94
135.01926 85
135.04282 886
135.06537 226
135.07828 111
135.54605 253
135.55449 285
135.56209 226
136.03949 80
137.02441 304
137.04172 278
137.05843 314
137.52902 133
137.54852 207
137.56532 186
141.0417 103
141.05978 92
141.07832 98
141.54356 89
141.55273 120
141.56735 112
142.04688 272
142.05586 368
142.06969 208
142.55113 150
142.55888 139
142.5658 134
142.57706 85
143.05548 119
144.05034 360
144.06659 394
144.5475 134
144.55771 148
145.01385 72
145.02684 115
146.03777 147
146.04622 174
146.06081 150
146.06885 85
147.01114 5950
147.0468 72
148.00853 373
148.01466 389
148.06595 109
148.07697 116
148.08595 107
148.54871 105
148.55925 115
148.5701 97
149.0174 72
149.03725 285
149.0614 3058
149.08809 277
149.09964 134
149.54195 349
149.55698 370
149.56667 359
150.04657 203
150.0623 253
150.07704 243
150.56274 87
150.57161 71
151.00114 196
151.00899 183
151.033 169
151.05069 312
151.05797 305
151.07634 166
151.10767 429
151.11525 435
151.55556 90
151.56519 104
151.57289 104
152.11255 100
152.12129 100
153.06163 124
155.05603 124
155.07588 83
156.06857 1537
156.5291 84
156.56139 344
156.57338 311
157.05704 106
157.06912 91
157.08211 86
157.56479 105
158.0461 369
158.05928 1250
158.06586 1229
158.07536 1359
158.08971 175
158.56714 233
158.57558 231
158.58612 203
159.04836 94
159.06563 126
160.05586 92
160.06416 79
161.02727 1101
162.02573 118
162.03743 119
162.98433 147
163.01904 76
164.98178 70
165.01964 631
165.03015 598
165.05342 547
165.07242 261
165.08191 344
165.56531 159
165.57578 149
165.58524 156
167.0536 154
167.07217 186
167.07834 180
167.09152 101
169.02301 95
169.04074 108
169.05389 96
170.08522 5134
170.58234 1157
170.59116 1148
171.04919 108
171.07101 149
171.09151 201
172.07475 189
172.08629 209
172.0981 195
173.01843 164
173.03033 153
173.07828 181
173.08876 387
173.10178 148
Name: 12-Aminododecanolactam
PrecursorMZ: 220.1674
PrecursorType: [M+Na]+
IonMode: Positive
Formula: C12H23NO
SMILES: C1CCCCCC(=O)NCCCCC1
InChI: 
InChIKey: JHWNWJKBPDFINM-UHFFFAOYSA-N
RetentionTime: 6.41935
CCS: 
CollisionEnergy: 20-40 eV
InstrumentType: UPLC-QTOF-MS
Comment: PI: Cristina Nerin; Data collector: QiZhi Su, GUIA, University of Zaragoza, Spain; Collision energy: 20-40 V; Instrument: Waters HPLC-QTOF-MS (Xevo G2 QTof); Ionization: ESI; Deconvoluted by MS-DIAL; Column: Waters AtlantisTM premier BEH C18 AX column (2.1 × 100mm x 1.7μm); Flow rate: 0.3mL/min; Mobile phase A and B are water and methnaol, respectively, both with 0.1% formic acid; Gradient elution: from A/B (95/5) to A/B (100/0) in 7min, kept for 4 min, then back to A/B (95/5) in 0.1 min, and maintained for additional 1.9 min (13min in total).; Injection volume: 10 μL
Num peaks: 50
55.05407 4505
55.06463 4498
57.06939 2766
57.08722 2788
67.04308 2045
67.05386 2043
69.05078 15371
69.06927 14985
71.08451 2206
71.09618 2190
72.07996 2062
72.09222 2053
79.05466 3471
79.06868 3495
81.05196 3874
81.06967 3918
82.06445 1756
82.07829 1729
83.07085 13791
83.08477 13549
84.07502 1283
84.07906 1271
84.08624 1277
84.09061 1281
86.05952 2670
93.06512 3841
93.07043 3851
95.0694 3114
95.08533 3226
95.09723 3167
96.06847 2162
96.08084 2284
96.08524 2282
97.06459 2207
97.08417 8947
97.10028 7207
100.05841 2703
100.07572 2860
107.08578 2442
111.06618 1371
111.07934 1494
111.08679 1533
121.1003 1476
198.18532 124475
199.18918 16157
217.1517 5012
217.16089 5016
217.65099 1305
217.66028 1329
220.16733 4936
Name: 12-Aminododecanolactam
PrecursorMZ: 395.364
PrecursorType: [2M+H]+
IonMode: Positive
Formula: C12H23NO
SMILES: C1CCCCCC(=O)NCCCCC1
InChI: 
InChIKey: JHWNWJKBPDFINM-UHFFFAOYSA-N
RetentionTime: 6.41935
CCS: 
CollisionEnergy: 20-40 eV
InstrumentType: UPLC-QTOF-MS
Comment: PI: Cristina Nerin; Data collector: QiZhi Su, GUIA, University of Zaragoza, Spain; Collision energy: 20-40 V; Instrument: Waters HPLC-QTOF-MS (Xevo G2 QTof); Ionization: ESI; Deconvoluted by MS-DIAL; Column: Waters AtlantisTM premier BEH C18 AX column (2.1 × 100mm x 1.7μm); Flow rate: 0.3mL/min; Mobile phase A and B are water and methnaol, respectively, both with 0.1% formic acid; Gradient elution: from A/B (95/5) to A/B (100/0) in 7min, kept for 4 min, then back to A/B (95/5) in 0.1 min, and maintained for additional 1.9 min (13min in total).; Injection volume: 10 μL
Num peaks: 57
55.05407 4505
55.06463 4498
57.06939 2766
57.08722 2788
67.04308 2045
67.05386 2043
69.05078 15371
69.06927 14985
71.08451 2206
71.09618 2190
72.07996 2062
72.09222 2053
79.05466 3471
79.06868 3495
81.05196 3874
81.06967 3918
82.06445 1756
82.07829 1729
83.07085 13791
83.08477 13549
84.07502 1283
84.07906 1271
84.08624 1277
84.09061 1281
86.05952 2670
93.06512 3841
93.07043 3851
95.0694 3114
95.08533 3226
95.09723 3167
96.06847 2162
96.08084 2284
96.08524 2282
97.06459 2207
97.08417 8947
97.10028 7207
100.05841 2703
100.07572 2860
107.08578 2442
111.06618 1371
111.07934 1494
111.08679 1533
121.1003 1476
198.18532 124475
199.18918 16157
217.1517 5012
217.16089 5016
217.65099 1305
217.66028 1329
220.16733 4174
236.13184 1447
236.1494 1267
282.13901 5388
315.74652 4034
315.76208 3703
316.23819 1638
316.25055 1671
Name: 12-Aminododecanolactam
PrecursorMZ: 417.3466
PrecursorType: [2M+Na]+
IonMode: Positive
Formula: C12H23NO
SMILES: C1CCCCCC(=O)NCCCCC1
InChI: 
InChIKey: JHWNWJKBPDFINM-UHFFFAOYSA-N
RetentionTime: 6.41935
CCS: 
CollisionEnergy: 20-40 eV
InstrumentType: UPLC-QTOF-MS
Comment: PI: Cristina Nerin; Data collector: QiZhi Su, GUIA, University of Zaragoza, Spain; Collision energy: 20-40 V; Instrument: Waters HPLC-QTOF-MS (Xevo G2 QTof); Ionization: ESI; Deconvoluted by MS-DIAL; Column: Waters AtlantisTM premier BEH C18 AX column (2.1 × 100mm x 1.7μm); Flow rate: 0.3mL/min; Mobile phase A and B are water and methnaol, respectively, both with 0.1% formic acid; Gradient elution: from A/B (95/5) to A/B (100/0) in 7min, kept for 4 min, then back to A/B (95/5) in 0.1 min, and maintained for additional 1.9 min (13min in total).; Injection volume: 10 μL
Num peaks: 57
55.05407 4505
55.06463 4498
57.06939 2766
57.08722 2788
67.04308 2045
67.05386 2043
69.05078 15371
69.06927 14985
71.08451 2206
71.09618 2190
72.07996 2062
72.09222 2053
79.05466 3471
79.06868 3495
81.05196 3874
81.06967 3918
82.06445 1756
82.07829 1729
83.07085 13791
83.08477 13549
84.07502 1283
84.07906 1271
84.08624 1277
84.09061 1281
86.05952 2670
93.06512 3841
93.07043 3851
95.0694 3114
95.08533 3226
95.09723 3167
96.06847 2162
96.08084 2284
96.08524 2282
97.06459 2207
97.08417 8947
97.10028 7207
100.05841 2703
100.07572 2860
107.08578 2442
111.06618 1371
111.07934 1494
111.08679 1533
121.1003 1476
198.18532 124475
199.18918 16157
217.1517 5012
217.16089 5016
217.65099 1305
217.66028 1329
220.16733 4174
236.13184 1447
236.1494 1267
282.13901 5388
315.74652 4034
315.76208 3703
316.23819 1638
316.25055 1671
Name: Dimethyldibenzylidene sorbitol
PrecursorMZ: 415.2117
PrecursorType: [M+H]+
IonMode: Positive
Formula: C24H30O6
SMILES: CC1=C(C=C(C=C1)C2OCC3C(O2)C(OC(O3)C4=CC(=C(C=C4)C)C)C(CO)O)C
InChI: 
InChIKey: YWEWWNPYDDHZDI-JJKKTNRVSA-N
RetentionTime: 6.7511
CCS: 
CollisionEnergy: 20-40 eV
InstrumentType: UPLC-QTOF-MS
Comment: PI: Cristina Nerin; Data collector: QiZhi Su, GUIA, University of Zaragoza, Spain; Collision energy: 20-40 V; Instrument: Waters HPLC-QTOF-MS (Xevo G2 QTof); Ionization: ESI; Deconvoluted by MS-DIAL; Column: Waters AtlantisTM premier BEH C18 AX column (2.1 × 100mm x 1.7μm); Flow rate: 0.3mL/min; Mobile phase A and B are water and methnaol, respectively, both with 0.1% formic acid; Gradient elution: from A/B (95/5) to A/B (100/0) in 7min, kept for 4 min, then back to A/B (95/5) in 0.1 min, and maintained for additional 1.9 min (13min in total).; Injection volume: 10 μL
Num peaks: 24
69.03283 1651
91.03448 2842
91.05341 3143
105.06899 1977
107.08595 6399
119.08482 139249
120.06976 11170
120.08833 10975
124.99004 1707
124.99815 1706
133.06476 6578
135.08037 11521
144.02477 2663
166.03894 8687
185.01295 1684
227.08269 2406
233.07417 11947
233.57549 2909
233.58582 2921
300.11255 17115
300.61298 5039
367.14743 12478
367.64929 5399
415.20996 4729
Name: Dimethyldibenzylidene sorbitol
PrecursorMZ: 432.2388
PrecursorType: [M+NH4]+
IonMode: Positive
Formula: C24H30O6
SMILES: CC1=C(C=C(C=C1)C2OCC3C(O2)C(OC(O3)C4=CC(=C(C=C4)C)C)C(CO)O)C
InChI: 
InChIKey: YWEWWNPYDDHZDI-JJKKTNRVSA-N
RetentionTime: 6.7511
CCS: 
CollisionEnergy: 20-40 eV
InstrumentType: UPLC-QTOF-MS
Comment: PI: Cristina Nerin; Data collector: QiZhi Su, GUIA, University of Zaragoza, Spain; Collision energy: 20-40 V; Instrument: Waters HPLC-QTOF-MS (Xevo G2 QTof); Ionization: ESI; Deconvoluted by MS-DIAL; Column: Waters AtlantisTM premier BEH C18 AX column (2.1 × 100mm x 1.7μm); Flow rate: 0.3mL/min; Mobile phase A and B are water and methnaol, respectively, both with 0.1% formic acid; Gradient elution: from A/B (95/5) to A/B (100/0) in 7min, kept for 4 min, then back to A/B (95/5) in 0.1 min, and maintained for additional 1.9 min (13min in total).; Injection volume: 10 μL
Num peaks: 24
69.03283 1651
91.03448 2842
91.05341 3143
105.06899 1977
107.08595 6399
119.08482 139249
120.06976 11170
120.08833 10975
124.99004 1707
124.99815 1706
133.06476 6578
135.08037 11521
144.02477 2663
166.03894 8687
185.01295 1684
227.08269 2406
233.07417 11947
233.57549 2909
233.58582 2921
300.11255 17115
300.61298 5039
367.14743 12478
367.64929 5399
415.20996 3961
Name: Dimethyldibenzylidene sorbitol
PrecursorMZ: 437.1938
PrecursorType: [M+Na]+
IonMode: Positive
Formula: C24H30O6
SMILES: CC1=C(C=C(C=C1)C2OCC3C(O2)C(OC(O3)C4=CC(=C(C=C4)C)C)C(CO)O)C
InChI: 
InChIKey: YWEWWNPYDDHZDI-JJKKTNRVSA-N
RetentionTime: 6.7511
CCS: 
CollisionEnergy: 20-40 eV
InstrumentType: UPLC-QTOF-MS
Comment: PI: Cristina Nerin; Data collector: QiZhi Su, GUIA, University of Zaragoza, Spain; Collision energy: 20-40 V; Instrument: Waters HPLC-QTOF-MS (Xevo G2 QTof); Ionization: ESI; Deconvoluted by MS-DIAL; Column: Waters AtlantisTM premier BEH C18 AX column (2.1 × 100mm x 1.7μm); Flow rate: 0.3mL/min; Mobile phase A and B are water and methnaol, respectively, both with 0.1% formic acid; Gradient elution: from A/B (95/5) to A/B (100/0) in 7min, kept for 4 min, then back to A/B (95/5) in 0.1 min, and maintained for additional 1.9 min (13min in total).; Injection volume: 10 μL
Num peaks: 29
69.03283 1651
91.03448 2842
91.05341 3143
105.06899 1977
107.08595 6399
119.08482 139249
120.06976 11170
120.08833 10975
124.99004 1707
124.99815 1706
133.06476 6578
135.08037 11521
144.02477 2663
166.03894 8687
185.01295 1684
227.08269 2406
233.07417 11947
233.57549 2909
233.58582 2921
300.11255 17115
300.61298 5039
367.14743 12478
367.64929 5399
415.20996 3961
434.18277 16395
434.68558 8787
435.18661 2680
435.19931 2685
437.19287 54319
Name: Dimethyldibenzylidene sorbitol
PrecursorMZ: 453.1681
PrecursorType: [M+K]+
IonMode: Positive
Formula: C24H30O6
SMILES: CC1=C(C=C(C=C1)C2OCC3C(O2)C(OC(O3)C4=CC(=C(C=C4)C)C)C(CO)O)C
InChI: 
InChIKey: YWEWWNPYDDHZDI-JJKKTNRVSA-N
RetentionTime: 6.7511
CCS: 
CollisionEnergy: 20-40 eV
InstrumentType: UPLC-QTOF-MS
Comment: PI: Cristina Nerin; Data collector: QiZhi Su, GUIA, University of Zaragoza, Spain; Collision energy: 20-40 V; Instrument: Waters HPLC-QTOF-MS (Xevo G2 QTof); Ionization: ESI; Deconvoluted by MS-DIAL; Column: Waters AtlantisTM premier BEH C18 AX column (2.1 × 100mm x 1.7μm); Flow rate: 0.3mL/min; Mobile phase A and B are water and methnaol, respectively, both with 0.1% formic acid; Gradient elution: from A/B (95/5) to A/B (100/0) in 7min, kept for 4 min, then back to A/B (95/5) in 0.1 min, and maintained for additional 1.9 min (13min in total).; Injection volume: 10 μL
Num peaks: 34
69.03283 1651
91.03448 2842
91.05341 3143
105.06899 1977
107.08595 6399
119.08482 139249
120.06976 11170
120.08833 10975
124.99004 1707
124.99815 1706
133.06476 6578
135.08037 11521
144.02477 2663
166.03894 8687
185.01295 1684
227.08269 2406
233.07417 11947
233.57549 2909
233.58582 2921
300.11255 17115
300.61298 5039
367.14743 12478
367.64929 5399
415.20996 3961
434.18277 16395
434.68558 8787
435.18661 2680
435.19931 2685
437.19287 50995
438.19589 11253
439.19821 1533
439.21454 1498
453.155 5506
453.17261 3565
Name: Dimethyldibenzylidene sorbitol
PrecursorMZ: 851.3979
PrecursorType: [2M+Na]+
IonMode: Positive
Formula: C24H30O6
SMILES: CC1=C(C=C(C=C1)C2OCC3C(O2)C(OC(O3)C4=CC(=C(C=C4)C)C)C(CO)O)C
InChI: 
InChIKey: YWEWWNPYDDHZDI-JJKKTNRVSA-N
RetentionTime: 6.7511
CCS: 
CollisionEnergy: 20-40 eV
InstrumentType: UPLC-QTOF-MS
Comment: PI: Cristina Nerin; Data collector: QiZhi Su, GUIA, University of Zaragoza, Spain; Collision energy: 20-40 V; Instrument: Waters HPLC-QTOF-MS (Xevo G2 QTof); Ionization: ESI; Deconvoluted by MS-DIAL; Column: Waters AtlantisTM premier BEH C18 AX column (2.1 × 100mm x 1.7μm); Flow rate: 0.3mL/min; Mobile phase A and B are water and methnaol, respectively, both with 0.1% formic acid; Gradient elution: from A/B (95/5) to A/B (100/0) in 7min, kept for 4 min, then back to A/B (95/5) in 0.1 min, and maintained for additional 1.9 min (13min in total).; Injection volume: 10 μL
Num peaks: 36
69.03283 1651
91.03448 2842
91.05341 3143
105.06899 1977
107.08595 6399
119.08482 139249
120.06976 11170
120.08833 10975
124.99004 1707
124.99815 1706
133.06476 6578
135.08037 11521
144.02477 2663
166.03894 8687
185.01295 1684
227.08269 2406
233.07417 11947
233.57549 2909
233.58582 2921
300.11255 17115
300.61298 5039
367.14743 12478
367.64929 5399
415.20996 3961
434.18277 16395
434.68558 8787
435.18661 2680
435.19931 2685
437.19287 50995
438.19589 11253
439.19821 1533
439.21454 1498
453.155 8830
453.17261 8835
454.16269 1885
499.16647 3205
Name: "7,9-Di-tert-butyl-1-oxaspiro(4,5)deca-6,9-diene-2,8-dione"
PrecursorMZ: 277.1804
PrecursorType: [M+H]+
IonMode: Positive
Formula: C17H24O3
SMILES: CC(C)(C)C1=CC2(CCC(=O)O2)C=C(C1=O)C(C)(C)C
InChI: 
InChIKey: ZTMZUYHXZPUDRF-UHFFFAOYSA-N
RetentionTime: 7.105134
CCS: 
CollisionEnergy: 20-40 eV
InstrumentType: UPLC-QTOF-MS
Comment: PI: Cristina Nerin; Data collector: QiZhi Su, GUIA, University of Zaragoza, Spain; Collision energy: 20-40 V; Instrument: Waters HPLC-QTOF-MS (Xevo G2 QTof); Ionization: ESI; Deconvoluted by MS-DIAL; Column: Waters AtlantisTM premier BEH C18 AX column (2.1 × 100mm x 1.7μm); Flow rate: 0.3mL/min; Mobile phase A and B are water and methnaol, respectively, both with 0.1% formic acid; Gradient elution: from A/B (95/5) to A/B (100/0) in 7min, kept for 4 min, then back to A/B (95/5) in 0.1 min, and maintained for additional 1.9 min (13min in total).; Injection volume: 10 μL
Num peaks: 76
57.06886 3609
69.06914 796
79.05347 596
79.07049 596
84.96053 717
91.05277 705
93.06963 570
105.06941 2025
115.06721 410
117.05647 417
117.06848 405
121.06506 1212
123.04575 989
123.06322 976
128.05272 437
128.06096 437
131.03488 667
131.04312 660
131.05263 681
131.08514 634
133.06389 407
133.08086 542
133.10185 1040
135.10037 416
145.05162 820
145.06618 945
145.08279 832
146.06737 1657
146.07549 1698
158.06755 400
159.07718 506
159.08923 505
159.11636 511
161.09529 3368
161.103 3366
163.06964 505
163.07799 564
179.10625 13871
180.10521 1347
180.11545 1351
187.04251 1103
187.06116 1054
213.03853 407
213.05809 861
213.07716 860
215.06882 829
215.07857 880
217.15753 1345
217.16675 1320
219.13802 1662
233.19044 510
235.16969 39955
236.17336 5589
237.1709 473
237.17966 503
239.05727 636
239.07729 899
252.1635 1627
252.66382 568
255.10504 3345
255.11429 3462
255.13208 1064
256.10342 453
256.11499 430
259.06332 6073
260.06409 763
260.07724 749
262.13522 520
262.1496 557
271.138 6266
272.13956 888
272.15057 879
274.15466 1504
274.16766 1611
274.66187 602
277.18027 11781
Name: tributyl phosphine oxide
PrecursorMZ: 241.171
PrecursorType: [M+Na]+
IonMode: Positive
Formula: C12H27OP
SMILES: CCCCP(=O)(CCCC)CCCC
InChI: 
InChIKey: MNZAKDODWSQONA-UHFFFAOYSA-N
RetentionTime: 6.614117
CCS: 
CollisionEnergy: 20-40 eV
InstrumentType: UPLC-QTOF-MS
Comment: PI: Cristina Nerin; Data collector: QiZhi Su, GUIA, University of Zaragoza, Spain; Collision energy: 20-40 V; Instrument: Waters HPLC-QTOF-MS (Xevo G2 QTof); Ionization: ESI; Deconvoluted by MS-DIAL; Column: Waters AtlantisTM premier BEH C18 AX column (2.1 × 100mm x 1.7μm); Flow rate: 0.3mL/min; Mobile phase A and B are water and methnaol, respectively, both with 0.1% formic acid; Gradient elution: from A/B (95/5) to A/B (100/0) in 7min, kept for 4 min, then back to A/B (95/5) in 0.1 min, and maintained for additional 1.9 min (13min in total).; Injection volume: 10 μL
Num peaks: 19
78.02298 164234
92.03869 139223
107.0623 21269
120.07017 14453
133.07777 16493
147.09381 21734
161.10966 20700
163.12508 116634
191.15649 24004
219.18883 1219926
219.26537 20926
219.32109 38172
219.33571 43625
219.35063 37825
219.42546 17581
219.46252 16976
220.19124 196128
221.19339 17341
241.16983 100565
Name: tributyl phosphine oxide
PrecursorMZ: 219.1925
PrecursorType: [M+H]+
IonMode: Positive
Formula: C12H27OP
SMILES: CCCCP(=O)(CCCC)CCCC
InChI: 
InChIKey: MNZAKDODWSQONA-UHFFFAOYSA-N
RetentionTime: 6.621733
CCS: 
CollisionEnergy: 20-40 eV
InstrumentType: UPLC-QTOF-MS
Comment: PI: Cristina Nerin; Data collector: QiZhi Su, GUIA, University of Zaragoza, Spain; Collision energy: 20-40 V; Instrument: Waters HPLC-QTOF-MS (Xevo G2 QTof); Ionization: ESI; Deconvoluted by MS-DIAL; Column: Waters AtlantisTM premier BEH C18 AX column (2.1 × 100mm x 1.7μm); Flow rate: 0.3mL/min; Mobile phase A and B are water and methnaol, respectively, both with 0.1% formic acid; Gradient elution: from A/B (95/5) to A/B (100/0) in 7min, kept for 4 min, then back to A/B (95/5) in 0.1 min, and maintained for additional 1.9 min (13min in total).; Injection volume: 10 μL
Num peaks: 14
78.02299 161408
92.0388 136699
107.06253 20264
120.07076 13768
133.07787 15619
147.09412 20667
161.10963 19417
163.12509 113609
191.15674 23080
219.18962 1252037
219.26628 22132
219.33626 34651
219.42535 16900
219.46388 18029
Name: tributyl phosphine oxide
PrecursorMZ: 257.1518
PrecursorType: [M+K]+
IonMode: Positive
Formula: C12H27OP
SMILES: CCCCP(=O)(CCCC)CCCC
InChI: 
InChIKey: MNZAKDODWSQONA-UHFFFAOYSA-N
RetentionTime: 6.621733
CCS: 
CollisionEnergy: 20-40 eV
InstrumentType: UPLC-QTOF-MS
Comment: PI: Cristina Nerin; Data collector: QiZhi Su, GUIA, University of Zaragoza, Spain; Collision energy: 20-40 V; Instrument: Waters HPLC-QTOF-MS (Xevo G2 QTof); Ionization: ESI; Deconvoluted by MS-DIAL; Column: Waters AtlantisTM premier BEH C18 AX column (2.1 × 100mm x 1.7μm); Flow rate: 0.3mL/min; Mobile phase A and B are water and methnaol, respectively, both with 0.1% formic acid; Gradient elution: from A/B (95/5) to A/B (100/0) in 7min, kept for 4 min, then back to A/B (95/5) in 0.1 min, and maintained for additional 1.9 min (13min in total).; Injection volume: 10 μL
Num peaks: 20
78.02299 164143
92.0388 139133
107.06253 20971
120.07076 14161
133.07787 16070
147.09412 21378
161.10963 20174
163.12509 115646
191.15674 23550
219.18962 1218961
219.26628 20062
219.32195 36527
219.33626 41512
219.35278 36143
219.41621 16386
219.42535 16385
219.46388 16075
220.19177 192689
221.19392 16681
241.17033 99659
Name: tributyl phosphine oxide
PrecursorMZ: 437.3697
PrecursorType: [2M+H]+
IonMode: Positive
Formula: C12H27OP
SMILES: CCCCP(=O)(CCCC)CCCC
InChI: 
InChIKey: MNZAKDODWSQONA-UHFFFAOYSA-N
RetentionTime: 6.621733
CCS: 
CollisionEnergy: 20-40 eV
InstrumentType: UPLC-QTOF-MS
Comment: PI: Cristina Nerin; Data collector: QiZhi Su, GUIA, University of Zaragoza, Spain; Collision energy: 20-40 V; Instrument: Waters HPLC-QTOF-MS (Xevo G2 QTof); Ionization: ESI; Deconvoluted by MS-DIAL; Column: Waters AtlantisTM premier BEH C18 AX column (2.1 × 100mm x 1.7μm); Flow rate: 0.3mL/min; Mobile phase A and B are water and methnaol, respectively, both with 0.1% formic acid; Gradient elution: from A/B (95/5) to A/B (100/0) in 7min, kept for 4 min, then back to A/B (95/5) in 0.1 min, and maintained for additional 1.9 min (13min in total).; Injection volume: 10 μL
Num peaks: 20
78.02299 164234
92.0388 139223
107.06253 20988
120.07076 14163
133.07787 16067
147.09412 21386
161.10963 20168
163.12509 115769
191.15674 23551
219.18962 1219903
219.26628 20036
219.32195 36479
219.33626 41452
219.35278 36090
219.41621 16351
219.42535 16351
219.46388 16046
220.19177 192785
221.19392 16674
241.17033 99668
Name: tributyl phosphine oxide
PrecursorMZ: 459.3515
PrecursorType: [M+H]+
IonMode: Positive
Formula: C12H27OP
SMILES: CCCCP(=O)(CCCC)CCCC
InChI: 
InChIKey: MNZAKDODWSQONA-UHFFFAOYSA-N
RetentionTime: 6.621733
CCS: 
CollisionEnergy: 20-40 eV
InstrumentType: UPLC-QTOF-MS
Comment: PI: Cristina Nerin; Data collector: QiZhi Su, GUIA, University of Zaragoza, Spain; Collision energy: 20-40 V; Instrument: Waters HPLC-QTOF-MS (Xevo G2 QTof); Ionization: ESI; Deconvoluted by MS-DIAL; Column: Waters AtlantisTM premier BEH C18 AX column (2.1 × 100mm x 1.7μm); Flow rate: 0.3mL/min; Mobile phase A and B are water and methnaol, respectively, both with 0.1% formic acid; Gradient elution: from A/B (95/5) to A/B (100/0) in 7min, kept for 4 min, then back to A/B (95/5) in 0.1 min, and maintained for additional 1.9 min (13min in total).; Injection volume: 10 μL
Num peaks: 20
78.02299 164234
92.0388 139223
107.06253 20988
120.07076 14163
133.07787 16067
147.09412 21386
161.10963 20168
163.12509 115769
191.15674 23551
219.18962 1219903
219.26628 20036
219.32195 36479
219.33626 41452
219.35278 36090
219.41621 16351
219.42535 16351
219.46388 16046
220.19177 192785
221.19392 16674
241.17033 99668
Name: 3-Formylbenzamide
PrecursorMZ: 150.0557
PrecursorType: [M+H]+
IonMode: Positive
Formula: C8H7NO2
SMILES: C1=CC(=CC(=C1)C(=O)N)C=O
InChI: 
InChIKey: AYYCJLDODRZCOB-UHFFFAOYSA-N
RetentionTime: 3.023933
CCS: 
CollisionEnergy: 20-40 eV
InstrumentType: UPLC-QTOF-MS
Comment: PI: Cristina Nerin; Data collector: QiZhi Su, GUIA, University of Zaragoza, Spain; Collision energy: 20-40 V; Instrument: Waters HPLC-QTOF-MS (Xevo G2 QTof); Ionization: ESI; Deconvoluted by MS-DIAL; Column: Waters AtlantisTM premier BEH C18 AX column (2.1 × 100mm x 1.7μm); Flow rate: 0.3mL/min; Mobile phase A and B are water and methnaol, respectively, both with 0.1% formic acid; Gradient elution: from A/B (95/5) to A/B (100/0) in 7min, kept for 4 min, then back to A/B (95/5) in 0.1 min, and maintained for additional 1.9 min (13min in total).; Injection volume: 10 μL
Num peaks: 47
75.04929 40
77.03906 2602
78.037 106
78.04446 94
79.05176 349
79.05668 1274
81.04079 49
81.95802 160
81.96218 86
84.95897 68
91.04295 37
91.0532 499
91.0623 198
92.06711 40
93.07061 208
95.05329 34
103.5101 114
104.05309 41
105.03527 3378
106.04252 250
107.04538 326
107.05119 104
110.06218 51
112.50967 45
112.51776 119
112.52483 42
114.09679 38
119.05072 63
119.05766 39
120.97984 61
123.04546 39
123.05228 58
132.04506 620
133.0293 2294
133.04704 39
133.47345 49
134.02837 69
134.06529 77
134.94495 37
135.04108 41
144.99527 153
145.00246 103
145.99962 36
148.98283 36
148.9976 56
149.01849 62
150.05615 512
Name: 3-Formylbenzamide
PrecursorMZ: 337.0537
PrecursorType: [2M+K]+
IonMode: Positive
Formula: C8H7NO2
SMILES: C1=CC(=CC(=C1)C(=O)N)C=O
InChI: 
InChIKey: AYYCJLDODRZCOB-UHFFFAOYSA-N
RetentionTime: 3.03155
CCS: 
CollisionEnergy: 20-40 eV
InstrumentType: UPLC-QTOF-MS
Comment: PI: Cristina Nerin; Data collector: QiZhi Su, GUIA, University of Zaragoza, Spain; Collision energy: 20-40 V; Instrument: Waters HPLC-QTOF-MS (Xevo G2 QTof); Ionization: ESI; Deconvoluted by MS-DIAL; Column: Waters AtlantisTM premier BEH C18 AX column (2.1 × 100mm x 1.7μm); Flow rate: 0.3mL/min; Mobile phase A and B are water and methnaol, respectively, both with 0.1% formic acid; Gradient elution: from A/B (95/5) to A/B (100/0) in 7min, kept for 4 min, then back to A/B (95/5) in 0.1 min, and maintained for additional 1.9 min (13min in total).; Injection volume: 10 μL
Num peaks: 68
56.96542 31
56.96894 31
77.0393 2310
77.04679 2311
80.06035 40
93.05399 205
93.07198 194
93.07714 73
101.51213 34
103.04002 28
104.05442 55
105.03422 713
105.05489 771
112.51474 106
119.05405 56
122.06302 35
123.03978 24
127.04646 26
127.05621 26
132.04547 100
133.01004 1542
133.03008 1718
133.04153 1744
133.05264 55
134.03203 59
147.03252 30
147.05037 39
147.05806 38
149.98381 42
149.99969 48
150.05302 32
150.06053 170
151.05669 54
151.06261 55
169.01456 44
169.02428 27
169.03792 46
172.0255 34
174.03275 46
174.97597 36
176.0152 68
176.02567 51
176.98479 35
176.99149 36
177.98109 27
184.05321 24
185.96101 171
185.97189 172
187.97235 45
189.00009 34
189.00903 102
189.02766 88
190.00772 41
190.02179 28
192.00922 47
202.97076 26
204.03107 39
204.05919 69
204.95424 46
217.03793 26
280.05737 105
305.05051 41
305.06421 48
323.06531 122
323.07819 172
324.07831 34
337.03525 47
337.05338 60
Name: butyl diglycol
PrecursorMZ: 163.1344
PrecursorType: [M+H]+
IonMode: Positive
Formula: C8H18O3
SMILES: CCCCOCCOCCO
InChI: 
InChIKey: OAYXUHPQHDHDDZ-UHFFFAOYSA-N
RetentionTime: 4.784783
CCS: 
CollisionEnergy: 20-40 eV
InstrumentType: UPLC-QTOF-MS
Comment: PI: Cristina Nerin; Data collector: QiZhi Su, GUIA, University of Zaragoza, Spain; Collision energy: 20-40 V; Instrument: Waters HPLC-QTOF-MS (Xevo G2 QTof); Ionization: ESI; Deconvoluted by MS-DIAL; Column: Waters AtlantisTM premier BEH C18 AX column (2.1 × 100mm x 1.7μm); Flow rate: 0.3mL/min; Mobile phase A and B are water and methnaol, respectively, both with 0.1% formic acid; Gradient elution: from A/B (95/5) to A/B (100/0) in 7min, kept for 4 min, then back to A/B (95/5) in 0.1 min, and maintained for additional 1.9 min (13min in total).; Injection volume: 10 μL
Num peaks: 179
55.05121 22
55.05728 22
56.94622 20
56.96601 101
57.06943 60
57.07397 100
58.0689 22
59.22842 24
65.14523 25
65.99645 20
67.05192 23
69.02132 59
69.07056 47
70.06173 20
70.96347 24
70.98216 75
72.05064 25
72.935 21
72.94188 80
73.01254 24
73.04234 65
73.06628 29
74.69074 22
77.04016 21
77.04517 80
78.04405 23
78.98579 24
79.05045 22
79.05804 51
79.98816 25
81.00391 33
81.07161 25
81.78313 20
82.01509 24
82.01852 65
82.96883 30
82.97932 95
82.98634 52
82.99496 34
84.95671 29
84.98956 23
85.01377 47
85.09807 27
86.94659 31
86.95258 28
86.95817 20
86.99841 20
88.9742 30
89.02161 44
89.05885 45
90.04432 31
91.00132 21
91.05189 51
93.016 21
95.03349 21
95.03842 28
95.04922 25
95.98505 29
96.9548 23
96.9789 49
97.03136 25
97.05359 32
98.04748 24
98.95251 25
98.97826 36
100.96618 20
100.97345 32
100.99222 244
101.00278 23
101.01511 21
101.07292 55
101.9623 34
102.06615 22
102.81406 25
103.69482 22
104.04179 53
104.96861 29
105.01076 153
105.04077 53
106.08984 20
107.04415 23
107.053 26
108.011 27
108.98232 25
109.00182 33
109.04903 24
110.85121 30
111.01325 485
111.0307 32
111.04681 25
112.00371 22
112.0359 21
112.99372 102
113.02988 619
113.03689 153
114.02762 42
114.05002 40
114.94826 23
115.01078 28
116.97089 24
117.07003 22
118.04789 51
118.09013 53
119.04539 24
119.08833 38
120.08671 88
120.09213 26
121.01852 44
121.06534 26
122.04346 36
123.05007 59
123.96635 21
124.97153 22
125.06115 21
125.97787 30
126.98089 22
128.05565 22
128.9998 41
129.0088 53
129.02676 24
129.04416 28
129.53754 24
131.02666 28
131.04492 21
131.063 45
131.08725 22
132.03209 20
132.94702 25
132.98323 47
133.0195 19
133.03181 140
133.06673 21
133.97244 26
134.02541 24
134.06726 20
135.04504 27
135.07848 27
137.06073 24
137.98 28
139.06531 22
140.14168 101
140.15787 23
141.08208 20
141.15764 20
141.30469 21
143.07841 58
144.13435 29
145.00276 20
145.02142 384
145.0667 22
147.04189 21
149.04454 22
149.11345 21
150.10524 22
151.04427 25
151.10028 21
151.97768 21
152.06924 25
155.75012 25
156.00075 21
156.043 24
156.07524 25
156.97533 25
157.05757 258
157.06357 172
157.96596 20
158.05804 81
158.97772 24
159.09024 27
160.01724 28
160.04771 44
160.97079 66
160.98604 50
161.07054 41
161.07924 25
161.96819 20
162.98831 42
163.00319 46
163.0755 26
Name: butyl diglycol
PrecursorMZ: 185.116
PrecursorType: [M+Na]+
IonMode: Positive
Formula: C8H18O3
SMILES: CCCCOCCOCCO
InChI: 
InChIKey: OAYXUHPQHDHDDZ-UHFFFAOYSA-N
RetentionTime: 4.784783
CCS: 
CollisionEnergy: 20-40 eV
InstrumentType: UPLC-QTOF-MS
Comment: PI: Cristina Nerin; Data collector: QiZhi Su, GUIA, University of Zaragoza, Spain; Collision energy: 20-40 V; Instrument: Waters HPLC-QTOF-MS (Xevo G2 QTof); Ionization: ESI; Deconvoluted by MS-DIAL; Column: Waters AtlantisTM premier BEH C18 AX column (2.1 × 100mm x 1.7μm); Flow rate: 0.3mL/min; Mobile phase A and B are water and methnaol, respectively, both with 0.1% formic acid; Gradient elution: from A/B (95/5) to A/B (100/0) in 7min, kept for 4 min, then back to A/B (95/5) in 0.1 min, and maintained for additional 1.9 min (13min in total).; Injection volume: 10 μL
Num peaks: 209
55.05121 22
55.05728 22
56.94622 20
56.96601 101
57.06943 60
57.07397 100
58.0689 22
59.22842 24
65.14523 25
65.99645 20
67.05192 23
69.02132 59
69.07056 47
70.06173 20
70.96347 24
70.98216 75
72.05064 25
72.935 21
72.94188 80
73.01254 24
73.04234 65
73.06628 29
74.69074 22
77.04016 21
77.04517 80
78.04405 23
78.98579 24
79.05045 22
79.05804 51
79.98816 25
81.00391 33
81.07161 25
81.78313 20
82.01509 24
82.01852 65
82.96883 30
82.97932 95
82.98634 52
82.99496 34
84.95671 29
84.98956 23
85.01377 47
85.09807 27
86.94659 31
86.95258 28
86.95817 20
86.99841 20
88.9742 30
89.02161 44
89.05885 45
90.04432 31
91.00132 21
91.05189 51
93.016 21
95.03349 21
95.03842 28
95.04922 25
95.98505 29
96.9548 23
96.9789 49
97.03136 25
97.05359 32
98.04748 24
98.95251 25
98.97826 36
100.96618 20
100.97345 32
100.99222 244
101.00278 23
101.01511 21
101.07292 55
101.9623 34
102.06615 22
102.81406 25
103.69482 22
104.04179 53
104.96861 29
105.01076 153
105.04077 53
106.08984 20
107.04415 23
107.053 26
108.011 27
108.98232 25
109.00182 33
109.04903 24
110.85121 30
111.01325 485
111.0307 32
111.04681 25
112.00371 22
112.0359 21
112.99372 102
113.02988 619
113.03689 153
114.02762 42
114.05002 40
114.94826 23
115.01078 28
116.97089 24
117.07003 22
118.04789 51
118.09013 53
119.04539 24
119.08833 38
120.08671 88
120.09213 26
121.01852 44
121.06534 26
122.04346 36
123.05007 59
123.96635 21
124.97153 22
125.06115 21
125.97787 30
126.98089 22
128.05565 22
128.9998 41
129.0088 53
129.02676 24
129.04416 28
129.53754 24
131.02666 28
131.04492 21
131.063 45
131.08725 22
132.03209 20
132.94702 25
132.98323 47
133.0195 19
133.03181 140
133.06673 21
133.97244 26
134.02541 24
134.06726 20
135.04504 27
135.07848 27
137.06073 24
137.98 28
139.06531 22
140.14168 101
140.15787 23
141.08208 20
141.15764 20
141.30469 21
143.07841 58
144.13435 29
145.00276 20
145.02142 384
145.0667 22
147.04189 21
149.04454 22
149.11345 21
150.10524 22
151.04427 25
151.10028 21
151.97768 21
152.06924 25
155.75012 25
156.00075 21
156.043 24
156.07524 25
156.97533 25
157.05757 258
157.06357 172
157.96596 20
158.05804 81
158.97772 24
159.09024 27
160.01724 28
160.04771 44
160.97079 66
160.98604 50
161.07054 41
161.07924 25
161.96819 20
162.98831 42
163.00319 46
163.0755 26
164.86987 22
164.97545 27
164.98627 50
165.01418 27
165.04591 22
165.09059 20
165.09879 51
169.00909 39
169.02228 40
171.00839 47
171.02376 27
171.07475 32
172.02019 28
172.96794 20
173.02763 91
173.03659 43
175.04366 44
175.05186 40
175.06676 20
175.08148 42
176.02785 24
177.04694 26
177.5818 24
178.9873 31
179.03096 24
180.0966 28
181.07234 27
184.05553 27
184.12459 20
185.10652 46
Name: acetaminophen
PrecursorMZ: 152.0714
PrecursorType: [M+H]+
IonMode: Positive
Formula: C8H9NO2
SMILES: CC(=O)NC1=CC=C(C=C1)O
InChI: 
InChIKey: RZVAJINKPMORJF-UHFFFAOYSA-N
RetentionTime: 1.038967
CCS: 
CollisionEnergy: 20-40 eV
InstrumentType: UPLC-QTOF-MS
Comment: PI: Cristina Nerin; Data collector: QiZhi Su, GUIA, University of Zaragoza, Spain; Collision energy: 20-40 V; Instrument: Waters HPLC-QTOF-MS (Xevo G2 QTof); Ionization: ESI; Deconvoluted by MS-DIAL; Column: Waters AtlantisTM premier BEH C18 AX column (2.1 × 100mm x 1.7μm); Flow rate: 0.3mL/min; Mobile phase A and B are water and methnaol, respectively, both with 0.1% formic acid; Gradient elution: from A/B (95/5) to A/B (100/0) in 7min, kept for 4 min, then back to A/B (95/5) in 0.1 min, and maintained for additional 1.9 min (13min in total).; Injection volume: 10 μL
Num peaks: 35
65.03924 687
65.04245 693
65.06007 296
66.04783 49
82.06853 146
82.07449 146
92.0417 525
92.04994 517
92.05603 516
93.03351 1368
93.05165 1399
93.05988 222
94.03188 104
94.0427 109
108.04063 48
108.04669 48
109.04803 106
109.05923 97
110.06071 4688
111.04711 169
111.05458 246
111.06245 248
111.06767 235
130.97966 111
130.98857 115
134.05479 606
134.06061 602
134.06702 614
147.99696 63
148.01045 74
148.01717 71
150.04346 126
150.05246 126
150.06311 125
152.07239 1021
Name: Hexadecylamine
PrecursorMZ: 242.2879
PrecursorType: [M+H]+
IonMode: Positive
Formula: C16H35N
SMILES: CCCCCCCCCCCCCCCCN
InChI: 
InChIKey: FJLUATLTXUNBOT-UHFFFAOYSA-N
RetentionTime: 5.905033
CCS: 
CollisionEnergy: 20-40 eV
InstrumentType: UPLC-QTOF-MS
Comment: PI: Cristina Nerin; Data collector: QiZhi Su, GUIA, University of Zaragoza, Spain; Collision energy: 20-40 V; Instrument: Waters HPLC-QTOF-MS (Xevo G2 QTof); Ionization: ESI; Deconvoluted by MS-DIAL; Column: Waters AtlantisTM premier BEH C18 AX column (2.1 × 100mm x 1.7μm); Flow rate: 0.3mL/min; Mobile phase A and B are water and methnaol, respectively, both with 0.1% formic acid; Gradient elution: from A/B (95/5) to A/B (100/0) in 7min, kept for 4 min, then back to A/B (95/5) in 0.1 min, and maintained for additional 1.9 min (13min in total).; Injection volume: 10 μL
Num peaks: 9
57.06968 16825
58.07373 593
69.07219 416
71.08535 33342
72.09055 1057
85.10156 20324
86.10583 877
86.11199 879
242.28429 15737
Name: acetaminophen
PrecursorMZ: 152.0711
PrecursorType: [M+H]+
IonMode: Positive
Formula: C8H9NO2
SMILES: CC(=O)NC1=CC=C(C=C1)O
InChI: 
InChIKey: RZVAJINKPMORJF-UHFFFAOYSA-N
RetentionTime: 2.669883
CCS: 
CollisionEnergy: 20-40 eV
InstrumentType: UPLC-QTOF-MS
Comment: PI: Cristina Nerin; Data collector: QiZhi Su, GUIA, University of Zaragoza, Spain; Collision energy: 20-40 V; Instrument: Waters HPLC-QTOF-MS (Xevo G2 QTof); Ionization: ESI; Deconvoluted by MS-DIAL; Column: Waters AtlantisTM premier BEH C18 AX column (2.1 × 100mm x 1.7μm); Flow rate: 0.3mL/min; Mobile phase A and B are water and methnaol, respectively, both with 0.1% formic acid; Gradient elution: from A/B (95/5) to A/B (100/0) in 7min, kept for 4 min, then back to A/B (95/5) in 0.1 min, and maintained for additional 1.9 min (13min in total).; Injection volume: 10 μL
Num peaks: 26
65.02872 825
65.03994 833
82.06713 225
92.04799 762
92.05403 762
93.03416 2012
93.05428 657
93.06404 118
94.03485 80
94.04401 88
108.04611 79
108.05524 87
109.0448 217
109.05433 219
110.06098 7614
111.05083 272
111.05811 328
111.06372 322
111.07498 294
130.97147 130
130.97937 136
130.98581 136
134.05798 683
134.06519 688
152.06909 535
152.07703 498
Name: cis-Jasmone
PrecursorMZ: 351.2302
PrecursorType: [2M+Na]+
IonMode: Positive
Formula: C11H16O
SMILES: CCC=CCC1=C(CCC1=O)C
InChI: 
InChIKey: XMLSXPIVAXONDL-PLNGDYQASA-N
RetentionTime: 6.789283
CCS: 
CollisionEnergy: 20-40 eV
InstrumentType: UPLC-QTOF-MS
Comment: PI: Cristina Nerin; Data collector: QiZhi Su, GUIA, University of Zaragoza, Spain; Collision energy: 20-40 V; Instrument: Waters HPLC-QTOF-MS (Xevo G2 QTof); Ionization: ESI; Deconvoluted by MS-DIAL; Column: Waters AtlantisTM premier BEH C18 AX column (2.1 × 100mm x 1.7μm); Flow rate: 0.3mL/min; Mobile phase A and B are water and methnaol, respectively, both with 0.1% formic acid; Gradient elution: from A/B (95/5) to A/B (100/0) in 7min, kept for 4 min, then back to A/B (95/5) in 0.1 min, and maintained for additional 1.9 min (13min in total).; Injection volume: 10 μL
Num peaks: 26
67.05492 8514
77.04382 1341
79.0552 31095
80.06116 2103
81.07059 49922
82.07393 3159
91.05636 2787
93.07126 2154
95.04489 700
102.04243 683
105.0708 4053
107.08623 7392
108.08646 988
109.06544 17611
110.07077 1477
111.04625 943
119.08613 2466
123.08123 16518
124.08382 1542
147.11751 4499
162.07048 579
169.08295 683
176.10654 1624
184.1019 11464
184.60229 2482
249.07825 604
Name: cis-Jasmone
PrecursorMZ: 165.1287
PrecursorType: [M+H]+
IonMode: Positive
Formula: C11H16O
SMILES: CCC=CCC1=C(CCC1=O)C
InChI: 
InChIKey: XMLSXPIVAXONDL-PLNGDYQASA-N
RetentionTime: 6.7931
CCS: 
CollisionEnergy: 20-40 eV
InstrumentType: UPLC-QTOF-MS
Comment: PI: Cristina Nerin; Data collector: QiZhi Su, GUIA, University of Zaragoza, Spain; Collision energy: 20-40 V; Instrument: Waters HPLC-QTOF-MS (Xevo G2 QTof); Ionization: ESI; Deconvoluted by MS-DIAL; Column: Waters AtlantisTM premier BEH C18 AX column (2.1 × 100mm x 1.7μm); Flow rate: 0.3mL/min; Mobile phase A and B are water and methnaol, respectively, both with 0.1% formic acid; Gradient elution: from A/B (95/5) to A/B (100/0) in 7min, kept for 4 min, then back to A/B (95/5) in 0.1 min, and maintained for additional 1.9 min (13min in total).; Injection volume: 10 μL
Num peaks: 21
65.03848 1087
67.05537 8515
79.05528 30909
80.05739 1991
81.07059 49919
82.07437 3009
93.07018 1887
95.08681 5244
102.03967 668
105.07162 4053
107.05032 933
108.08533 622
109.06501 18008
110.06823 1564
111.04481 743
119.08683 2515
120.05023 944
123.08093 16494
124.08376 1541
147.11703 4624
165.12779 3625
Name: cis-Jasmone
PrecursorMZ: 187.1102
PrecursorType: [M+Na]+
IonMode: Positive
Formula: C11H16O
SMILES: CCC=CCC1=C(CCC1=O)C
InChI: 
InChIKey: XMLSXPIVAXONDL-PLNGDYQASA-N
RetentionTime: 6.7931
CCS: 
CollisionEnergy: 20-40 eV
InstrumentType: UPLC-QTOF-MS
Comment: PI: Cristina Nerin; Data collector: QiZhi Su, GUIA, University of Zaragoza, Spain; Collision energy: 20-40 V; Instrument: Waters HPLC-QTOF-MS (Xevo G2 QTof); Ionization: ESI; Deconvoluted by MS-DIAL; Column: Waters AtlantisTM premier BEH C18 AX column (2.1 × 100mm x 1.7μm); Flow rate: 0.3mL/min; Mobile phase A and B are water and methnaol, respectively, both with 0.1% formic acid; Gradient elution: from A/B (95/5) to A/B (100/0) in 7min, kept for 4 min, then back to A/B (95/5) in 0.1 min, and maintained for additional 1.9 min (13min in total).; Injection volume: 10 μL
Num peaks: 22
65.03848 863
67.05537 8723
79.05528 30038
80.05739 2115
81.07059 49818
82.07437 2472
93.07018 1520
95.08681 5924
105.07162 3894
107.05032 933
108.08533 1002
109.06501 18008
110.06823 1564
119.08683 1640
120.05023 529
123.08093 16191
124.08376 1541
135.00986 517
147.11703 4541
148.12169 552
165.12779 3807
184.10173 4804
Name: Bisphenol F diglycidyl ether
PrecursorMZ: 330.171
PrecursorType: [M+NH4]+
IonMode: Positive
Formula: C19H20O4
SMILES: C1C(O1)COC2=CC=C(C=C2)CC3=CC=C(C=C3)OCC4CO4
InChI: 
InChIKey: XUCHXOAWJMEFLF-UHFFFAOYSA-N
RetentionTime: 6.8997
CCS: 
CollisionEnergy: 20-40 eV
InstrumentType: UPLC-QTOF-MS
Comment: PI: Cristina Nerin; Data collector: QiZhi Su, GUIA, University of Zaragoza, Spain; Collision energy: 20-40 V; Instrument: Waters HPLC-QTOF-MS (Xevo G2 QTof); Ionization: ESI; Deconvoluted by MS-DIAL; Column: Waters AtlantisTM premier BEH C18 AX column (2.1 × 100mm x 1.7μm); Flow rate: 0.3mL/min; Mobile phase A and B are water and methnaol, respectively, both with 0.1% formic acid; Gradient elution: from A/B (95/5) to A/B (100/0) in 7min, kept for 4 min, then back to A/B (95/5) in 0.1 min, and maintained for additional 1.9 min (13min in total).; Injection volume: 10 μL
Num peaks: 84
59.05021 205
67.05652 118
69.07107 403
77.03912 1513
79.05376 981
81.07154 998
84.95826 217
89.05895 161
91.05595 1327
93.07151 283
95.08833 337
97.10205 179
98.04169 216
103.0522 115
105.07024 1576
107.0502 8617
109.10551 133
115.05609 972
117.07513 474
119.05201 468
121.06461 350
122.92661 481
124.9771 94
127.0533 145
130.17191 90
133.06795 2520
134.06177 736
143.07379 222
144.08244 655
146.03845 127
147.08247 537
149.02638 159
151.98302 93
153.06818 127
155.06995 150
158.09988 614
160.07669 492
161.04662 431
163.07777 4795
166.07939 245
172.07578 176
173.0923 92
174.98471 158
176.07599 1044
176.9888 685
178.98962 439
181.08887 190
183.06689 165
189.02463 724
194.02841 158
195.08401 103
197.09624 90
199.13127 234
201.01852 152
205.10719 112
209.09975 233
213.08922 230
219.05899 150
221.09383 90
232.05611 91
238.10197 154
240.11215 146
249.08046 153
251.11411 144
252.12209 91
255.10025 132
259.11987 132
265.12769 290
273.17197 126
277.12939 157
281.077 109
283.26126 188
287.11575 125
295.06555 362
301.1712 115
303.14334 87
307.06467 142
310.10815 113
311.30817 118
319.15668 171
321.0777 185
323.06622 133
325.33398 158
330.15976 88
Name: "3,4-Diaminotoluene"
PrecursorMZ: 123.093
PrecursorType: [M+H]+
IonMode: Positive
Formula: C7H10N2
SMILES: CC1=CC(=C(C=C1)N)N
InChI: 
InChIKey: DGRGLKZMKWPMOH-UHFFFAOYSA-N
RetentionTime: 0.8328333
CCS: 
CollisionEnergy: 20-40 eV
InstrumentType: UPLC-QTOF-MS
Comment: PI: Cristina Nerin; Data collector: QiZhi Su, GUIA, University of Zaragoza, Spain; Collision energy: 20-40 V; Instrument: Waters HPLC-QTOF-MS (Xevo G2 QTof); Ionization: ESI; Deconvoluted by MS-DIAL; Column: Waters AtlantisTM premier BEH C18 AX column (2.1 × 100mm x 1.7μm); Flow rate: 0.3mL/min; Mobile phase A and B are water and methnaol, respectively, both with 0.1% formic acid; Gradient elution: from A/B (95/5) to A/B (100/0) in 7min, kept for 4 min, then back to A/B (95/5) in 0.1 min, and maintained for additional 1.9 min (13min in total).; Injection volume: 10 μL
Num peaks: 8
67.03889 122
77.04035 1225
79.05472 2326
89.03833 53
94.06709 57
106.06667 3987
109.075 421
123.09343 3235
Name: Bisphenol F diglycidyl ether
PrecursorMZ: 313.1446
PrecursorType: [M+H]+
IonMode: Positive
Formula: C19H20O4
SMILES: C1C(O1)COC2=CC=C(C=C2)CC3=CC=C(C=C3)OCC4CO4
InChI: 
InChIKey: XUCHXOAWJMEFLF-UHFFFAOYSA-N
RetentionTime: 6.9568
CCS: 
CollisionEnergy: 20-40 eV
InstrumentType: UPLC-QTOF-MS
Comment: PI: Cristina Nerin; Data collector: QiZhi Su, GUIA, University of Zaragoza, Spain; Collision energy: 20-40 V; Instrument: Waters HPLC-QTOF-MS (Xevo G2 QTof); Ionization: ESI; Deconvoluted by MS-DIAL; Column: Waters AtlantisTM premier BEH C18 AX column (2.1 × 100mm x 1.7μm); Flow rate: 0.3mL/min; Mobile phase A and B are water and methnaol, respectively, both with 0.1% formic acid; Gradient elution: from A/B (95/5) to A/B (100/0) in 7min, kept for 4 min, then back to A/B (95/5) in 0.1 min, and maintained for additional 1.9 min (13min in total).; Injection volume: 10 μL
Num peaks: 46
65.04132 263
79.055 195
81.06989 180
101.0586 101
105.0709 7126
109.06445 181
116.06045 189
117.07101 1662
118.07167 202
122.06987 120
124.93162 158
127.05775 603
131.05072 566
132.05275 90
133.06503 8831
143.0909 518
145.06689 106
146.0658 240
149.04155 156
151.05209 95
155.07318 240
158.07913 253
160.07663 91
163.07613 2998
164.07932 92
172.0775 1942
173.09807 127
174.09877 146
178.08069 290
181.07025 840
187.08086 94
189.0928 482
202.0786 192
204.09605 105
209.09921 150
221.09747 721
224.11888 101
234.06363 178
239.1105 224
249.08669 211
251.10867 392
261.07794 90
275.11633 174
278.13278 227
293.12894 150
313.28513 89
Name: Bisphenol F diglycidyl ether
PrecursorMZ: 330.1712
PrecursorType: [M+NH4]+
IonMode: Positive
Formula: C19H20O4
SMILES: C1C(O1)COC2=CC=C(C=C2)CC3=CC=C(C=C3)OCC4CO4
InChI: 
InChIKey: XUCHXOAWJMEFLF-UHFFFAOYSA-N
RetentionTime: 6.964417
CCS: 
CollisionEnergy: 20-40 eV
InstrumentType: UPLC-QTOF-MS
Comment: PI: Cristina Nerin; Data collector: QiZhi Su, GUIA, University of Zaragoza, Spain; Collision energy: 20-40 V; Instrument: Waters HPLC-QTOF-MS (Xevo G2 QTof); Ionization: ESI; Deconvoluted by MS-DIAL; Column: Waters AtlantisTM premier BEH C18 AX column (2.1 × 100mm x 1.7μm); Flow rate: 0.3mL/min; Mobile phase A and B are water and methnaol, respectively, both with 0.1% formic acid; Gradient elution: from A/B (95/5) to A/B (100/0) in 7min, kept for 4 min, then back to A/B (95/5) in 0.1 min, and maintained for additional 1.9 min (13min in total).; Injection volume: 10 μL
Num peaks: 115
55.27158 170
60.08212 193
65.03824 187
67.05508 471
69.034 120
77.04037 2147
79.05471 1921
81.06976 587
83.08796 181
91.05501 6689
92.05897 475
93.07228 1228
97.07002 269
101.0648 337
103.05783 1344
107.04977 6942
108.05218 567
111.04508 178
115.05592 3601
116.06948 431
117.0699 2227
118.07615 241
119.08756 1066
120.92518 567
121.0662 5773
122.92677 857
123.1274 649
128.063 1411
129.07028 818
130.16379 199
133.06612 10829
134.07133 652
141.0728 609
142.08255 160
143.08696 587
144.05807 566
145.06633 3759
147.08205 2107
148.08386 217
149.06548 164
152.05942 207
153.07179 326
155.07149 158
156.53798 123
158.09578 269
159.08226 1837
160.07402 205
161.0623 249
163.07741 3045
164.07982 202
165.06775 586
167.08455 289
169.06166 415
170.06953 139
171.08226 1399
173.08595 234
174.96971 172
175.98843 271
176.98721 710
178.07962 562
178.98863 698
181.06329 775
182.07903 182
183.07906 410
185.09975 132
189.08977 1435
191.08604 227
193.06825 359
194.0733 1059
195.08145 273
197.09709 191
198.06812 199
201.09987 202
202.05183 169
203.08543 266
206.07417 284
207.08292 882
208.0881 312
210.07042 505
218.06606 241
219.08522 244
221.09787 557
222.10835 195
223.10919 191
225.0994 109
231.08345 471
232.09396 138
234.06679 436
235.07684 662
237.0905 800
239.01947 117
239.10693 446
240.06035 207
247.10883 203
249.09058 513
250.10196 128
251.10959 367
253.11885 230
255.00986 134
259.13928 126
261.09003 153
263.11295 150
269.12204 147
275.10477 132
277.12402 365
280.01138 121
281.03979 135
289.13293 115
293.13629 162
295.06357 830
296.06549 220
311.60837 121
324.32864 306
327.14691 185
330.18677 143
Name: Bisphenol F diglycidyl ether
PrecursorMZ: 335.1261
PrecursorType: [M+Na]+
IonMode: Positive
Formula: C19H20O4
SMILES: C1C(O1)COC2=CC=C(C=C2)CC3=CC=C(C=C3)OCC4CO4
InChI: 
InChIKey: XUCHXOAWJMEFLF-UHFFFAOYSA-N
RetentionTime: 6.975867
CCS: 
CollisionEnergy: 20-40 eV
InstrumentType: UPLC-QTOF-MS
Comment: PI: Cristina Nerin; Data collector: QiZhi Su, GUIA, University of Zaragoza, Spain; Collision energy: 20-40 V; Instrument: Waters HPLC-QTOF-MS (Xevo G2 QTof); Ionization: ESI; Deconvoluted by MS-DIAL; Column: Waters AtlantisTM premier BEH C18 AX column (2.1 × 100mm x 1.7μm); Flow rate: 0.3mL/min; Mobile phase A and B are water and methnaol, respectively, both with 0.1% formic acid; Gradient elution: from A/B (95/5) to A/B (100/0) in 7min, kept for 4 min, then back to A/B (95/5) in 0.1 min, and maintained for additional 1.9 min (13min in total).; Injection volume: 10 μL
Num peaks: 51
79.05553 275
83.05161 93
89.06047 108
93.06995 156
98.98469 48
101.05605 134
111.04357 166
113.03152 33
115.055 3211
118.93035 77
120.92723 69
131.05127 176
132.05867 367
133.06563 316
141.07927 470
148.08583 167
149.12555 51
156.09094 36
166.07376 81
171.07892 64
172.07907 634
173.08136 262
176.04414 75
177.09538 119
178.08118 594
185.1319 43
189.09189 66
190.04027 66
206.07414 171
210.0629 71
221.09735 106
222.09848 78
227.14412 42
231.08786 260
236.08955 548
244.08595 74
249.09169 726
251.10234 226
255.00917 82
261.08572 198
264.11972 51
274.11359 44
275.10785 98
279.10703 60
283.26779 47
295.05518 129
306.17197 63
312.12711 38
329.12408 129
330.17535 82
333.19919 50
Name: Bisphenol F diglycidyl ether
PrecursorMZ: 351.1009
PrecursorType: [M+K]+
IonMode: Positive
Formula: C19H20O4
SMILES: C1C(O1)COC2=CC=C(C=C2)CC3=CC=C(C=C3)OCC4CO4
InChI: 
InChIKey: XUCHXOAWJMEFLF-UHFFFAOYSA-N
RetentionTime: 6.987283
CCS: 
CollisionEnergy: 20-40 eV
InstrumentType: UPLC-QTOF-MS
Comment: PI: Cristina Nerin; Data collector: QiZhi Su, GUIA, University of Zaragoza, Spain; Collision energy: 20-40 V; Instrument: Waters HPLC-QTOF-MS (Xevo G2 QTof); Ionization: ESI; Deconvoluted by MS-DIAL; Column: Waters AtlantisTM premier BEH C18 AX column (2.1 × 100mm x 1.7μm); Flow rate: 0.3mL/min; Mobile phase A and B are water and methnaol, respectively, both with 0.1% formic acid; Gradient elution: from A/B (95/5) to A/B (100/0) in 7min, kept for 4 min, then back to A/B (95/5) in 0.1 min, and maintained for additional 1.9 min (13min in total).; Injection volume: 10 μL
Num peaks: 55
57.0705 211
60.08192 758
67.05225 96
71.08849 206
77.03987 1141
79.05494 46
91.05475 1273
93.07013 573
103.05472 253
105.07066 3101
107.05 3505
109.06483 234
110.06658 76
111.04359 144
115.05492 545
119.0499 639
127.05727 150
128.06258 793
130.07474 90
134.06627 337
135.08264 156
141.0717 259
149.06169 201
152.07812 53
153.07083 274
158.10353 75
159.08141 680
171.08408 280
174.09056 165
181.06714 196
202.05571 538
205.0817 117
210.06961 105
218.07001 80
222.06847 128
223.07115 160
246.11208 98
247.07961 36
252.12128 102
259.00092 70
262.12064 72
278.09576 362
283.25507 55
285.12585 41
288.11118 88
291.15652 110
301.12549 167
303.14435 89
310.06189 38
311.11633 78
321.09753 60
329.13138 134
335.12781 2490
337.11917 110
351.17828 192
Name: Coumarin
PrecursorMZ: 147.0455
PrecursorType: [M+H]+
IonMode: Positive
Formula: C9H6O2
SMILES: C1=CC=C2C(=C1)C=CC(=O)O2
InChI: 
InChIKey: ZYGHJZDHTFUPRJ-UHFFFAOYSA-N
RetentionTime: 5.058933
CCS: 
CollisionEnergy: 20-40 eV
InstrumentType: UPLC-QTOF-MS
Comment: PI: Cristina Nerin; Data collector: QiZhi Su, GUIA, University of Zaragoza, Spain; Collision energy: 20-40 V; Instrument: Waters HPLC-QTOF-MS (Xevo G2 QTof); Ionization: ESI; Deconvoluted by MS-DIAL; Column: Waters AtlantisTM premier BEH C18 AX column (2.1 × 100mm x 1.7μm); Flow rate: 0.3mL/min; Mobile phase A and B are water and methnaol, respectively, both with 0.1% formic acid; Gradient elution: from A/B (95/5) to A/B (100/0) in 7min, kept for 4 min, then back to A/B (95/5) in 0.1 min, and maintained for additional 1.9 min (13min in total).; Injection volume: 10 μL
Num peaks: 13
67.05539 79
77.04054 805
91.05589 5279
93.056 92
98.97822 90
102.00549 722
103.05489 3298
111.01031 1109
118.04524 500
120.01501 819
129.02153 132
145.07663 205
147.04631 2565
Name: Coumarin
PrecursorMZ: 169.0268
PrecursorType: [M+Na]+
IonMode: Positive
Formula: C9H6O2
SMILES: C1=CC=C2C(=C1)C=CC(=O)O2
InChI: 
InChIKey: ZYGHJZDHTFUPRJ-UHFFFAOYSA-N
RetentionTime: 5.2079
CCS: 
CollisionEnergy: 20-40 eV
InstrumentType: UPLC-QTOF-MS
Comment: PI: Cristina Nerin; Data collector: QiZhi Su, GUIA, University of Zaragoza, Spain; Collision energy: 20-40 V; Instrument: Waters HPLC-QTOF-MS (Xevo G2 QTof); Ionization: ESI; Deconvoluted by MS-DIAL; Column: Waters AtlantisTM premier BEH C18 AX column (2.1 × 100mm x 1.7μm); Flow rate: 0.3mL/min; Mobile phase A and B are water and methnaol, respectively, both with 0.1% formic acid; Gradient elution: from A/B (95/5) to A/B (100/0) in 7min, kept for 4 min, then back to A/B (95/5) in 0.1 min, and maintained for additional 1.9 min (13min in total).; Injection volume: 10 μL
Num peaks: 22
56.96471 168
65.03979 1091
77.04046 3391
79.05573 179
81.0732 190
84.96432 904
91.05502 16210
92.99943 583
101.06145 174
103.05587 11787
111.00879 1733
118.04124 1282
120.016 1529
120.08302 324
123.24363 274
127.02261 203
131.01208 185
145.07941 854
147.04596 6185
148.04733 388
161.10947 1439
166.01823 4313
Name: Coumarin
PrecursorMZ: 147.0454
PrecursorType: [M+H]+
IonMode: Positive
Formula: C9H6O2
SMILES: C1=CC=C2C(=C1)C=CC(=O)O2
InChI: 
InChIKey: ZYGHJZDHTFUPRJ-UHFFFAOYSA-N
RetentionTime: 5.215517
CCS: 
CollisionEnergy: 20-40 eV
InstrumentType: UPLC-QTOF-MS
Comment: PI: Cristina Nerin; Data collector: QiZhi Su, GUIA, University of Zaragoza, Spain; Collision energy: 20-40 V; Instrument: Waters HPLC-QTOF-MS (Xevo G2 QTof); Ionization: ESI; Deconvoluted by MS-DIAL; Column: Waters AtlantisTM premier BEH C18 AX column (2.1 × 100mm x 1.7μm); Flow rate: 0.3mL/min; Mobile phase A and B are water and methnaol, respectively, both with 0.1% formic acid; Gradient elution: from A/B (95/5) to A/B (100/0) in 7min, kept for 4 min, then back to A/B (95/5) in 0.1 min, and maintained for additional 1.9 min (13min in total).; Injection volume: 10 μL
Num peaks: 13
91.05563 11842
93.00111 457
102.00473 845
103.05552 6246
104.05988 374
111.51374 141
118.01556 140
119.0474 329
120.0817 168
129.02376 183
145.07945 481
146.08456 377
147.04572 6150
Name: N-(4-Hydroxyphenyl)stearamide
PrecursorMZ: 398.3028
PrecursorType: [M+Na]+
IonMode: Positive
Formula: C24H41NO2
SMILES: CCCCCCCCCCCCCCCCCC(=O)NC1=CC=C(C=C1)O
InChI: 
InChIKey: YASWBJXTHOXPGK-UHFFFAOYSA-N
RetentionTime: 8.439
CCS: 
CollisionEnergy: 20-40 eV
InstrumentType: UPLC-QTOF-MS
Comment: PI: Cristina Nerin; Data collector: QiZhi Su, GUIA, University of Zaragoza, Spain; Collision energy: 20-40 V; Instrument: Waters HPLC-QTOF-MS (Xevo G2 QTof); Ionization: ESI; Deconvoluted by MS-DIAL; Column: Waters AtlantisTM premier BEH C18 AX column (2.1 × 100mm x 1.7μm); Flow rate: 0.3mL/min; Mobile phase A and B are water and methnaol, respectively, both with 0.1% formic acid; Gradient elution: from A/B (95/5) to A/B (100/0) in 7min, kept for 4 min, then back to A/B (95/5) in 0.1 min, and maintained for additional 1.9 min (13min in total).; Injection volume: 10 μL
Num peaks: 20
57.0693 967
57.0738 962
60.09729 1170
71.0721 1850
71.08684 1826
85.08268 1526
92.04984 2181
92.06786 2144
93.03468 2087
93.05227 1484
110.06093 84743
111.06453 2217
180.10242 1070
281.05054 1447
355.06949 1845
356.07315 1262
357.06473 896
377.32413 4545
378.3269 2139
398.30206 79625
Name: N-(4-Hydroxyphenyl)stearamide
PrecursorMZ: 414.2773
PrecursorType: [M+K]+
IonMode: Positive
Formula: C24H41NO2
SMILES: CCCCCCCCCCCCCCCCCC(=O)NC1=CC=C(C=C1)O
InChI: 
InChIKey: YASWBJXTHOXPGK-UHFFFAOYSA-N
RetentionTime: 8.439
CCS: 
CollisionEnergy: 20-40 eV
InstrumentType: UPLC-QTOF-MS
Comment: PI: Cristina Nerin; Data collector: QiZhi Su, GUIA, University of Zaragoza, Spain; Collision energy: 20-40 V; Instrument: Waters HPLC-QTOF-MS (Xevo G2 QTof); Ionization: ESI; Deconvoluted by MS-DIAL; Column: Waters AtlantisTM premier BEH C18 AX column (2.1 × 100mm x 1.7μm); Flow rate: 0.3mL/min; Mobile phase A and B are water and methnaol, respectively, both with 0.1% formic acid; Gradient elution: from A/B (95/5) to A/B (100/0) in 7min, kept for 4 min, then back to A/B (95/5) in 0.1 min, and maintained for additional 1.9 min (13min in total).; Injection volume: 10 μL
Num peaks: 22
57.0693 967
57.0738 962
60.09729 1170
71.0721 1850
71.08684 1826
85.08268 1560
92.04984 2552
92.06786 2469
93.03468 2081
93.05227 1405
110.06093 94900
111.06453 1806
180.10242 1418
281.05054 1447
355.06949 1990
356.07315 1262
377.32413 6259
378.3269 2317
398.30206 72203
399.30554 17526
400.30917 2054
414.27655 2074
Name: N-(4-Hydroxyphenyl)stearamide
PrecursorMZ: 376.3214
PrecursorType: [M+H]+
IonMode: Positive
Formula: C24H41NO2
SMILES: CCCCCCCCCCCCCCCCCC(=O)NC1=CC=C(C=C1)O
InChI: 
InChIKey: YASWBJXTHOXPGK-UHFFFAOYSA-N
RetentionTime: 8.4428
CCS: 
CollisionEnergy: 20-40 eV
InstrumentType: UPLC-QTOF-MS
Comment: PI: Cristina Nerin; Data collector: QiZhi Su, GUIA, University of Zaragoza, Spain; Collision energy: 20-40 V; Instrument: Waters HPLC-QTOF-MS (Xevo G2 QTof); Ionization: ESI; Deconvoluted by MS-DIAL; Column: Waters AtlantisTM premier BEH C18 AX column (2.1 × 100mm x 1.7μm); Flow rate: 0.3mL/min; Mobile phase A and B are water and methnaol, respectively, both with 0.1% formic acid; Gradient elution: from A/B (95/5) to A/B (100/0) in 7min, kept for 4 min, then back to A/B (95/5) in 0.1 min, and maintained for additional 1.9 min (13min in total).; Injection volume: 10 μL
Num peaks: 4
110.06084 85066
376.32065 1193688
376.42212 12322
376.51407 22922
Name: N-(4-Hydroxyphenyl)stearamide
PrecursorMZ: 773.6157
PrecursorType: [2M+H]+
IonMode: Positive
Formula: C24H41NO2
SMILES: CCCCCCCCCCCCCCCCCC(=O)NC1=CC=C(C=C1)O
InChI: 
InChIKey: YASWBJXTHOXPGK-UHFFFAOYSA-N
RetentionTime: 8.4428
CCS: 
CollisionEnergy: 20-40 eV
InstrumentType: UPLC-QTOF-MS
Comment: PI: Cristina Nerin; Data collector: QiZhi Su, GUIA, University of Zaragoza, Spain; Collision energy: 20-40 V; Instrument: Waters HPLC-QTOF-MS (Xevo G2 QTof); Ionization: ESI; Deconvoluted by MS-DIAL; Column: Waters AtlantisTM premier BEH C18 AX column (2.1 × 100mm x 1.7μm); Flow rate: 0.3mL/min; Mobile phase A and B are water and methnaol, respectively, both with 0.1% formic acid; Gradient elution: from A/B (95/5) to A/B (100/0) in 7min, kept for 4 min, then back to A/B (95/5) in 0.1 min, and maintained for additional 1.9 min (13min in total).; Injection volume: 10 μL
Num peaks: 16
71.06835 1839
71.08753 1826
92.05077 3129
93.03497 2389
93.05359 1207
110.06084 105534
111.04427 3688
111.0639 6949
281.05078 1348
284.29767 1739
376.49472 17583
398.30228 18809
399.30551 4852
414.2803 1097
563.42627 3033
773.6181 2762
Name: N-(4-Hydroxyphenyl)stearamide
PrecursorMZ: 751.6337
PrecursorType: [2M+H]+
IonMode: Positive
Formula: C24H41NO2
SMILES: CCCCCCCCCCCCCCCCCC(=O)NC1=CC=C(C=C1)O
InChI: 
InChIKey: YASWBJXTHOXPGK-UHFFFAOYSA-N
RetentionTime: 8.454217
CCS: 
CollisionEnergy: 20-40 eV
InstrumentType: UPLC-QTOF-MS
Comment: PI: Cristina Nerin; Data collector: QiZhi Su, GUIA, University of Zaragoza, Spain; Collision energy: 20-40 V; Instrument: Waters HPLC-QTOF-MS (Xevo G2 QTof); Ionization: ESI; Deconvoluted by MS-DIAL; Column: Waters AtlantisTM premier BEH C18 AX column (2.1 × 100mm x 1.7μm); Flow rate: 0.3mL/min; Mobile phase A and B are water and methnaol, respectively, both with 0.1% formic acid; Gradient elution: from A/B (95/5) to A/B (100/0) in 7min, kept for 4 min, then back to A/B (95/5) in 0.1 min, and maintained for additional 1.9 min (13min in total).; Injection volume: 10 μL
Num peaks: 9
110.04088 51429
376.32144 1152848
376.4227 11630
376.51477 21464
377.3248 293718
378.32816 35157
398.30322 60373
399.3071 14580
751.63367 33397
Name: 5-Chloro-2-methylaniline
PrecursorMZ: 142.0434
PrecursorType: [M+H]+
IonMode: Positive
Formula: C7H8ClN
SMILES: CC1=C(C=C(C=C1)Cl)N
InChI: 
InChIKey: WRZOMWDJOLIVQP-UHFFFAOYSA-N
RetentionTime: 5.8212
CCS: 
CollisionEnergy: 20-40 eV
InstrumentType: UPLC-QTOF-MS
Comment: PI: Cristina Nerin; Data collector: QiZhi Su, GUIA, University of Zaragoza, Spain; Collision energy: 20-40 V; Instrument: Waters HPLC-QTOF-MS (Xevo G2 QTof); Ionization: ESI; Deconvoluted by MS-DIAL; Column: Waters AtlantisTM premier BEH C18 AX column (2.1 × 100mm x 1.7μm); Flow rate: 0.3mL/min; Mobile phase A and B are water and methnaol, respectively, both with 0.1% formic acid; Gradient elution: from A/B (95/5) to A/B (100/0) in 7min, kept for 4 min, then back to A/B (95/5) in 0.1 min, and maintained for additional 1.9 min (13min in total).; Injection volume: 10 μL
Num peaks: 21
63.02377 1509
63.02982 1509
72.98493 695
74.98369 699
74.99017 974
75.00298 879
89.03968 31804
89.05473 31795
90.04707 12315
91.06161 897
99.0006 11208
100.99158 3479
100.99913 3491
107.07391 64045
125.01618 47319
126.01959 3313
127.0151 20021
128.01741 1425
129.01591 1399
140.02751 2658
142.04268 19496
Name: Bispyrazolone
PrecursorMZ: 693.293
PrecursorType: [2M+H]+
IonMode: Positive
Formula: C20H18N4O2
SMILES: CC1=NN(C(=O)C1C2C(=NN(C2=O)C3=CC=CC=C3)C)C4=CC=CC=C4
InChI: 
InChIKey: FORCWSNQDMPPOC-UHFFFAOYSA-N
RetentionTime: 5.996333
CCS: 
CollisionEnergy: 20-40 eV
InstrumentType: UPLC-QTOF-MS
Comment: PI: Cristina Nerin; Data collector: QiZhi Su, GUIA, University of Zaragoza, Spain; Collision energy: 20-40 V; Instrument: Waters HPLC-QTOF-MS (Xevo G2 QTof); Ionization: ESI; Deconvoluted by MS-DIAL; Column: Waters AtlantisTM premier BEH C18 AX column (2.1 × 100mm x 1.7μm); Flow rate: 0.3mL/min; Mobile phase A and B are water and methnaol, respectively, both with 0.1% formic acid; Gradient elution: from A/B (95/5) to A/B (100/0) in 7min, kept for 4 min, then back to A/B (95/5) in 0.1 min, and maintained for additional 1.9 min (13min in total).; Injection volume: 10 μL
Num peaks: 65
77.03957 58676
92.05073 12758
93.03962 10697
93.04761 11025
93.05817 9737
94.04668 10675
104.05048 17389
105.04597 13853
106.04963 12792
106.06628 12220
118.04863 54722
118.06623 54533
122.06104 26774
132.04588 11438
133.07727 12770
133.0952 12845
142.06635 49270
143.06734 14021
143.08591 12223
145.05914 14263
145.07779 9988
156.08168 10196
157.07788 17246
159.09309 32397
159.11273 9832
169.07739 24210
170.0616 39871
173.0724 45786
174.07874 11376
175.08768 70779
183.09259 51926
184.0705 12967
184.08888 17076
184.09892 16401
185.07281 29021
186.10281 15105
187.08809 71713
198.10167 12384
199.08797 65418
200.08932 10432
201.10312 33874
209.07338 12188
210.10406 11949
211.08745 87295
212.0891 15990
213.06783 15462
213.10173 21819
226.0986 37563
227.08743 9930
228.11481 97486
229.117 14037
241.09842 59603
243.09264 9946
243.10715 10171
254.0936 126214
255.09706 20491
261.10352 15488
278.12991 15246
347.15137 956638
347.31863 13322
347.33701 13762
347.35519 12814
348.15366 215617
349.15707 22830
693.29138 12984
Name: Bispyrazolone
PrecursorMZ: 369.1333
PrecursorType: [M+Na]+
IonMode: Positive
Formula: C20H18N4O2
SMILES: CC1=NN(C(=O)C1C2C(=NN(C2=O)C3=CC=CC=C3)C)C4=CC=CC=C4
InChI: 
InChIKey: FORCWSNQDMPPOC-UHFFFAOYSA-N
RetentionTime: 6.06485
CCS: 
CollisionEnergy: 20-40 eV
InstrumentType: UPLC-QTOF-MS
Comment: PI: Cristina Nerin; Data collector: QiZhi Su, GUIA, University of Zaragoza, Spain; Collision energy: 20-40 V; Instrument: Waters HPLC-QTOF-MS (Xevo G2 QTof); Ionization: ESI; Deconvoluted by MS-DIAL; Column: Waters AtlantisTM premier BEH C18 AX column (2.1 × 100mm x 1.7μm); Flow rate: 0.3mL/min; Mobile phase A and B are water and methnaol, respectively, both with 0.1% formic acid; Gradient elution: from A/B (95/5) to A/B (100/0) in 7min, kept for 4 min, then back to A/B (95/5) in 0.1 min, and maintained for additional 1.9 min (13min in total).; Injection volume: 10 μL
Num peaks: 51
77.04004 7022
92.05077 1719
93.05743 1060
94.06562 1312
104.0524 1603
105.04578 1311
106.06696 2583
107.07288 1250
109.07597 1054
110.06166 1384
118.06633 6540
122.06048 3269
128.05132 992
132.04587 1485
133.07974 1602
142.06711 5660
145.07529 1253
148.03931 1031
156.08191 1292
157.07629 1422
159.0932 4084
169.07794 2352
170.06206 4257
173.07265 5084
174.07837 1720
175.08844 8422
183.09253 4589
185.07323 3264
186.103 990
187.08846 8126
199.08836 7618
200.1183 1075
201.10283 3457
209.07283 1916
211.08777 10152
212.08528 1006
213.06946 1604
213.10335 2697
226.09842 4573
228.1136 11096
229.11732 1718
241.09973 7210
254.09393 16132
255.09822 2075
261.10272 1975
278.13 1558
347.15039 98079
348.15414 19783
349.15646 1864
366.12003 1499
369.12793 1528
Name: o-Aminoazotoluene
PrecursorMZ: 226.1369
PrecursorType: [M+H]+
IonMode: Positive
Formula: C14H15N3
SMILES: CC1=CC=CC=C1N=NC2=CC(=C(C=C2)N)C
InChI: 
InChIKey: PFRYFZZSECNQOL-UHFFFAOYSA-N
RetentionTime: 7.261867
CCS: 
CollisionEnergy: 20-40 eV
InstrumentType: UPLC-QTOF-MS
Comment: PI: Cristina Nerin; Data collector: QiZhi Su, GUIA, University of Zaragoza, Spain; Collision energy: 20-40 V; Instrument: Waters HPLC-QTOF-MS (Xevo G2 QTof); Ionization: ESI; Deconvoluted by MS-DIAL; Column: Waters AtlantisTM premier BEH C18 AX column (2.1 × 100mm x 1.7μm); Flow rate: 0.3mL/min; Mobile phase A and B are water and methnaol, respectively, both with 0.1% formic acid; Gradient elution: from A/B (95/5) to A/B (100/0) in 7min, kept for 4 min, then back to A/B (95/5) in 0.1 min, and maintained for additional 1.9 min (13min in total).; Injection volume: 10 μL
Num peaks: 26
65.03963 8318
77.03964 15432
79.03564 45923
79.05516 40726
80.05792 4395
80.07076 3096
91.03539 280982
91.05518 261940
92.03908 20527
92.05795 18996
94.06614 23422
106.06607 132303
107.07213 27643
108.07889 3869
119.06087 5529
119.08124 3203
120.08143 10655
120.09845 11203
121.07692 171383
122.08013 14550
133.07689 44599
167.07378 2820
194.08665 5788
209.10887 15400
210.10852 7379
226.13498 23753
Name: "3,3'-Dichlorobenzidine"
PrecursorMZ: 253.0318
PrecursorType: [M+H]+
IonMode: Positive
Formula: C12H10Cl2N2
SMILES: C1=CC(=C(C=C1C2=CC(=C(C=C2)N)Cl)Cl)N
InChI: 
InChIKey: HUWXDEQWWKGHRV-UHFFFAOYSA-N
RetentionTime: 6.842467
CCS: 
CollisionEnergy: 20-40 eV
InstrumentType: UPLC-QTOF-MS
Comment: PI: Cristina Nerin; Data collector: QiZhi Su, GUIA, University of Zaragoza, Spain; Collision energy: 20-40 V; Instrument: Waters HPLC-QTOF-MS (Xevo G2 QTof); Ionization: ESI; Deconvoluted by MS-DIAL; Column: Waters AtlantisTM premier BEH C18 AX column (2.1 × 100mm x 1.7μm); Flow rate: 0.3mL/min; Mobile phase A and B are water and methnaol, respectively, both with 0.1% formic acid; Gradient elution: from A/B (95/5) to A/B (100/0) in 7min, kept for 4 min, then back to A/B (95/5) in 0.1 min, and maintained for additional 1.9 min (13min in total).; Injection volume: 10 μL
Num peaks: 31
127.01955 10940
127.05554 17958
128.05721 7642
128.06474 7675
130.06659 12047
131.07419 10077
154.06622 126912
155.07228 46251
156.07956 7576
164.02878 9615
165.05856 14521
166.06494 8482
181.07738 197623
182.08493 451742
183.08806 59729
190.04317 152355
191.04636 18020
192.04008 48769
193.04161 4897
193.05238 4881
201.03638 18636
203.03432 5296
215.03897 5954
216.04646 10460
217.05405 325120
218.06023 175990
219.05255 119913
220.05779 54499
221.06171 5327
252.02287 60174
253.03032 102052
Name: "4,4'-Methylenebis(2-chloroaniline)"
PrecursorMZ: 267.0474
PrecursorType: [M+H]+
IonMode: Positive
Formula: C13H12Cl2N2
SMILES: C1=CC(=C(C=C1CC2=CC(=C(C=C2)N)Cl)Cl)N
InChI: 
InChIKey: IBOFVQJTBBUKMU-UHFFFAOYSA-N
RetentionTime: 6.89195
CCS: 
CollisionEnergy: 20-40 eV
InstrumentType: UPLC-QTOF-MS
Comment: PI: Cristina Nerin; Data collector: QiZhi Su, GUIA, University of Zaragoza, Spain; Collision energy: 20-40 V; Instrument: Waters HPLC-QTOF-MS (Xevo G2 QTof); Ionization: ESI; Deconvoluted by MS-DIAL; Column: Waters AtlantisTM premier BEH C18 AX column (2.1 × 100mm x 1.7μm); Flow rate: 0.3mL/min; Mobile phase A and B are water and methnaol, respectively, both with 0.1% formic acid; Gradient elution: from A/B (95/5) to A/B (100/0) in 7min, kept for 4 min, then back to A/B (95/5) in 0.1 min, and maintained for additional 1.9 min (13min in total).; Injection volume: 10 μL
Num peaks: 51
92.05025 5220
104.05042 153971
105.05354 12520
115.05502 4861
128.02721 5474
140.02725 246307
141.03072 18329
141.07121 15286
142.02415 72716
142.07198 3950
143.01477 5477
143.02734 5432
143.07405 6334
151.05573 35868
151.07088 35866
152.06119 17147
153.02301 3585
153.06313 6024
154.0661 8442
155.07091 2992
164.02922 3625
166.0648 3323
167.07365 45762
168.08125 118594
169.08611 27002
177.05785 5179
178.06628 39193
179.07143 32984
180.08104 72452
181.0787 15916
190.04248 9778
192.0414 4528
192.06046 9962
193.07845 6451
194.08459 19272
195.09279 296371
196.09886 137990
197.10405 17960
214.04297 30894
215.03412 9703
215.04585 9700
216.04338 19725
217.05357 10463
231.06967 270023
232.07225 39507
233.06671 88169
234.07024 12643
252.02298 5362
253.02887 6025
255.0265 7810
267.04611 210915
Name: "1,9-Nonanediol diacrylate"
PrecursorMZ: 269.1773
PrecursorType: [M+H]+
IonMode: Positive
Formula: C15H24O4
SMILES: C=CC(=O)OCCCCCCCCCOC(=O)C=C
InChI: 
InChIKey: PGDIJTMOHORACQ-UHFFFAOYSA-N
RetentionTime: 7.5853
CCS: 
CollisionEnergy: 20-40 eV
InstrumentType: UPLC-QTOF-MS
Comment: PI: Cristina Nerin; Data collector: QiZhi Su, GUIA, University of Zaragoza, Spain; Collision energy: 20-40 V; Instrument: Waters HPLC-QTOF-MS (Xevo G2 QTof); Ionization: ESI; Deconvoluted by MS-DIAL; Column: Waters AtlantisTM premier BEH C18 AX column (2.1 × 100mm x 1.7μm); Flow rate: 0.3mL/min; Mobile phase A and B are water and methnaol, respectively, both with 0.1% formic acid; Gradient elution: from A/B (95/5) to A/B (100/0) in 7min, kept for 4 min, then back to A/B (95/5) in 0.1 min, and maintained for additional 1.9 min (13min in total).; Injection volume: 10 μL
Num peaks: 19
55.01857 1609
55.02609 1611
55.05572 7234
57.06102 2008
57.07096 2005
57.08779 1987
67.05529 3320
69.05431 158978
69.07067 158890
70.05617 9027
70.07449 8669
70.08636 8719
73.02922 37790
73.0467 37760
83.08605 68774
84.0899 4143
84.09753 4170
140.02707 4004
268.26376 2503
Name: "1,9-Nonanediol diacrylate"
PrecursorMZ: 559.3253
PrecursorType: [2M+Na]+
IonMode: Positive
Formula: C15H24O4
SMILES: C=CC(=O)OCCCCCCCCCOC(=O)C=C
InChI: 
InChIKey: PGDIJTMOHORACQ-UHFFFAOYSA-N
RetentionTime: 7.592916
CCS: 
CollisionEnergy: 20-40 eV
InstrumentType: UPLC-QTOF-MS
Comment: PI: Cristina Nerin; Data collector: QiZhi Su, GUIA, University of Zaragoza, Spain; Collision energy: 20-40 V; Instrument: Waters HPLC-QTOF-MS (Xevo G2 QTof); Ionization: ESI; Deconvoluted by MS-DIAL; Column: Waters AtlantisTM premier BEH C18 AX column (2.1 × 100mm x 1.7μm); Flow rate: 0.3mL/min; Mobile phase A and B are water and methnaol, respectively, both with 0.1% formic acid; Gradient elution: from A/B (95/5) to A/B (100/0) in 7min, kept for 4 min, then back to A/B (95/5) in 0.1 min, and maintained for additional 1.9 min (13min in total).; Injection volume: 10 μL
Num peaks: 19
55.05538 6613
57.07095 2545
67.05403 2866
67.05799 2860
69.07069 164928
69.09077 19959
70.07401 8410
73.0292 38390
73.0455 38340
83.08627 71713
83.10574 72000
84.08939 4542
84.10913 4396
121.0756 4038
140.02664 3439
194.09633 3284
226.13432 2712
316.17996 2244
505.42233 1713
Name: "1,9-Nonanediol diacrylate"
PrecursorMZ: 291.1583
PrecursorType: [M+Na]+
IonMode: Positive
Formula: C15H24O4
SMILES: C=CC(=O)OCCCCCCCCCOC(=O)C=C
InChI: 
InChIKey: PGDIJTMOHORACQ-UHFFFAOYSA-N
RetentionTime: 7.596734
CCS: 
CollisionEnergy: 20-40 eV
InstrumentType: UPLC-QTOF-MS
Comment: PI: Cristina Nerin; Data collector: QiZhi Su, GUIA, University of Zaragoza, Spain; Collision energy: 20-40 V; Instrument: Waters HPLC-QTOF-MS (Xevo G2 QTof); Ionization: ESI; Deconvoluted by MS-DIAL; Column: Waters AtlantisTM premier BEH C18 AX column (2.1 × 100mm x 1.7μm); Flow rate: 0.3mL/min; Mobile phase A and B are water and methnaol, respectively, both with 0.1% formic acid; Gradient elution: from A/B (95/5) to A/B (100/0) in 7min, kept for 4 min, then back to A/B (95/5) in 0.1 min, and maintained for additional 1.9 min (13min in total).; Injection volume: 10 μL
Num peaks: 28
55.03894 1585
55.05526 841
67.0553 3469
69.05667 1032
69.07085 709
69.08855 615
71.07767 531
71.08591 528
74.03294 509
74.04286 536
81.07073 1940
84.0727 3962
109.08414 518
123.11836 499
125.13307 892
141.07533 696
141.09224 700
187.12309 479
245.05646 599
245.06818 627
262.01785 473
268.26221 2005
268.2811 1876
275.18484 622
279.04562 5663
281.0434 475
291.1568 46691
291.19809 1497
Name: "1,9-Nonanediol diacrylate"
PrecursorMZ: 307.1328
PrecursorType: [M+K]+
IonMode: Positive
Formula: C15H24O4
SMILES: C=CC(=O)OCCCCCCCCCOC(=O)C=C
InChI: 
InChIKey: PGDIJTMOHORACQ-UHFFFAOYSA-N
RetentionTime: 7.600533
CCS: 
CollisionEnergy: 20-40 eV
InstrumentType: UPLC-QTOF-MS
Comment: PI: Cristina Nerin; Data collector: QiZhi Su, GUIA, University of Zaragoza, Spain; Collision energy: 20-40 V; Instrument: Waters HPLC-QTOF-MS (Xevo G2 QTof); Ionization: ESI; Deconvoluted by MS-DIAL; Column: Waters AtlantisTM premier BEH C18 AX column (2.1 × 100mm x 1.7μm); Flow rate: 0.3mL/min; Mobile phase A and B are water and methnaol, respectively, both with 0.1% formic acid; Gradient elution: from A/B (95/5) to A/B (100/0) in 7min, kept for 4 min, then back to A/B (95/5) in 0.1 min, and maintained for additional 1.9 min (13min in total).; Injection volume: 10 μL
Num peaks: 77
55.01864 1044
55.05571 588
57.07134 2391
67.0554 3879
69.07071 1190
79.03908 841
79.05565 787
81.071 924
81.08308 889
91.05544 928
97.10259 1122
106.04777 2249
106.06676 2041
106.07471 2053
107.05238 782
107.06907 1332
107.07584 965
107.08621 977
107.09247 532
120.06306 577
120.08104 613
120.09229 613
121.07691 6534
122.06379 936
122.07824 1051
122.09267 798
123.12054 496
125.13292 892
133.07657 2050
133.09383 2138
134.0614 508
134.07341 575
134.0811 465
141.07529 707
141.0847 778
141.09117 716
141.1008 702
165.0713 599
165.08644 596
166.08583 482
180.07269 597
180.0829 606
181.07176 803
181.08607 499
182.08742 517
182.10207 593
184.10121 834
184.11304 844
184.12419 834
194.0972 5446
195.09425 862
195.10425 826
196.09486 1036
196.11284 1329
208.10197 553
209.09326 711
209.1102 657
209.12183 656
226.13454 3240
227.12888 548
227.14151 520
243.06386 1982
243.0735 1995
245.05914 590
245.07228 621
245.0835 532
267.01944 795
268.26193 2027
275.18564 991
281.04276 5744
283.0412 1611
284.03891 659
284.05536 668
291.15759 44687
292.15955 6812
293.16748 823
307.14877 478
Name: Triethanolamine
PrecursorMZ: 150.1141
PrecursorType: [M+H]+
IonMode: Positive
Formula: C6H15NO3
SMILES: C(CO)N(CCO)CCO
InChI: 
InChIKey: GSEJCLTVZPLZKY-UHFFFAOYSA-N
RetentionTime: 0.5359
CCS: 
CollisionEnergy: 20-40 eV
InstrumentType: UPLC-QTOF-MS
Comment: PI: Cristina Nerin; Data collector: QiZhi Su, GUIA, University of Zaragoza, Spain; Collision energy: 20-40 V; Instrument: Waters HPLC-QTOF-MS (Xevo G2 QTof); Ionization: ESI; Deconvoluted by MS-DIAL; Column: Waters AtlantisTM premier BEH C18 AX column (2.1 × 100mm x 1.7μm); Flow rate: 0.3mL/min; Mobile phase A and B are water and methnaol, respectively, both with 0.1% formic acid; Gradient elution: from A/B (95/5) to A/B (100/0) in 7min, kept for 4 min, then back to A/B (95/5) in 0.1 min, and maintained for additional 1.9 min (13min in total).; Injection volume: 10 μL
Num peaks: 24
68.04944 237
68.05609 236
70.0658 8785
71.07036 395
74.05593 92
74.06401 92
84.07533 527
84.08295 526
86.08076 271
86.09361 305
86.09851 305
88.07702 4885
89.08292 182
106.07326 368
106.0837 409
106.09207 388
114.09286 1589
114.10119 1592
115.08556 110
115.09741 114
132.10426 3222
133.10655 222
133.11644 219
150.11417 2622
Name: "1,9-Nonanediol diacrylate"
PrecursorMZ: 286.2032
PrecursorType: [M+NH4]+
IonMode: Positive
Formula: C15H24O4
SMILES: C=CC(=O)OCCCCCCCCCOC(=O)C=C
InChI: 
InChIKey: PGDIJTMOHORACQ-UHFFFAOYSA-N
RetentionTime: 7.604333
CCS: 
CollisionEnergy: 20-40 eV
InstrumentType: UPLC-QTOF-MS
Comment: PI: Cristina Nerin; Data collector: QiZhi Su, GUIA, University of Zaragoza, Spain; Collision energy: 20-40 V; Instrument: Waters HPLC-QTOF-MS (Xevo G2 QTof); Ionization: ESI; Deconvoluted by MS-DIAL; Column: Waters AtlantisTM premier BEH C18 AX column (2.1 × 100mm x 1.7μm); Flow rate: 0.3mL/min; Mobile phase A and B are water and methnaol, respectively, both with 0.1% formic acid; Gradient elution: from A/B (95/5) to A/B (100/0) in 7min, kept for 4 min, then back to A/B (95/5) in 0.1 min, and maintained for additional 1.9 min (13min in total).; Injection volume: 10 μL
Num peaks: 383
55.0561 270
59.05015 93
67.05504 832
67.06411 846
69.02845 120
69.03674 102
69.07082 357
69.08899 351
71.01453 86
71.01721 89
71.04862 213
71.05803 268
71.07488 314
71.08555 303
71.09128 305
72.09406 72
74.01686 80
75.03219 72
75.03873 70
77.04011 366
77.04887 369
79.02319 110
79.02888 105
79.03706 227
79.05511 166
79.06375 104
81.07029 1554
81.08401 1559
82.06741 155
82.07398 159
83.03312 291
83.04937 367
83.05392 358
84.04902 111
84.06409 96
84.08989 358
85.06557 220
85.11304 254
85.11855 83
91.04028 1827
91.05539 1779
92.05075 195
92.05908 183
93.00938 70
93.05492 307
93.06799 445
93.07415 431
94.06536 594
94.07637 590
95.0865 1211
95.09755 1232
95.10578 1408
96.08619 168
96.09457 172
97.06325 237
97.06889 258
97.07507 272
97.10181 470
97.11064 457
98.08646 100
98.09838 98
98.10667 94
98.98605 142
99.06848 106
99.08057 82
101.05257 82
101.06132 82
104.04626 87
104.0542 94
105.06918 113
105.07584 166
106.04853 3859
106.06631 3612
107.07095 1113
107.07861 1088
107.08641 1113
107.09677 397
108.05356 125
108.071 140
108.08054 130
108.08862 73
109.06413 81
109.07296 71
109.08199 300
109.10168 504
110.09824 112
110.10323 112
110.99651 142
111.03714 131
111.04424 140
111.07613 73
111.11724 110
111.12894 112
111.13508 133
113.05759 162
113.09758 83
115.04439 74
115.06852 110
116.05576 116
117.0408 121
117.05838 206
117.07079 220
117.09091 202
118.03542 76
118.05341 131
118.05907 91
118.06869 100
119.05127 232
119.06219 222
119.08817 80
120.06187 199
120.07368 570
120.07931 557
120.08553 552
120.10001 524
121.07642 5593
121.09821 112
121.10587 532
121.12175 266
122.04398 109
122.06594 628
122.07977 687
122.08852 779
122.09782 830
122.10795 181
123.07281 270
123.08057 470
123.09113 455
123.10736 593
123.11822 335
123.12759 307
125.09535 467
125.12847 85
127.07845 195
127.11366 69
128.06015 73
128.07016 96
130.05357 143
130.0652 119
131.06047 124
131.0787 100
131.08902 92
133.05748 2117
133.07591 1600
134.05922 207
134.06787 301
134.07877 164
134.09578 90
135.06499 74
135.11853 532
137.08368 131
137.09741 100
137.11433 106
137.12363 114
137.13388 126
139.11469 102
141.01112 191
141.07024 220
141.09052 686
141.12619 249
141.13489 249
142.08601 136
142.09505 117
142.10789 79
143.01808 72
143.07306 103
143.10722 170
145.07335 109
145.086 71
145.10637 75
147.06641 77
147.08218 122
147.09975 119
147.11456 114
148.06065 79
148.07986 89
149.07054 112
149.09624 140
149.11227 149
149.13316 132
151.14566 84
152.02199 95
152.02982 95
152.05403 187
152.06625 180
153.06329 128
153.08072 156
153.1297 168
155.06662 84
155.07585 102
155.09285 827
155.10597 895
155.11313 858
156.0844 71
156.10048 126
156.11086 169
157.10631 95
159.11273 85
159.11978 76
161.1118 114
161.13106 140
163.08772 85
163.10472 84
165.05867 522
165.07175 455
165.07983 258
165.0903 315
165.10072 100
165.12152 86
165.1315 84
166.07817 816
167.05428 115
167.06906 379
167.0809 367
167.10178 118
167.14601 94
167.15349 95
169.08069 358
169.09059 433
169.10295 359
173.08513 86
175.1106 134
175.13637 102
175.15332 144
176.01936 83
177.05382 80
177.07155 70
177.09943 93
178.05855 125
178.07353 127
178.08221 108
179.06854 203
179.08766 240
180.0816 679
181.08286 1037
181.09334 1041
181.10153 1012
181.12115 123
182.08391 291
182.09566 298
183.08089 119
183.09105 133
183.10812 166
184.11292 1356
185.05811 74
185.06999 93
185.07983 90
185.11275 141
185.12415 115
185.13741 81
187.03653 122
187.049 112
190.04256 76
192.06961 137
192.09315 150
194.09761 6890
195.08156 955
195.10153 996
196.07901 116
196.1132 1528
197.1116 265
197.12819 273
199.13472 87
199.1568 121
201.10954 72
203.15727 72
203.17514 95
206.07855 76
209.10794 1128
210.12222 211
211.06721 115
211.08032 115
211.10414 134
213.10617 83
213.12573 91
215.15906 178
215.18738 102
216.99988 83
217.01567 82
217.19623 134
218.06999 70
220.10144 90
220.11415 125
221.0968 106
221.10757 183
222.10692 132
222.12276 138
223.12439 110
223.17531 118
225.14279 74
226.09547 70
226.10841 410
226.13457 4019
227.12471 538
227.13525 629
227.14658 533
229.0509 131
229.20964 72
231.08824 78
237.1805 80
237.19296 74
238.12973 247
238.14153 229
240.22366 143
240.23836 162
241.05408 86
241.09871 166
241.11348 141
242.11061 81
242.12517 80
243.06139 392
243.07117 400
243.08488 88
244.07455 205
246.05444 76
246.06801 114
246.08377 87
250.09737 70
251.19516 219
251.20319 193
251.22505 87
252.01628 156
252.02771 151
252.20923 71
253.03125 185
253.04585 342
254.03168 214
254.09134 142
255.02504 177
255.08661 171
256.07581 196
256.10068 132
256.11288 69
257.06873 176
257.08414 176
257.09555 159
257.11426 93
258.1123 79
262.08853 76
262.10468 88
263.03961 119
265.20889 107
265.22949 98
267.04474 254
267.1149 93
268.0961 90
268.11142 87
270.10214 82
270.11734 159
270.12943 155
272.13525 75
273.14276 77
273.17972 76
273.18881 128
274.15347 87
275.15839 71
275.18546 526
279.04565 197
279.23712 242
280.0488 101
280.22797 76
282.03354 266
282.04727 174
282.07745 129
282.13617 77
282.26443 116
282.28174 77
282.29065 71
283.04041 277
283.08224 89
283.10455 202
283.12311 342
283.13724 301
284.01709 89
284.11044 149
284.12955 198
284.14151 228
284.28378 123
285.11942 165
285.13617 199
285.15225 173
286.13126 179
286.16669 73
Name: 5-Chloro-2-methylaniline
PrecursorMZ: 142.0432
PrecursorType: [M+H]+
IonMode: Positive
Formula: C7H8ClN
SMILES: CC1=C(C=C(C=C1)Cl)N
InChI: 
InChIKey: WRZOMWDJOLIVQP-UHFFFAOYSA-N
RetentionTime: 5.779433
CCS: 
CollisionEnergy: 20-40 eV
InstrumentType: UPLC-QTOF-MS
Comment: PI: Cristina Nerin; Data collector: QiZhi Su, GUIA, University of Zaragoza, Spain; Collision energy: 20-40 V; Instrument: Waters HPLC-QTOF-MS (Xevo G2 QTof); Ionization: ESI; Deconvoluted by MS-DIAL; Column: Waters AtlantisTM premier BEH C18 AX column (2.1 × 100mm x 1.7μm); Flow rate: 0.3mL/min; Mobile phase A and B are water and methnaol, respectively, both with 0.1% formic acid; Gradient elution: from A/B (95/5) to A/B (100/0) in 7min, kept for 4 min, then back to A/B (95/5) in 0.1 min, and maintained for additional 1.9 min (13min in total).; Injection volume: 10 μL
Num peaks: 37
63.02359 597
63.02739 599
65.02908 301
65.03687 301
65.04088 300
65.04638 303
65.05726 224
72.98477 461
74.99328 268
89.04015 7668
90.04662 2660
90.06626 4864
91.04488 1738
91.05524 1758
98.98322 3625
99.00123 4112
100.99726 923
101.01053 733
106.06649 6696
107.05567 19168
107.07398 19400
108.05972 742
108.0665 1906
108.07796 1180
108.0843 1208
125.0163 17585
126.02087 253
127.0155 4287
128.01721 396
128.02692 589
128.99744 308
140.02278 694
140.03218 782
141.01933 222
141.03349 240
142.02112 230
142.04359 7989
Name: Triethanolamine
PrecursorMZ: 172.0965
PrecursorType: [M+Na]+
IonMode: Positive
Formula: C6H15NO3
SMILES: C(CO)N(CCO)CCO
InChI: 
InChIKey: GSEJCLTVZPLZKY-UHFFFAOYSA-N
RetentionTime: 0.5359
CCS: 
CollisionEnergy: 20-40 eV
InstrumentType: UPLC-QTOF-MS
Comment: PI: Cristina Nerin; Data collector: QiZhi Su, GUIA, University of Zaragoza, Spain; Collision energy: 20-40 V; Instrument: Waters HPLC-QTOF-MS (Xevo G2 QTof); Ionization: ESI; Deconvoluted by MS-DIAL; Column: Waters AtlantisTM premier BEH C18 AX column (2.1 × 100mm x 1.7μm); Flow rate: 0.3mL/min; Mobile phase A and B are water and methnaol, respectively, both with 0.1% formic acid; Gradient elution: from A/B (95/5) to A/B (100/0) in 7min, kept for 4 min, then back to A/B (95/5) in 0.1 min, and maintained for additional 1.9 min (13min in total).; Injection volume: 10 μL
Num peaks: 28
68.04944 237
68.05609 236
70.0658 8785
71.07036 395
74.05593 92
74.06401 92
84.07533 527
84.08295 526
86.08076 271
86.09361 305
86.09851 305
88.07702 4885
89.08292 182
106.07326 368
106.0837 409
106.09207 388
114.09286 1589
114.10119 1592
115.08556 110
115.09741 114
132.10426 3222
133.10655 222
133.11644 219
150.11417 2002
151.11269 108
151.12277 108
156.12248 95
172.09579 1901
Name: Bispyrazolone
PrecursorMZ: 347.1515
PrecursorType: [M+H]+
IonMode: Positive
Formula: C20H18N4O2
SMILES: CC1=NN(C(=O)C1C2C(=NN(C2=O)C3=CC=CC=C3)C)C4=CC=CC=C4
InChI: 
InChIKey: FORCWSNQDMPPOC-UHFFFAOYSA-N
RetentionTime: 5.965967
CCS: 
CollisionEnergy: 20-40 eV
InstrumentType: UPLC-QTOF-MS
Comment: PI: Cristina Nerin; Data collector: QiZhi Su, GUIA, University of Zaragoza, Spain; Collision energy: 20-40 V; Instrument: Waters HPLC-QTOF-MS (Xevo G2 QTof); Ionization: ESI; Deconvoluted by MS-DIAL; Column: Waters AtlantisTM premier BEH C18 AX column (2.1 × 100mm x 1.7μm); Flow rate: 0.3mL/min; Mobile phase A and B are water and methnaol, respectively, both with 0.1% formic acid; Gradient elution: from A/B (95/5) to A/B (100/0) in 7min, kept for 4 min, then back to A/B (95/5) in 0.1 min, and maintained for additional 1.9 min (13min in total).; Injection volume: 10 μL
Num peaks: 64
77.03972 17797
93.05376 3351
93.05975 3183
94.04885 4102
94.0657 3527
104.04995 5914
105.03262 3860
105.04677 4265
105.061 4439
106.04917 5304
106.06569 4984
107.0604 3424
107.06734 3359
109.07754 3139
118.04917 17555
118.06601 17384
118.08591 9784
122.06094 9070
132.04535 3200
133.07668 3969
133.09543 4577
142.06631 16762
143.06615 5190
143.07492 5272
145.07805 3420
157.05956 6297
157.07742 3665
159.07411 8593
159.09258 7582
160.08443 3034
169.07805 8772
170.06168 13362
173.07259 12291
174.0733 3005
174.08191 3008
175.08754 20383
183.09332 17166
184.08998 5284
184.10419 5263
185.07291 7140
186.09076 6339
186.10414 5081
186.11519 4820
187.08836 24338
198.09435 4448
199.08827 18129
201.10497 9088
209.06758 4422
209.07729 4285
210.10403 4118
211.08736 27382
212.08926 5731
213.06827 3920
213.10175 4913
226.09859 11966
228.1145 31941
229.11589 3858
241.0984 17323
254.09386 39969
255.09738 4462
261.10397 5199
278.13058 4087
302.12976 3028
347.1507 288138
Name: DL-Methionine
PrecursorMZ: 150.0599
PrecursorType: [M+H]+
IonMode: Positive
Formula: C5H11NO2S
SMILES: CSCCC(C(=O)O)N
InChI: 
InChIKey: FFEARJCKVFRZRR-UHFFFAOYSA-N
RetentionTime: 0.871
CCS: 
CollisionEnergy: 20-40 eV
InstrumentType: UPLC-QTOF-MS
Comment: PI: Cristina Nerin; Data collector: QiZhi Su, GUIA, University of Zaragoza, Spain; Collision energy: 20-40 V; Instrument: Waters HPLC-QTOF-MS (Xevo G2 QTof); Ionization: ESI; Deconvoluted by MS-DIAL; Column: Waters AtlantisTM premier BEH C18 AX column (2.1 × 100mm x 1.7μm); Flow rate: 0.3mL/min; Mobile phase A and B are water and methnaol, respectively, both with 0.1% formic acid; Gradient elution: from A/B (95/5) to A/B (100/0) in 7min, kept for 4 min, then back to A/B (95/5) in 0.1 min, and maintained for additional 1.9 min (13min in total).; Injection volume: 10 μL
Num peaks: 72
56.04921 1135
56.05421 1135
57.03543 50
57.04969 59
57.06555 44
58.99575 44
60.99185 75
61.01253 2552
62.01529 46
63.00821 173
71.99839 133
72.00385 133
73.01013 34
74.02271 854
74.02804 849
74.06174 479
74.9938 44
75.00928 83
75.02734 73
77.00469 95
77.01009 93
81.99564 67
82.00208 68
84.04446 292
84.05173 292
85.01067 207
85.02277 299
85.02914 292
85.03825 191
86.0649 36
86.09638 34
86.10365 34
87.02797 1314
87.04353 1235
88.03248 26
89.01434 85
89.03035 150
89.04673 104
91.02135 53
91.02679 52
102.05389 633
102.06311 639
103.05634 51
103.06436 49
104.0474 1148
104.05489 1148
104.99828 74
105.00479 76
105.02939 83
105.05891 116
105.06853 63
106.05351 73
110.98248 46
118.06256 128
118.07067 138
133.0226 715
133.03435 748
133.04318 710
134.0407 82
134.06003 34
135.04282 49
141.99998 46
143.95537 109
143.96887 112
144.01024 70
144.06456 81
144.08444 68
144.10265 62
149.02132 27
149.03333 41
150.05804 921
150.08327 51
Name: 4-(Dimethylamino)benzaldehyde
PrecursorMZ: 150.0926
PrecursorType: [M+H]+
IonMode: Positive
Formula: C9H11NO
SMILES: CN(C)C1=CC=C(C=C1)C=O
InChI: 
InChIKey: BGNGWHSBYQYVRX-UHFFFAOYSA-N
RetentionTime: 5.805833
CCS: 
CollisionEnergy: 20-40 eV
InstrumentType: UPLC-QTOF-MS
Comment: PI: Cristina Nerin; Data collector: QiZhi Su, GUIA, University of Zaragoza, Spain; Collision energy: 20-40 V; Instrument: Waters HPLC-QTOF-MS (Xevo G2 QTof); Ionization: ESI; Deconvoluted by MS-DIAL; Column: Waters AtlantisTM premier BEH C18 AX column (2.1 × 100mm x 1.7μm); Flow rate: 0.3mL/min; Mobile phase A and B are water and methnaol, respectively, both with 0.1% formic acid; Gradient elution: from A/B (95/5) to A/B (100/0) in 7min, kept for 4 min, then back to A/B (95/5) in 0.1 min, and maintained for additional 1.9 min (13min in total).; Injection volume: 10 μL
Num peaks: 76
56.97203 105
58.99154 110
61.01486 102
65.03843 138
65.04379 97
65.06795 75
66.04948 93
67.05752 249
70.98401 85
77.03646 223
77.0423 401
78.04358 76
79.02113 70
79.05522 448
79.06136 138
81.0695 295
81.07603 114
82.0653 115
83.08674 72
84.95789 910
84.96456 608
85.05718 80
89.06482 160
91.05582 315
91.06239 193
92.06105 102
93.00489 100
93.06041 96
93.07058 155
95.08363 100
95.08937 94
96.09058 68
96.99398 152
103.0496 81
103.05827 230
104.05291 199
105.0699 179
105.0802 87
106.0662 2343
107.07372 4209
108.07175 254
108.07767 231
109.05765 162
109.103 76
111.04287 72
112.986 91
116.02401 105
117.80715 69
118.06717 102
119.04976 103
119.08591 87
120.04735 85
120.08157 6762
121.089 2345
121.10374 71
121.55257 118
122.0968 1424
123.05627 103
123.10184 227
125.01432 71
131.01944 104
133.08797 137
134.05592 203
134.06693 195
134.95877 71
135.01137 82
135.06392 194
135.08072 105
136.06888 92
140.07167 106
144.05121 111
145.01773 74
148.07675 127
149.02461 122
150.09233 954
150.09818 283
Name: Hexamethylentetramin
PrecursorMZ: 141.1145
PrecursorType: [M+H]+
IonMode: Positive
Formula: C6H12N4
SMILES: C1N2CN3CN1CN(C2)C3
InChI: 
InChIKey: VKYKSIONXSXAKP-UHFFFAOYSA-N
RetentionTime: 0.5702
CCS: 
CollisionEnergy: 20-40 eV
InstrumentType: UPLC-QTOF-MS
Comment: PI: Cristina Nerin; Data collector: QiZhi Su, GUIA, University of Zaragoza, Spain; Collision energy: 20-40 V; Instrument: Waters HPLC-QTOF-MS (Xevo G2 QTof); Ionization: ESI; Deconvoluted by MS-DIAL; Column: Waters AtlantisTM premier BEH C18 AX column (2.1 × 100mm x 1.7μm); Flow rate: 0.3mL/min; Mobile phase A and B are water and methnaol, respectively, both with 0.1% formic acid; Gradient elution: from A/B (95/5) to A/B (100/0) in 7min, kept for 4 min, then back to A/B (95/5) in 0.1 min, and maintained for additional 1.9 min (13min in total).; Injection volume: 10 μL
Num peaks: 56
55.05981 41
58.06474 21
59.00898 53
63.00135 27
71.05853 44
72.93454 24
72.94104 58
72.98737 40
75.96298 24
77.0359 33
77.04454 45
79.12789 27
80.05292 57
80.17272 22
83.06644 29
84.95708 26
84.96185 56
85.07558 368
85.08852 123
86.0378 20
86.07816 22
86.09436 40
95.08681 20
97.97381 83
98.06792 92
98.07452 152
99.07114 28
99.94188 20
99.9519 26
100.92844 68
100.93507 22
100.95538 27
101.9406 20
101.95972 41
107.08656 22
108.98397 34
111.04736 23
112.07646 66
112.08938 832
112.1016 26
112.95126 23
113.03609 37
120.96272 83
121.09825 22
126.96285 25
127.2137 63
128.98315 74
131.91809 27
131.94685 20
132.07863 57
132.90109 29
140.07256 21
141.05994 38
141.0696 21
141.11635 323
141.13548 40
Name: 4-Isopropoxyaniline
PrecursorMZ: 152.1089
PrecursorType: [M+H]+
IonMode: Positive
Formula: C9H13NO
SMILES: CC(C)OC1=CC=C(C=C1)N
InChI: 
InChIKey: MLNFMFAMNBGAQT-UHFFFAOYSA-N
RetentionTime: 0.8937333
CCS: 
CollisionEnergy: 20-40 eV
InstrumentType: UPLC-QTOF-MS
Comment: PI: Cristina Nerin; Data collector: QiZhi Su, GUIA, University of Zaragoza, Spain; Collision energy: 20-40 V; Instrument: Waters HPLC-QTOF-MS (Xevo G2 QTof); Ionization: ESI; Deconvoluted by MS-DIAL; Column: Waters AtlantisTM premier BEH C18 AX column (2.1 × 100mm x 1.7μm); Flow rate: 0.3mL/min; Mobile phase A and B are water and methnaol, respectively, both with 0.1% formic acid; Gradient elution: from A/B (95/5) to A/B (100/0) in 7min, kept for 4 min, then back to A/B (95/5) in 0.1 min, and maintained for additional 1.9 min (13min in total).; Injection volume: 10 μL
Num peaks: 20
65.03991 26481
66.04243 1590
67.04392 1372
67.05627 1369
80.04993 1325
82.06647 5930
92.05056 20443
92.06879 20506
93.03451 47550
93.05724 2954
93.06522 2962
94.02309 2643
94.03732 2836
94.04439 2928
109.03715 5082
109.05334 5152
110.061 100932
111.04595 6250
111.06481 6376
152.10767 4915
Name: 4-Isopropoxyaniline
PrecursorMZ: 152.1086
PrecursorType: [M+H]+
IonMode: Positive
Formula: C9H13NO
SMILES: CC(C)OC1=CC=C(C=C1)N
InChI: 
InChIKey: MLNFMFAMNBGAQT-UHFFFAOYSA-N
RetentionTime: 1.701833
CCS: 
CollisionEnergy: 20-40 eV
InstrumentType: UPLC-QTOF-MS
Comment: PI: Cristina Nerin; Data collector: QiZhi Su, GUIA, University of Zaragoza, Spain; Collision energy: 20-40 V; Instrument: Waters HPLC-QTOF-MS (Xevo G2 QTof); Ionization: ESI; Deconvoluted by MS-DIAL; Column: Waters AtlantisTM premier BEH C18 AX column (2.1 × 100mm x 1.7μm); Flow rate: 0.3mL/min; Mobile phase A and B are water and methnaol, respectively, both with 0.1% formic acid; Gradient elution: from A/B (95/5) to A/B (100/0) in 7min, kept for 4 min, then back to A/B (95/5) in 0.1 min, and maintained for additional 1.9 min (13min in total).; Injection volume: 10 μL
Num peaks: 21
65.04044 6917
66.04462 424
66.05295 425
67.04366 406
67.05352 403
67.05887 357
80.04975 421
80.05923 427
82.06574 1917
82.07245 1917
92.05038 5373
93.03469 12288
93.05744 606
94.03637 793
94.04867 835
109.05417 1726
110.06116 27644
111.06288 1915
111.0716 1866
152.10654 1353
152.11322 636
Name: 4-Chloro-2-methylaniline
PrecursorMZ: 142.0434
PrecursorType: [M+H]+
IonMode: Positive
Formula: C7H8ClN
SMILES: CC1=C(C=CC(=C1)Cl)N
InChI: 
InChIKey: CXNVOWPRHWWCQR-UHFFFAOYSA-N
RetentionTime: 4.590517
CCS: 
CollisionEnergy: 20-40 eV
InstrumentType: UPLC-QTOF-MS
Comment: PI: Cristina Nerin; Data collector: QiZhi Su, GUIA, University of Zaragoza, Spain; Collision energy: 20-40 V; Instrument: Waters HPLC-QTOF-MS (Xevo G2 QTof); Ionization: ESI; Deconvoluted by MS-DIAL; Column: Waters AtlantisTM premier BEH C18 AX column (2.1 × 100mm x 1.7μm); Flow rate: 0.3mL/min; Mobile phase A and B are water and methnaol, respectively, both with 0.1% formic acid; Gradient elution: from A/B (95/5) to A/B (100/0) in 7min, kept for 4 min, then back to A/B (95/5) in 0.1 min, and maintained for additional 1.9 min (13min in total).; Injection volume: 10 μL
Num peaks: 20
84.96171 370
89.03922 6972
90.04646 3320
99.0005 3298
100.9985 674
106.0665 11427
107.07397 33271
108.076 1812
108.08188 557
125.01698 9660
126.01936 581
127.01662 4200
128.01878 389
129.01347 374
129.02176 419
130.06729 812
140.0322 375
141.03313 373
142.0423 4794
142.04814 1862
Name: 4-Chloro-2-methylaniline
PrecursorMZ: 142.0429
PrecursorType: [M+H]+
IonMode: Positive
Formula: C7H8ClN
SMILES: CC1=C(C=CC(=C1)Cl)N
InChI: 
InChIKey: CXNVOWPRHWWCQR-UHFFFAOYSA-N
RetentionTime: 4.66285
CCS: 
CollisionEnergy: 20-40 eV
InstrumentType: UPLC-QTOF-MS
Comment: PI: Cristina Nerin; Data collector: QiZhi Su, GUIA, University of Zaragoza, Spain; Collision energy: 20-40 V; Instrument: Waters HPLC-QTOF-MS (Xevo G2 QTof); Ionization: ESI; Deconvoluted by MS-DIAL; Column: Waters AtlantisTM premier BEH C18 AX column (2.1 × 100mm x 1.7μm); Flow rate: 0.3mL/min; Mobile phase A and B are water and methnaol, respectively, both with 0.1% formic acid; Gradient elution: from A/B (95/5) to A/B (100/0) in 7min, kept for 4 min, then back to A/B (95/5) in 0.1 min, and maintained for additional 1.9 min (13min in total).; Injection volume: 10 μL
Num peaks: 25
63.0227 267
79.0565 220
89.03905 6395
89.05606 6395
90.043 2131
90.0485 2131
91.04607 325
91.05477 331
99.00033 1920
100.99651 708
101.00514 713
106.066 7062
107.05605 21861
107.07381 21860
108.07739 1436
125.01669 7060
126.00391 454
126.01601 463
126.02313 458
127.01549 3361
128.02901 280
129.0164 497
140.02846 248
142.02298 228
142.04341 9076
Name: "N,N-Diethyl-1,4-benzenediamine"
PrecursorMZ: 165.1402
PrecursorType: [M+H]+
IonMode: Positive
Formula: C10H16N2
SMILES: CCN(CC)C1=CC=C(C=C1)N
InChI: 
InChIKey: QNGVNLMMEQUVQK-UHFFFAOYSA-N
RetentionTime: 0.6425167
CCS: 
CollisionEnergy: 20-40 eV
InstrumentType: UPLC-QTOF-MS
Comment: PI: Cristina Nerin; Data collector: QiZhi Su, GUIA, University of Zaragoza, Spain; Collision energy: 20-40 V; Instrument: Waters HPLC-QTOF-MS (Xevo G2 QTof); Ionization: ESI; Deconvoluted by MS-DIAL; Column: Waters AtlantisTM premier BEH C18 AX column (2.1 × 100mm x 1.7μm); Flow rate: 0.3mL/min; Mobile phase A and B are water and methnaol, respectively, both with 0.1% formic acid; Gradient elution: from A/B (95/5) to A/B (100/0) in 7min, kept for 4 min, then back to A/B (95/5) in 0.1 min, and maintained for additional 1.9 min (13min in total).; Injection volume: 10 μL
Num peaks: 14
93.05754 2900
94.06581 3332
107.06152 2630
120.06847 1564
120.08731 1582
121.07685 55024
122.08095 4705
135.10677 559
136.10066 33207
137.10338 3095
149.10205 2751
149.10944 2785
149.12325 2604
165.14076 1180
Name: "2,2':6',2''-Terpyridine"
PrecursorMZ: 256.0865
PrecursorType: [M+Na]+
IonMode: Positive
Formula: C15H11N3
SMILES: C1=CC=NC(=C1)C2=NC(=CC=C2)C3=CC=CC=N3
InChI: 
InChIKey: DRGAZIDRYFYHIJ-UHFFFAOYSA-N
RetentionTime: 4.1675
CCS: 
CollisionEnergy: 20-40 eV
InstrumentType: UPLC-QTOF-MS
Comment: PI: Cristina Nerin; Data collector: QiZhi Su, GUIA, University of Zaragoza, Spain; Collision energy: 20-40 V; Instrument: Waters HPLC-QTOF-MS (Xevo G2 QTof); Ionization: ESI; Deconvoluted by MS-DIAL; Column: Waters AtlantisTM premier BEH C18 AX column (2.1 × 100mm x 1.7μm); Flow rate: 0.3mL/min; Mobile phase A and B are water and methnaol, respectively, both with 0.1% formic acid; Gradient elution: from A/B (95/5) to A/B (100/0) in 7min, kept for 4 min, then back to A/B (95/5) in 0.1 min, and maintained for additional 1.9 min (13min in total).; Injection volume: 10 μL
Num peaks: 17
77.03978 6345
78.03496 17641
103.05547 13002
128.0504 16050
130.06641 63430
155.06195 77494
156.06691 14637
205.07736 11211
206.08531 18764
207.09332 44052
208.09677 8743
233.09474 7529
234.10451 614530
234.25681 6470
235.10718 106669
236.10953 9085
256.08707 19348
Name: "2,2':6',2''-Terpyridine"
PrecursorMZ: 489.1815
PrecursorType: [2M+Na]+
IonMode: Positive
Formula: C15H11N3
SMILES: C1=CC=NC(=C1)C2=NC(=CC=C2)C3=CC=CC=N3
InChI: 
InChIKey: DRGAZIDRYFYHIJ-UHFFFAOYSA-N
RetentionTime: 4.19415
CCS: 
CollisionEnergy: 20-40 eV
InstrumentType: UPLC-QTOF-MS
Comment: PI: Cristina Nerin; Data collector: QiZhi Su, GUIA, University of Zaragoza, Spain; Collision energy: 20-40 V; Instrument: Waters HPLC-QTOF-MS (Xevo G2 QTof); Ionization: ESI; Deconvoluted by MS-DIAL; Column: Waters AtlantisTM premier BEH C18 AX column (2.1 × 100mm x 1.7μm); Flow rate: 0.3mL/min; Mobile phase A and B are water and methnaol, respectively, both with 0.1% formic acid; Gradient elution: from A/B (95/5) to A/B (100/0) in 7min, kept for 4 min, then back to A/B (95/5) in 0.1 min, and maintained for additional 1.9 min (13min in total).; Injection volume: 10 μL
Num peaks: 26
79.02988 189
79.0379 193
79.05646 310
101.04066 495
102.0328 209
102.0472 207
103.03505 2899
103.05537 1074
128.05042 1458
129.04449 437
129.05591 427
130.04623 18389
153.03955 355
153.04565 309
153.05307 275
155.0619 6068
157.07689 226
167.07652 223
168.07072 525
191.07466 202
205.0784 890
207.09354 3686
232.09094 421
236.11116 620
256.08746 351
318.05569 195
Name: "2,2':6',2''-Terpyridine"
PrecursorMZ: 234.1055
PrecursorType: [M+H]+
IonMode: Positive
Formula: C15H11N3
SMILES: C1=CC=NC(=C1)C2=NC(=CC=C2)C3=CC=CC=N3
InChI: 
InChIKey: DRGAZIDRYFYHIJ-UHFFFAOYSA-N
RetentionTime: 4.19795
CCS: 
CollisionEnergy: 20-40 eV
InstrumentType: UPLC-QTOF-MS
Comment: PI: Cristina Nerin; Data collector: QiZhi Su, GUIA, University of Zaragoza, Spain; Collision energy: 20-40 V; Instrument: Waters HPLC-QTOF-MS (Xevo G2 QTof); Ionization: ESI; Deconvoluted by MS-DIAL; Column: Waters AtlantisTM premier BEH C18 AX column (2.1 × 100mm x 1.7μm); Flow rate: 0.3mL/min; Mobile phase A and B are water and methnaol, respectively, both with 0.1% formic acid; Gradient elution: from A/B (95/5) to A/B (100/0) in 7min, kept for 4 min, then back to A/B (95/5) in 0.1 min, and maintained for additional 1.9 min (13min in total).; Injection volume: 10 μL
Num peaks: 4
155.06181 24129
234.10469 741781
234.18439 8647
234.25639 11742
Name: "2,2':6',2''-Terpyridine"
PrecursorMZ: 256.0863
PrecursorType: [M+Na]+
IonMode: Positive
Formula: C15H11N3
SMILES: C1=CC=NC(=C1)C2=NC(=CC=C2)C3=CC=CC=N3
InChI: 
InChIKey: DRGAZIDRYFYHIJ-UHFFFAOYSA-N
RetentionTime: 4.243633
CCS: 
CollisionEnergy: 20-40 eV
InstrumentType: UPLC-QTOF-MS
Comment: PI: Cristina Nerin; Data collector: QiZhi Su, GUIA, University of Zaragoza, Spain; Collision energy: 20-40 V; Instrument: Waters HPLC-QTOF-MS (Xevo G2 QTof); Ionization: ESI; Deconvoluted by MS-DIAL; Column: Waters AtlantisTM premier BEH C18 AX column (2.1 × 100mm x 1.7μm); Flow rate: 0.3mL/min; Mobile phase A and B are water and methnaol, respectively, both with 0.1% formic acid; Gradient elution: from A/B (95/5) to A/B (100/0) in 7min, kept for 4 min, then back to A/B (95/5) in 0.1 min, and maintained for additional 1.9 min (13min in total).; Injection volume: 10 μL
Num peaks: 16
79.02235 515
101.03976 1454
105.04575 517
131.08943 2154
141.05884 572
141.07079 584
153.06509 938
154.05264 347
182.07373 571
193.07193 1407
193.08173 1407
231.06522 217
231.09698 204
235.29628 193
236.11005 4436
256.08633 17327
Name: "2,2':6',2''-Terpyridine"
PrecursorMZ: 234.1049
PrecursorType: [M+H]+
IonMode: Positive
Formula: C15H11N3
SMILES: C1=CC=NC(=C1)C2=NC(=CC=C2)C3=CC=CC=N3
InChI: 
InChIKey: DRGAZIDRYFYHIJ-UHFFFAOYSA-N
RetentionTime: 4.24745
CCS: 
CollisionEnergy: 20-40 eV
InstrumentType: UPLC-QTOF-MS
Comment: PI: Cristina Nerin; Data collector: QiZhi Su, GUIA, University of Zaragoza, Spain; Collision energy: 20-40 V; Instrument: Waters HPLC-QTOF-MS (Xevo G2 QTof); Ionization: ESI; Deconvoluted by MS-DIAL; Column: Waters AtlantisTM premier BEH C18 AX column (2.1 × 100mm x 1.7μm); Flow rate: 0.3mL/min; Mobile phase A and B are water and methnaol, respectively, both with 0.1% formic acid; Gradient elution: from A/B (95/5) to A/B (100/0) in 7min, kept for 4 min, then back to A/B (95/5) in 0.1 min, and maintained for additional 1.9 min (13min in total).; Injection volume: 10 μL
Num peaks: 6
130.06619 11323
155.06139 13458
207.0928 7846
234.10437 723640
234.18442 8383
234.25661 10453
Name: "2,2':6',2''-Terpyridine"
PrecursorMZ: 489.1813
PrecursorType: [2M+Na]+
IonMode: Positive
Formula: C15H11N3
SMILES: C1=CC=NC(=C1)C2=NC(=CC=C2)C3=CC=CC=N3
InChI: 
InChIKey: DRGAZIDRYFYHIJ-UHFFFAOYSA-N
RetentionTime: 4.258867
CCS: 
CollisionEnergy: 20-40 eV
InstrumentType: UPLC-QTOF-MS
Comment: PI: Cristina Nerin; Data collector: QiZhi Su, GUIA, University of Zaragoza, Spain; Collision energy: 20-40 V; Instrument: Waters HPLC-QTOF-MS (Xevo G2 QTof); Ionization: ESI; Deconvoluted by MS-DIAL; Column: Waters AtlantisTM premier BEH C18 AX column (2.1 × 100mm x 1.7μm); Flow rate: 0.3mL/min; Mobile phase A and B are water and methnaol, respectively, both with 0.1% formic acid; Gradient elution: from A/B (95/5) to A/B (100/0) in 7min, kept for 4 min, then back to A/B (95/5) in 0.1 min, and maintained for additional 1.9 min (13min in total).; Injection volume: 10 μL
Num peaks: 13
77.03955 1406
128.05064 3932
129.05417 1309
130.06624 13330
156.06676 3448
157.07657 1393
207.09296 9252
233.097 2026
234.10432 110009
234.24139 4194
234.2565 4610
234.27261 4073
256.08542 1357
Name: 5-Nitro-o-toluidine
PrecursorMZ: 153.0671
PrecursorType: [M+H]+
IonMode: Positive
Formula: C7H8N2O2
SMILES: CC1=C(C=C(C=C1)[N+](=O)[O-])N
InChI: 
InChIKey: DSBIJCMXAIKKKI-UHFFFAOYSA-N
RetentionTime: 5.283983
CCS: 
CollisionEnergy: 20-40 eV
InstrumentType: UPLC-QTOF-MS
Comment: PI: Cristina Nerin; Data collector: QiZhi Su, GUIA, University of Zaragoza, Spain; Collision energy: 20-40 V; Instrument: Waters HPLC-QTOF-MS (Xevo G2 QTof); Ionization: ESI; Deconvoluted by MS-DIAL; Column: Waters AtlantisTM premier BEH C18 AX column (2.1 × 100mm x 1.7μm); Flow rate: 0.3mL/min; Mobile phase A and B are water and methnaol, respectively, both with 0.1% formic acid; Gradient elution: from A/B (95/5) to A/B (100/0) in 7min, kept for 4 min, then back to A/B (95/5) in 0.1 min, and maintained for additional 1.9 min (13min in total).; Injection volume: 10 μL
Num peaks: 268
51.02496 23
52.98671 29
55.02019 81
55.05445 39
57.06673 72
58.46305 47
59.06721 30
60.05949 25
62.05891 32
64.88381 47
65.48634 27
67.04915 99
67.05646 107
68.96781 27
68.98447 25
68.99984 42
69.02608 51
69.03911 25
69.07135 42
69.07606 38
70.00972 82
70.9628 66
70.98095 30
71.00984 27
71.04913 48
71.08587 69
71.21892 40
72.04332 29
73.02243 26
73.0479 24
73.0637 113
74.04894 26
74.06662 23
75.02155 32
75.75668 31
77.03989 314
77.04823 62
77.50791 32
78.02899 32
78.03791 296
78.05355 31
78.97887 28
79.01365 27
79.04001 71
79.05573 366
79.07554 23
80.03416 25
80.05445 35
80.05959 23
81.06895 23
81.07536 32
82.16817 26
82.9779 24
83.05237 102
83.0797 25
84.5368 24
84.95768 124
84.96238 198
85.02413 24
85.10155 45
85.95449 131
85.96082 168
87.04712 43
87.0696 33
87.61297 24
88.07155 28
89.03874 608
89.05985 177
90.04517 937
90.05134 457
90.06345 32
90.33812 23
91.0492 98
91.05733 671
92.04842 44
92.05589 82
92.96093 57
92.9967 24
93.01083 45
93.05669 37
93.07261 140
94.06979 31
94.77227 34
95.08951 172
95.09805 327
96.0416 79
96.08063 36
96.96002 31
96.97005 32
97.03033 61
97.05022 42
97.06636 40
97.10306 30
97.18767 48
97.80093 92
97.94545 51
97.96706 39
98.95695 33
98.97675 77
98.99139 47
99.00548 36
99.04277 115
99.08137 26
99.97167 46
100.59888 31
100.9297 41
100.96284 39
101.03478 32
101.96902 30
102.03981 23
102.05382 23
103.01575 30
103.05561 135
103.90257 30
104.0649 47
105.0063 55
105.03521 46
105.06748 231
105.07659 140
106.05008 38
106.06702 576
106.08518 54
107.06941 1035
107.07581 2210
107.50816 23
107.74178 26
108.07206 53
108.07998 53
109.07569 54
109.10047 62
110.08463 29
110.47327 30
111.00345 30
111.02078 53
111.0461 49
111.07577 64
111.08749 25
112.58588 35
112.63455 24
113.06382 54
115.05961 101
115.07195 67
115.99229 27
116.04965 63
116.9074 30
117.04851 81
117.05882 748
117.07192 82
117.08286 42
117.0904 25
117.10371 23
117.13502 27
118.06023 272
118.06744 355
118.08605 220
118.154 24
119.06618 59
119.08717 27
120.01378 58
120.04747 30
120.06667 63
120.0808 166
120.08904 39
120.56078 41
120.73438 23
121.0652 33
121.07322 26
121.08212 114
121.10413 49
122.08624 69
122.66447 39
123.04417 48
123.07011 96
123.07898 77
125.01132 51
125.01958 70
125.02712 60
125.05283 79
125.06192 58
125.09707 55
125.89561 24
126.02205 44
126.04971 26
127.01467 81
127.04255 37
127.05061 45
127.05603 30
127.11157 24
127.50535 23
128.04063 43
128.04794 184
128.05722 64
128.11258 33
129.01923 23
129.05074 86
129.06717 71
129.55154 23
130.06837 1001
130.08167 29
130.08981 29
131.00505 94
131.04991 45
131.05901 48
131.06639 26
131.07288 27
131.16772 34
132.00696 39
132.04628 26
133.0014 26
133.01086 39
133.03241 24
133.08667 42
133.09576 58
133.10344 41
134.02081 33
134.03532 59
135.04799 99
135.0778 70
135.08617 96
136.0421 77
136.09721 55
137.09877 204
138.04964 29
140.01646 47
140.06996 188
140.89842 28
141.05563 44
141.15392 23
141.99991 30
142.42461 38
142.59328 30
143.22865 80
144.06393 80
144.07491 136
144.50909 174
144.51973 140
145.05212 26
145.05905 26
145.10098 27
145.5253 44
146.0591 272
146.06702 147
146.59836 43
147.05879 73
147.07204 115
148.09552 28
148.19545 45
149.02107 45
149.02818 60
149.06897 26
149.10269 28
149.51169 30
150.03584 23
150.09486 76
150.27411 26
150.50932 39
151.01469 61
151.03809 38
151.07088 23
151.07727 24
151.09694 29
151.92699 44
151.97787 82
152.51674 26
153.01057 39
153.05838 29
153.06924 148
153.08858 62
Name: glycoursodeoxycholic acid
PrecursorMZ: 472.3051
PrecursorType: [M+H]+
IonMode: Positive
Formula: C26H43NO5
SMILES: CC(CCC(=O)NCC(=O)O)C1CCC2C1(CCC3C2C(CC4C3(CCC(C4)O)C)O)C
InChI: 
InChIKey: GHCZAUBVMUEKKP-XROMFQGDSA-N
RetentionTime: 7.425567
CCS: 
CollisionEnergy: 20-40 eV
InstrumentType: UPLC-QTOF-MS
Comment: PI: Cristina Nerin; Data collector: QiZhi Su, GUIA, University of Zaragoza, Spain; Collision energy: 20-40 V; Instrument: Waters HPLC-QTOF-MS (Xevo G2 QTof); Ionization: ESI; Deconvoluted by MS-DIAL; Column: Waters AtlantisTM premier BEH C18 AX column (2.1 × 100mm x 1.7μm); Flow rate: 0.3mL/min; Mobile phase A and B are water and methnaol, respectively, both with 0.1% formic acid; Gradient elution: from A/B (95/5) to A/B (100/0) in 7min, kept for 4 min, then back to A/B (95/5) in 0.1 min, and maintained for additional 1.9 min (13min in total).; Injection volume: 10 μL
Num peaks: 212
62.53667 140
62.54343 142
65.03368 162
65.04234 162
67.12529 130
67.19677 171
67.21174 208
67.22813 178
67.24251 192
67.26214 172
67.27177 193
67.34338 189
67.35674 293
67.37035 295
67.38556 288
67.39381 135
67.40034 141
67.40627 147
67.41152 149
67.44124 133
69.04832 127
69.07066 253
69.08492 217
76.04056 875
76.05457 878
79.48824 124
79.54694 173
79.55379 169
79.5626 246
79.56946 227
79.57249 200
81.08839 2061
83.05341 182
83.08558 219
85.05441 1924
85.08429 269
91.05335 196
91.05823 191
93.03336 192
93.04273 178
93.05724 788
93.07143 673
95.0868 226
95.09364 256
96.08057 146
109.05814 138
109.06342 125
109.10176 2159
110.09776 180
110.42236 134
110.61278 135
110.62758 125
119.08714 410
119.09448 408
121.02906 222
121.03432 218
123.11265 384
123.12016 400
129.06516 135
130.0683 150
131.06641 241
131.08691 177
134.09413 270
134.10373 236
134.11081 240
135.11708 4320
137.12793 223
137.13698 205
145.10312 2863
146.09673 228
146.10934 225
147.0822 158
147.11761 128
149.0248 2876
149.09332 140
149.09927 152
150.02568 278
150.03787 274
150.1382 499
150.14606 510
155.08485 244
155.09219 174
158.08206 390
159.11743 241
161.09218 226
161.10274 257
161.13388 552
163.11388 2532
164.13995 393
164.14948 316
164.15846 297
169.08372 433
169.12836 151
170.11325 139
172.1299 231
173.13354 587
175.11534 130
176.15303 179
177.16675 499
178.1277 473
183.11984 629
184.09702 221
184.11362 283
185.13426 149
186.13512 647
187.11209 201
188.15147 123
193.16495 132
199.14305 304
199.15195 384
200.14923 281
201.1283 135
201.13658 134
202.17001 165
203.11862 129
205.17535 165
209.13072 230
210.11665 220
212.17493 130
213.11266 139
213.18092 2890
214.14505 154
214.16991 420
214.18484 145
217.15807 923
217.18614 782
219.16724 187
219.1801 152
227.14807 268
227.18079 149
229.15894 497
229.17545 1485
229.19682 393
231.16753 221
231.18015 343
236.12445 137
238.1731 305
239.14058 282
239.17696 337
239.18892 282
240.19638 189
241.19858 499
243.17674 1193
243.21111 218
244.21565 197
244.22617 217
245.19374 482
253.16759 230
253.18594 148
253.20015 132
254.16345 146
255.16371 128
255.18327 218
264.15088 555
264.16327 500
265.16718 229
265.19263 129
266.15186 274
266.17459 257
266.18445 325
266.19901 522
267.17664 234
267.19803 167
268.20773 178
268.25186 545
268.26932 459
269.2124 199
278.1806 426
278.19656 285
280.20789 303
294.23334 154
297.26721 373
301.14185 732
302.15421 183
306.2034 234
306.21457 225
311.29105 268
311.30502 177
312.27475 225
320.21152 128
322.26245 359
332.22217 256
333.23462 188
337.25101 194
337.26743 125
339.26877 255
341.2594 141
341.27863 970
355.26233 1229
355.29202 136
356.25513 307
356.26758 384
357.27841 373
358.26822 189
373.2673 772
373.28885 709
374.28091 247
399.29922 131
415.30408 3183
416.30716 1432
416.86826 376
417.31183 442
417.77405 201
418.30536 173
426.3212 279
426.33759 191
431.28128 269
433.31418 1090
451.3259 309
454.3172 142
472.29053 3186
472.30988 12280
Name: "N,N-Dimethylaniline"
PrecursorMZ: 122.0976
PrecursorType: [M+H]+
IonMode: Positive
Formula: C8H11N
SMILES: CN(C)C1=CC=CC=C1
InChI: 
InChIKey: JLTDJTHDQAWBAV-UHFFFAOYSA-N
RetentionTime: 0.8861667
CCS: 
CollisionEnergy: 20-40 eV
InstrumentType: UPLC-QTOF-MS
Comment: PI: Cristina Nerin; Data collector: QiZhi Su, GUIA, University of Zaragoza, Spain; Collision energy: 20-40 V; Instrument: Waters HPLC-QTOF-MS (Xevo G2 QTof); Ionization: ESI; Deconvoluted by MS-DIAL; Column: Waters AtlantisTM premier BEH C18 AX column (2.1 × 100mm x 1.7μm); Flow rate: 0.3mL/min; Mobile phase A and B are water and methnaol, respectively, both with 0.1% formic acid; Gradient elution: from A/B (95/5) to A/B (100/0) in 7min, kept for 4 min, then back to A/B (95/5) in 0.1 min, and maintained for additional 1.9 min (13min in total).; Injection volume: 10 μL
Num peaks: 11
77.03984 252
79.03946 211
79.05534 351
79.06084 352
106.06588 8396
107.05624 14383
107.07427 14397
108.07268 1146
108.07891 1181
108.08805 1195
122.09778 2775
Name: glycoursodeoxycholic acid
PrecursorMZ: 899.6362
PrecursorType: [2M+H]+
IonMode: Positive
Formula: C26H43NO5
SMILES: CC(CCC(=O)NCC(=O)O)C1CCC2C1(CCC3C2C(CC4C3(CCC(C4)O)C)O)C
InChI: 
InChIKey: GHCZAUBVMUEKKP-XROMFQGDSA-N
RetentionTime: 7.452217
CCS: 
CollisionEnergy: 20-40 eV
InstrumentType: UPLC-QTOF-MS
Comment: PI: Cristina Nerin; Data collector: QiZhi Su, GUIA, University of Zaragoza, Spain; Collision energy: 20-40 V; Instrument: Waters HPLC-QTOF-MS (Xevo G2 QTof); Ionization: ESI; Deconvoluted by MS-DIAL; Column: Waters AtlantisTM premier BEH C18 AX column (2.1 × 100mm x 1.7μm); Flow rate: 0.3mL/min; Mobile phase A and B are water and methnaol, respectively, both with 0.1% formic acid; Gradient elution: from A/B (95/5) to A/B (100/0) in 7min, kept for 4 min, then back to A/B (95/5) in 0.1 min, and maintained for additional 1.9 min (13min in total).; Injection volume: 10 μL
Num peaks: 17
76.02846 7816
76.0406 7731
76.05908 7585
158.08258 11323
201.16479 7264
215.18054 5004
238.14656 4950
339.26901 11340
414.30026 462347
415.30347 124832
416.30499 14993
432.31079 118800
433.31381 31576
434.31702 4963
450.32111 49469
451.32526 13552
899.63409 289286
Name: glycoursodeoxycholic acid
PrecursorMZ: 450.3213
PrecursorType: [M+H]+
IonMode: Positive
Formula: C26H43NO5
SMILES: CC(CCC(=O)NCC(=O)O)C1CCC2C1(CCC3C2C(CC4C3(CCC(C4)O)C)O)C
InChI: 
InChIKey: GHCZAUBVMUEKKP-XROMFQGDSA-N
RetentionTime: 7.482666
CCS: 
CollisionEnergy: 20-40 eV
InstrumentType: UPLC-QTOF-MS
Comment: PI: Cristina Nerin; Data collector: QiZhi Su, GUIA, University of Zaragoza, Spain; Collision energy: 20-40 V; Instrument: Waters HPLC-QTOF-MS (Xevo G2 QTof); Ionization: ESI; Deconvoluted by MS-DIAL; Column: Waters AtlantisTM premier BEH C18 AX column (2.1 × 100mm x 1.7μm); Flow rate: 0.3mL/min; Mobile phase A and B are water and methnaol, respectively, both with 0.1% formic acid; Gradient elution: from A/B (95/5) to A/B (100/0) in 7min, kept for 4 min, then back to A/B (95/5) in 0.1 min, and maintained for additional 1.9 min (13min in total).; Injection volume: 10 μL
Num peaks: 9
95.08576 2567
133.0818 624
149.15399 2813
216.18559 1575
217.19109 861
241.19859 1526
267.19406 531
292.1908 1405
450.32074 43518
Name: glycoursodeoxycholic acid
PrecursorMZ: 472.304
PrecursorType: [M+Na]+
IonMode: Positive
Formula: C26H43NO5
SMILES: CC(CCC(=O)NCC(=O)O)C1CCC2C1(CCC3C2C(CC4C3(CCC(C4)O)C)O)C
InChI: 
InChIKey: GHCZAUBVMUEKKP-XROMFQGDSA-N
RetentionTime: 7.505517
CCS: 
CollisionEnergy: 20-40 eV
InstrumentType: UPLC-QTOF-MS
Comment: PI: Cristina Nerin; Data collector: QiZhi Su, GUIA, University of Zaragoza, Spain; Collision energy: 20-40 V; Instrument: Waters HPLC-QTOF-MS (Xevo G2 QTof); Ionization: ESI; Deconvoluted by MS-DIAL; Column: Waters AtlantisTM premier BEH C18 AX column (2.1 × 100mm x 1.7μm); Flow rate: 0.3mL/min; Mobile phase A and B are water and methnaol, respectively, both with 0.1% formic acid; Gradient elution: from A/B (95/5) to A/B (100/0) in 7min, kept for 4 min, then back to A/B (95/5) in 0.1 min, and maintained for additional 1.9 min (13min in total).; Injection volume: 10 μL
Num peaks: 48
76.04018 4857
107.07253 1244
107.08665 1321
109.10225 874
121.10265 1885
133.08417 1633
133.10234 1333
135.09813 2537
135.11781 1484
147.11646 1904
147.12309 1939
147.13173 1893
149.13383 1750
149.14127 1759
158.08176 4699
159.11748 1129
161.13408 2321
163.11452 1120
173.12793 968
173.13774 969
175.15082 2520
175.1613 2568
177.12825 1635
185.13528 934
187.1467 874
187.1563 867
189.16701 1321
201.16382 3627
215.18098 2952
229.136 982
229.15265 2109
229.16219 1003
238.14299 1254
243.21411 1082
252.15974 994
321.2579 3628
322.26282 1016
339.26971 6342
340.26962 1385
414.29971 86689
415.30328 23986
416.30624 2524
432.31036 20647
433.31372 5087
450.3201 7872
451.3168 1987
451.33472 1895
472.30389 16329
Name: Deoxycholic acid
PrecursorMZ: 410.3281
PrecursorType: [M+NH4]+
IonMode: Positive
Formula: C24H40O4
SMILES: CC(CCC(=O)O)C1CCC2C1(C(CC3C2CCC4C3(CCC(C4)O)C)O)C
InChI: 
InChIKey: KXGVEGMKQFWNSR-LLQZFEROSA-N
RetentionTime: 7.742033
CCS: 
CollisionEnergy: 20-40 eV
InstrumentType: UPLC-QTOF-MS
Comment: PI: Cristina Nerin; Data collector: QiZhi Su, GUIA, University of Zaragoza, Spain; Collision energy: 20-40 V; Instrument: Waters HPLC-QTOF-MS (Xevo G2 QTof); Ionization: ESI; Deconvoluted by MS-DIAL; Column: Waters AtlantisTM premier BEH C18 AX column (2.1 × 100mm x 1.7μm); Flow rate: 0.3mL/min; Mobile phase A and B are water and methnaol, respectively, both with 0.1% formic acid; Gradient elution: from A/B (95/5) to A/B (100/0) in 7min, kept for 4 min, then back to A/B (95/5) in 0.1 min, and maintained for additional 1.9 min (13min in total).; Injection volume: 10 μL
Num peaks: 439
52.13254 87
52.14882 92
52.31128 72
55.05222 92
55.05589 88
55.06051 88
55.66798 80
60.08264 374
67.05445 434
69.02885 77
69.03514 100
69.03876 96
69.07186 260
79.05441 555
79.05975 556
80.06101 101
81.07095 4328
82.06876 340
82.07616 341
82.08331 341
83.05016 130
83.08816 1092
84.07818 96
84.09071 90
86.06624 96
87.6433 110
91.05261 876
91.05788 882
92.04834 119
92.05781 111
92.06133 111
93.07118 4049
94.07538 285
94.08209 277
95.08681 4724
96.08956 706
97.10211 130
99.04623 757
99.11097 75
100.04919 82
101.06084 192
105.07126 3568
106.05299 188
106.07243 372
107.06989 5792
107.08761 5646
108.06333 106
108.08857 269
108.09637 274
109.06667 196
109.10226 5171
110.10072 205
110.10889 223
110.11943 261
111.08282 79
111.1014 136
111.11651 102
111.12665 94
112.07785 78
112.0836 76
115.06627 65
115.07748 227
117.07005 187
117.07985 161
119.08652 2922
121.06697 117
121.10252 5730
122.10742 364
123.0965 940
123.11753 1340
124.07517 97
124.08395 99
124.09105 97
125.00111 201
125.02021 189
125.09743 252
127.06293 531
127.07653 590
127.08829 523
130.06639 67
130.08369 128
130.10638 152
130.1201 142
130.4646 82
131.05063 77
131.07111 1151
131.0843 1154
131.09372 1142
132.08646 142
132.09529 144
133.08763 1236
133.10217 2065
134.09299 339
134.10828 221
135.11806 5971
136.12845 84
137.0892 128
137.13208 349
138.09985 103
141.06693 150
141.0752 545
141.08917 565
141.09587 435
142.0966 64
143.08673 441
143.09651 518
144.09085 77
145.10265 2537
145.12933 100
146.10037 382
146.10832 403
146.12764 66
147.08377 138
147.09233 139
147.11832 6207
148.08046 68
148.08778 84
148.10713 307
148.11906 526
148.12639 512
148.40538 165
149.09805 1170
149.13339 5441
150.1326 769
150.14069 777
151.10704 478
151.11568 484
151.12761 552
152.10042 65
152.1165 89
153.09152 875
153.12613 72
154.09389 90
154.14566 64
155.08247 360
155.08977 1031
155.11096 229
157.08228 215
157.09953 469
157.10776 488
157.12589 271
159.11826 2570
160.12106 446
160.13567 366
161.097 385
161.13351 4635
162.09605 85
162.13899 1192
163.11372 594
163.14967 2958
164.15141 408
164.16101 402
165.07927 108
165.13191 261
166.09654 99
167.10931 424
168.10013 366
168.10675 390
168.11685 384
169.02786 92
169.09988 355
169.10971 1275
169.12494 1109
170.08972 105
170.10513 207
171.11198 409
171.11984 331
172.11304 143
172.12117 160
172.13593 117
173.08748 111
173.09712 122
173.13275 1315
173.14185 1215
175.11331 191
175.15021 2979
176.10591 81
176.11813 67
176.15433 774
177.09135 182
177.10782 757
177.11624 587
177.12894 653
177.16489 1633
177.17888 1613
178.15454 159
178.16747 88
178.1886 66
179.1077 516
179.11823 543
179.14012 97
179.14836 85
180.10078 73
180.10916 88
181.12292 756
181.13249 738
182.11432 91
182.14098 245
182.1485 166
183.11108 576
183.11967 706
183.13313 1062
184.11986 111
185.11714 552
185.13329 801
186.13417 156
186.13965 146
187.11366 102
187.1503 1849
189.11516 101
189.12535 553
189.13885 483
189.16541 1862
190.1284 149
190.13586 149
191.14401 493
191.15208 501
191.16014 423
193.12024 416
193.13753 600
193.15747 91
195.13951 1680
196.12527 488
196.13548 321
196.14587 559
196.17378 132
197.11128 163
197.13036 507
197.14102 614
199.15036 173
199.16736 510
200.1564 184
201.1272 193
201.1653 3200
202.16859 699
203.1403 882
203.14825 844
203.18094 2268
204.14636 104
204.18358 276
205.18622 140
207.14049 322
208.13893 143
208.14589 165
209.11896 69
209.12964 90
209.14967 1221
209.15666 1113
210.14969 245
210.16119 262
211.12823 344
211.15227 1059
212.14061 333
212.1496 341
213.06833 71
215.1438 188
215.18222 5818
216.18326 857
217.16074 266
217.19598 479
218.20296 121
218.21901 149
219.20847 84
221.15561 1963
221.17081 2292
222.15236 924
222.16153 872
223.1727 731
223.20155 968
223.21237 823
224.19553 243
224.20905 185
225.16797 742
226.17072 174
227.17365 286
228.23723 551
229.15778 1030
229.1685 1098
229.1972 1671
230.15817 170
230.17215 307
230.20549 115
231.15498 70
231.1778 189
233.15894 183
234.15741 222
234.1716 182
234.18457 108
235.08696 71
235.17137 1875
236.16243 94
236.1743 105
236.19083 281
237.15547 137
237.19073 469
239.17621 198
241.19112 837
241.20383 782
242.19814 79
242.21326 142
243.16928 812
243.18018 858
243.21259 2499
244.17566 243
245.17894 135
245.20921 213
245.22473 76
245.23363 136
247.17215 3567
248.17354 462
248.19115 528
249.1949 63
249.21906 98
250.11696 73
250.20659 130
251.18054 244
251.19704 235
253.16496 159
253.19647 123
253.22221 72
255.18024 73
255.19656 175
257.18027 125
257.19138 95
257.20602 91
257.22122 282
257.23572 362
258.23648 172
261.18494 2228
262.18915 899
262.20081 903
263.1962 130
263.20673 92
264.207 106
265.19275 399
265.21167 219
267.2023 135
267.21698 224
269.1842 94
269.21201 195
275.20193 1929
276.21121 536
277.22446 197
279.22217 271
283.22174 282
283.23969 113
283.40561 81
284.2597 76
287.20129 552
289.18842 106
289.25436 71
295.24905 395
296.24234 134
296.29593 177
297.22 171
297.25842 444
297.28458 717
297.31827 201
298.26099 104
298.30994 101
301.1344 79
301.2135 1620
301.23608 1704
302.21759 510
309.21149 117
311.22961 207
311.27103 204
311.28738 523
311.30029 299
312.28735 158
315.22012 146
316.24078 89
321.26004 3068
322.26279 688
323.27203 184
324.27124 75
340.27267 118
341.27606 340
342.27539 88
342.28671 225
350.54239 65
350.62875 138
350.66025 207
350.68506 162
350.74463 156
350.76056 110
355.94623 86
357.10406 154
357.13409 119
357.16486 138
357.18234 157
357.22614 233
357.24701 131
357.28015 4034
357.32242 162
357.34024 357
357.48996 438
357.85403 65
358.08545 72
358.19153 76
358.2168 233
358.23297 238
358.28308 2021
358.32001 251
358.37839 285
358.48724 371
358.50943 178
358.54086 175
358.56049 181
358.85831 69
358.99799 73
359.21542 107
359.2395 157
359.51114 70
359.56421 84
359.77908 282
359.80377 271
360.03888 68
360.29294 378
360.3519 64
360.97131 76
361.27838 118
361.30573 69
363.26312 73
375.23361 90
375.29047 308
375.33646 181
375.35254 194
376.29486 973
377.29584 462
380.24625 72
394.28253 84
395.21326 79
395.22925 142
395.31827 492
399.28595 85
399.30469 99
401.30081 82
410.3309 3279
Name: Deoxycholic acid
PrecursorMZ: 415.2841
PrecursorType: [M+Na]+
IonMode: Positive
Formula: C24H40O4
SMILES: CC(CCC(=O)O)C1CCC2C1(C(CC3C2CCC4C3(CCC(C4)O)C)O)C
InChI: 
InChIKey: KXGVEGMKQFWNSR-LLQZFEROSA-N
RetentionTime: 7.742033
CCS: 
CollisionEnergy: 20-40 eV
InstrumentType: UPLC-QTOF-MS
Comment: PI: Cristina Nerin; Data collector: QiZhi Su, GUIA, University of Zaragoza, Spain; Collision energy: 20-40 V; Instrument: Waters HPLC-QTOF-MS (Xevo G2 QTof); Ionization: ESI; Deconvoluted by MS-DIAL; Column: Waters AtlantisTM premier BEH C18 AX column (2.1 × 100mm x 1.7μm); Flow rate: 0.3mL/min; Mobile phase A and B are water and methnaol, respectively, both with 0.1% formic acid; Gradient elution: from A/B (95/5) to A/B (100/0) in 7min, kept for 4 min, then back to A/B (95/5) in 0.1 min, and maintained for additional 1.9 min (13min in total).; Injection volume: 10 μL
Num peaks: 47
81.07095 2824
95.08681 3461
105.07126 1579
107.06989 3469
107.08761 3409
109.10226 2105
119.08652 3536
121.10252 2718
131.0843 1098
133.08763 3837
133.10217 4036
135.11806 4211
145.10265 1420
147.11832 2335
149.13339 1759
159.11826 1861
161.13351 3081
167.10931 1351
173.13275 1281
173.14185 1361
175.15021 2545
177.11624 1112
181.12292 1783
181.13249 1669
187.1503 1798
189.16541 1159
195.13951 1558
201.1653 1345
203.18094 1242
207.14049 1385
215.18222 3850
221.15561 2311
221.17081 2342
243.21259 1298
247.17215 2250
263.1962 1008
275.20193 1027
321.26004 2775
339.26953 11296
340.27267 1066
340.28793 1372
357.28015 98077
358.28308 16862
359.28632 3034
375.29047 983
393.30179 1126
415.2829 52879
Name: Deoxycholic acid
PrecursorMZ: 807.5753
PrecursorType: [2M+Na]+
IonMode: Positive
Formula: C24H40O4
SMILES: CC(CCC(=O)O)C1CCC2C1(C(CC3C2CCC4C3(CCC(C4)O)C)O)C
InChI: 
InChIKey: KXGVEGMKQFWNSR-LLQZFEROSA-N
RetentionTime: 7.745833
CCS: 
CollisionEnergy: 20-40 eV
InstrumentType: UPLC-QTOF-MS
Comment: PI: Cristina Nerin; Data collector: QiZhi Su, GUIA, University of Zaragoza, Spain; Collision energy: 20-40 V; Instrument: Waters HPLC-QTOF-MS (Xevo G2 QTof); Ionization: ESI; Deconvoluted by MS-DIAL; Column: Waters AtlantisTM premier BEH C18 AX column (2.1 × 100mm x 1.7μm); Flow rate: 0.3mL/min; Mobile phase A and B are water and methnaol, respectively, both with 0.1% formic acid; Gradient elution: from A/B (95/5) to A/B (100/0) in 7min, kept for 4 min, then back to A/B (95/5) in 0.1 min, and maintained for additional 1.9 min (13min in total).; Injection volume: 10 μL
Num peaks: 131
60.08117 239
60.08562 239
67.05582 299
67.06613 292
69.07201 257
79.05625 358
81.07117 1740
83.08606 496
83.09357 495
91.05344 526
91.06082 529
93.07114 1642
93.08771 1472
95.06744 2103
95.08633 1928
96.08984 331
99.04465 410
105.05208 1274
105.07146 1435
107.06958 2390
107.08649 2390
109.08395 2121
109.10235 1886
119.0715 1317
119.08653 1261
120.09696 395
121.10278 2319
123.11333 500
123.11966 477
127.07636 299
127.08905 284
131.07234 414
131.08693 480
133.08676 729
133.10191 1233
135.11804 2526
136.10295 502
145.10164 1153
145.1122 1119
147.11842 2426
147.12526 2429
147.13785 1663
149.09604 559
149.11679 2335
149.13388 2149
149.15578 252
150.12904 300
150.14046 286
153.0928 282
157.08099 298
159.1185 940
161.13358 1864
162.13326 510
162.13986 509
163.10809 381
163.11484 336
163.14943 1179
169.09308 355
169.13225 257
173.13554 542
175.14961 1332
177.12286 564
177.13222 249
177.1655 620
181.12447 441
181.14165 421
183.11726 352
183.12459 511
183.14102 375
185.13483 338
187.14632 755
187.15674 748
189.16609 626
195.14024 512
196.14322 255
196.16177 263
197.13446 255
197.14833 258
201.16579 1200
202.16557 243
202.17432 238
202.18858 253
203.14322 401
203.18103 872
209.15413 339
211.15083 421
215.18098 2419
216.17896 247
216.18828 254
221.15529 754
222.15965 381
223.1731 271
225.16612 304
227.18091 315
229.15938 329
229.19696 513
235.16919 745
237.21004 256
241.19762 291
243.16949 329
243.18076 317
243.21275 1023
247.17171 1409
248.19333 444
261.18652 677
262.18683 388
262.20435 433
275.20218 667
301.21765 647
302.22006 270
302.23193 283
321.2594 1520
359.79178 270
395.29147 261
395.31052 252
410.32535 1530
411.19925 302
411.32071 437
411.33551 409
415.2821 23389
416.28735 6355
417.28928 716
431.25452 1508
432.24606 369
608.92694 324
785.87152 331
786.5954 1680
787.59833 324
788.6076 332
789.5813 445
807.57355 15055
Name: Deoxycholic acid
PrecursorMZ: 785.5928
PrecursorType: [2M+H]+
IonMode: Positive
Formula: C24H40O4
SMILES: CC(CCC(=O)O)C1CCC2C1(C(CC3C2CCC4C3(CCC(C4)O)C)O)C
InChI: 
InChIKey: KXGVEGMKQFWNSR-LLQZFEROSA-N
RetentionTime: 7.772483
CCS: 
CollisionEnergy: 20-40 eV
InstrumentType: UPLC-QTOF-MS
Comment: PI: Cristina Nerin; Data collector: QiZhi Su, GUIA, University of Zaragoza, Spain; Collision energy: 20-40 V; Instrument: Waters HPLC-QTOF-MS (Xevo G2 QTof); Ionization: ESI; Deconvoluted by MS-DIAL; Column: Waters AtlantisTM premier BEH C18 AX column (2.1 × 100mm x 1.7μm); Flow rate: 0.3mL/min; Mobile phase A and B are water and methnaol, respectively, both with 0.1% formic acid; Gradient elution: from A/B (95/5) to A/B (100/0) in 7min, kept for 4 min, then back to A/B (95/5) in 0.1 min, and maintained for additional 1.9 min (13min in total).; Injection volume: 10 μL
Num peaks: 13
73.06415 3958
107.06704 3683
189.16483 8334
229.19667 8721
261.18707 5848
281.06982 3801
375.28915 58690
376.29333 11941
394.30344 3598
749.57159 3729
767.58044 29140
768.58246 11664
785.59082 358952
Name: Deoxycholic acid
PrecursorMZ: 802.6198
PrecursorType: [2M+NH4]+
IonMode: Positive
Formula: C24H40O4
SMILES: CC(CCC(=O)O)C1CCC2C1(C(CC3C2CCC4C3(CCC(C4)O)C)O)C
InChI: 
InChIKey: KXGVEGMKQFWNSR-LLQZFEROSA-N
RetentionTime: 7.81055
CCS: 
CollisionEnergy: 20-40 eV
InstrumentType: UPLC-QTOF-MS
Comment: PI: Cristina Nerin; Data collector: QiZhi Su, GUIA, University of Zaragoza, Spain; Collision energy: 20-40 V; Instrument: Waters HPLC-QTOF-MS (Xevo G2 QTof); Ionization: ESI; Deconvoluted by MS-DIAL; Column: Waters AtlantisTM premier BEH C18 AX column (2.1 × 100mm x 1.7μm); Flow rate: 0.3mL/min; Mobile phase A and B are water and methnaol, respectively, both with 0.1% formic acid; Gradient elution: from A/B (95/5) to A/B (100/0) in 7min, kept for 4 min, then back to A/B (95/5) in 0.1 min, and maintained for additional 1.9 min (13min in total).; Injection volume: 10 μL
Num peaks: 58
81.07073 1192
89.04575 685
89.06213 820
91.05625 528
93.05621 720
93.07151 646
95.08689 1048
105.07144 1028
107.08675 575
109.08704 1485
109.10185 1482
119.08729 614
121.08461 915
121.10237 975
133.08347 1936
133.10249 1548
139.00209 420
139.01482 423
145.10201 658
147.11328 1657
147.11964 1661
149.13359 1052
157.11598 328
159.11586 567
159.12457 611
159.13814 395
161.13394 456
163.14632 539
163.1534 545
165.08972 340
177.09381 583
177.1113 400
177.12445 640
185.12956 349
185.13777 336
211.14804 485
211.16084 547
247.16975 359
291.23013 478
379.24438 339
410.32779 2029
411.20682 415
411.32263 536
411.33994 546
415.28152 32518
416.28552 8553
417.28683 1134
431.25626 2684
432.25583 646
595.38159 529
608.40601 379
639.4043 640
683.43793 976
727.45905 562
771.46942 690
771.5047 367
802.604 527
802.63464 370
Name: Deoxycholic acid
PrecursorMZ: 807.5737
PrecursorType: [2M+Na]+
IonMode: Positive
Formula: C24H40O4
SMILES: CC(CCC(=O)O)C1CCC2C1(C(CC3C2CCC4C3(CCC(C4)O)C)O)C
InChI: 
InChIKey: KXGVEGMKQFWNSR-LLQZFEROSA-N
RetentionTime: 7.81055
CCS: 
CollisionEnergy: 20-40 eV
InstrumentType: UPLC-QTOF-MS
Comment: PI: Cristina Nerin; Data collector: QiZhi Su, GUIA, University of Zaragoza, Spain; Collision energy: 20-40 V; Instrument: Waters HPLC-QTOF-MS (Xevo G2 QTof); Ionization: ESI; Deconvoluted by MS-DIAL; Column: Waters AtlantisTM premier BEH C18 AX column (2.1 × 100mm x 1.7μm); Flow rate: 0.3mL/min; Mobile phase A and B are water and methnaol, respectively, both with 0.1% formic acid; Gradient elution: from A/B (95/5) to A/B (100/0) in 7min, kept for 4 min, then back to A/B (95/5) in 0.1 min, and maintained for additional 1.9 min (13min in total).; Injection volume: 10 μL
Num peaks: 58
81.07073 1221
89.04575 700
89.06213 834
91.05625 534
93.05621 754
93.07151 682
95.08689 1088
105.07144 1070
107.08675 619
109.08704 1533
109.10185 1525
119.08729 617
121.08461 950
121.10237 1017
133.08347 2043
133.10249 1640
139.00209 420
139.01482 423
145.10201 677
147.11328 1729
147.11964 1733
149.13359 1096
157.11598 342
159.11586 585
159.12457 632
159.13814 426
161.13394 496
163.14632 575
163.1534 580
165.08972 346
177.09381 609
177.1113 430
177.12445 671
185.12956 362
185.13777 349
211.14804 499
211.16084 558
247.16975 387
291.23013 490
379.24438 336
410.32779 2070
411.20682 415
411.32263 552
411.33994 561
414.29004 333
415.28152 33066
416.28552 8651
417.28683 1144
431.25626 2716
432.25583 654
595.38159 537
608.40601 385
639.4043 654
683.43793 984
727.45905 576
771.46942 707
771.5047 382
807.57349 18709
Name: Deoxycholic acid
PrecursorMZ: 410.326
PrecursorType: [M+NH4]+
IonMode: Positive
Formula: C24H40O4
SMILES: CC(CCC(=O)O)C1CCC2C1(C(CC3C2CCC4C3(CCC(C4)O)C)O)C
InChI: 
InChIKey: KXGVEGMKQFWNSR-LLQZFEROSA-N
RetentionTime: 7.818167
CCS: 
CollisionEnergy: 20-40 eV
InstrumentType: UPLC-QTOF-MS
Comment: PI: Cristina Nerin; Data collector: QiZhi Su, GUIA, University of Zaragoza, Spain; Collision energy: 20-40 V; Instrument: Waters HPLC-QTOF-MS (Xevo G2 QTof); Ionization: ESI; Deconvoluted by MS-DIAL; Column: Waters AtlantisTM premier BEH C18 AX column (2.1 × 100mm x 1.7μm); Flow rate: 0.3mL/min; Mobile phase A and B are water and methnaol, respectively, both with 0.1% formic acid; Gradient elution: from A/B (95/5) to A/B (100/0) in 7min, kept for 4 min, then back to A/B (95/5) in 0.1 min, and maintained for additional 1.9 min (13min in total).; Injection volume: 10 μL
Num peaks: 43
67.05409 1754
81.07099 6316
89.06048 2757
93.07096 4455
95.08557 6025
105.07106 3784
107.08729 4811
109.10202 5740
117.05618 1988
119.08703 3446
121.10248 5051
133.08701 1691
133.10222 4807
135.1174 5557
145.10144 1707
147.11816 5190
149.13367 4775
159.11838 2505
161.13351 5890
163.15013 2078
175.15028 3891
181.12553 1891
187.15134 2033
189.16498 2413
195.14005 3123
201.16805 2772
215.18056 6113
221.15529 3641
229.19614 3349
234.1028 1917
243.21205 3362
247.17216 3635
261.186 1894
275.2034 2861
321.25815 5083
339.26877 16795
340.26904 3026
357.27921 160460
358.2818 42748
359.2847 5348
375.29013 17421
376.29221 4071
410.32993 2256
Name: Deoxycholic acid
PrecursorMZ: 415.2822
PrecursorType: [M+Na]+
IonMode: Positive
Formula: C24H40O4
SMILES: CC(CCC(=O)O)C1CCC2C1(C(CC3C2CCC4C3(CCC(C4)O)C)O)C
InChI: 
InChIKey: KXGVEGMKQFWNSR-LLQZFEROSA-N
RetentionTime: 7.818167
CCS: 
CollisionEnergy: 20-40 eV
InstrumentType: UPLC-QTOF-MS
Comment: PI: Cristina Nerin; Data collector: QiZhi Su, GUIA, University of Zaragoza, Spain; Collision energy: 20-40 V; Instrument: Waters HPLC-QTOF-MS (Xevo G2 QTof); Ionization: ESI; Deconvoluted by MS-DIAL; Column: Waters AtlantisTM premier BEH C18 AX column (2.1 × 100mm x 1.7μm); Flow rate: 0.3mL/min; Mobile phase A and B are water and methnaol, respectively, both with 0.1% formic acid; Gradient elution: from A/B (95/5) to A/B (100/0) in 7min, kept for 4 min, then back to A/B (95/5) in 0.1 min, and maintained for additional 1.9 min (13min in total).; Injection volume: 10 μL
Num peaks: 6
89.06048 1284
133.08029 847
177.12717 808
291.21487 549
410.32993 979
415.28201 53856
Name: "N,N'-Methylenebisacrylamide"
PrecursorMZ: 155.0829
PrecursorType: [M+H]+
IonMode: Positive
Formula: C7H10N2O2
SMILES: C=CC(=O)NCNC(=O)C=C
InChI: 
InChIKey: ZIUHHBKFKCYYJD-UHFFFAOYSA-N
RetentionTime: 1.0156
CCS: 
CollisionEnergy: 20-40 eV
InstrumentType: UPLC-QTOF-MS
Comment: PI: Cristina Nerin; Data collector: QiZhi Su, GUIA, University of Zaragoza, Spain; Collision energy: 20-40 V; Instrument: Waters HPLC-QTOF-MS (Xevo G2 QTof); Ionization: ESI; Deconvoluted by MS-DIAL; Column: Waters AtlantisTM premier BEH C18 AX column (2.1 × 100mm x 1.7μm); Flow rate: 0.3mL/min; Mobile phase A and B are water and methnaol, respectively, both with 0.1% formic acid; Gradient elution: from A/B (95/5) to A/B (100/0) in 7min, kept for 4 min, then back to A/B (95/5) in 0.1 min, and maintained for additional 1.9 min (13min in total).; Injection volume: 10 μL
Num peaks: 96
55.02039 531
66.97897 72
66.98622 73
66.99046 73
72.04539 969
73.02653 59
73.03571 121
73.05069 108
78.0412 61
78.04588 56
78.05157 56
78.06033 69
79.05432 51
81.95058 269
81.9637 271
82.94596 139
82.95708 130
82.96382 130
84.03437 868
84.04477 877
84.9566 89
84.96282 84
85.04185 72
85.04861 81
90.05284 63
94.01842 104
96.99994 76
97.01899 136
97.03025 127
98.01581 176
98.02184 175
98.97375 83
98.98134 69
98.99303 88
99.98415 61
106.01978 293
106.02963 296
107.02873 59
108.95764 229
108.96378 224
109.06044 51
109.06799 52
109.97333 4846
109.99227 4821
110.99738 227
112.97903 123
112.9908 113
112.99826 112
113.97098 63
113.98753 101
114.01142 181
114.0196 145
115.03001 182
121.97278 63
121.98794 97
124.03166 90
124.04249 95
124.95955 96
124.9748 107
125.95966 506
125.96746 523
126.95 92
126.97173 242
126.99397 77
127.95522 95
127.96097 165
127.99503 274
128.0052 175
130.07106 50
132.53702 390
133.98483 56
138.53339 137
138.54138 137
139.96758 110
139.97847 104
140.01402 50
141.52521 187
141.54413 229
141.99652 215
142.01024 266
142.0188 269
142.96246 61
142.97398 79
143.95874 121
143.97171 140
143.98285 131
152.98212 73
152.98952 93
153.97679 103
153.99008 150
153.99985 135
154.99034 81
155.00513 75
155.08051 126
155.08765 56
155.55275 60
Name: glycoursodeoxycholic acid
PrecursorMZ: 450.3219
PrecursorType: [M+H]+
IonMode: Positive
Formula: C26H43NO5
SMILES: CC(CCC(=O)NCC(=O)O)C1CCC2C1(CCC3C2C(CC4C3(CCC(C4)O)C)O)C
InChI: 
InChIKey: GHCZAUBVMUEKKP-XROMFQGDSA-N
RetentionTime: 8.0123
CCS: 
CollisionEnergy: 20-40 eV
InstrumentType: UPLC-QTOF-MS
Comment: PI: Cristina Nerin; Data collector: QiZhi Su, GUIA, University of Zaragoza, Spain; Collision energy: 20-40 V; Instrument: Waters HPLC-QTOF-MS (Xevo G2 QTof); Ionization: ESI; Deconvoluted by MS-DIAL; Column: Waters AtlantisTM premier BEH C18 AX column (2.1 × 100mm x 1.7μm); Flow rate: 0.3mL/min; Mobile phase A and B are water and methnaol, respectively, both with 0.1% formic acid; Gradient elution: from A/B (95/5) to A/B (100/0) in 7min, kept for 4 min, then back to A/B (95/5) in 0.1 min, and maintained for additional 1.9 min (13min in total).; Injection volume: 10 μL
Num peaks: 113
57.07152 561
71.08579 637
73.02705 619
73.03217 752
73.04778 546
73.06239 414
76.04071 3778
81.07084 1412
85.08652 1385
85.10199 770
85.10886 758
89.04222 2367
89.06017 2333
93.07029 760
93.07777 755
95.08691 642
105.07035 455
105.07635 490
109.10169 1049
119.08069 1030
119.08679 1038
123.11748 572
124.98882 373
125.00105 391
131.08589 551
133.08775 1468
133.10168 1493
145.10016 991
145.10814 887
147.06337 368
147.07242 380
147.117 1917
149.13324 1133
151.12268 491
155.07993 464
156.07489 359
158.08304 2019
159.11812 1123
161.13315 1190
163.10477 1212
163.11681 1307
163.14903 463
173.12782 606
173.13879 356
175.11423 361
175.14818 1843
177.11084 454
177.13223 948
185.13321 472
187.16972 391
189.11481 658
189.1291 643
189.16527 1151
199.14882 985
199.16161 971
201.16492 3143
203.12732 509
203.13852 359
203.18129 569
211.14314 994
211.15239 1102
212.13722 430
213.14462 657
213.16124 915
213.17155 866
215.17172 1713
215.18086 1653
224.12036 420
224.13274 416
225.16389 663
225.17322 652
229.15898 559
229.19449 405
237.06343 516
237.07758 475
237.08578 439
237.10211 468
238.14453 751
238.1581 987
239.17029 1008
239.18164 429
241.21349 431
243.17253 569
243.18114 567
252.15486 594
252.16817 814
254.20306 563
255.21808 653
257.17975 834
257.19196 611
264.16617 478
265.18555 434
297.26511 347
298.24884 385
321.26038 2873
322.26553 896
339.26974 5608
340.27286 876
341.00192 562
341.02097 586
385.28995 3604
386.29016 714
396.29633 459
414.29971 34676
415.30173 7945
416.30225 1515
429.31589 1381
430.323 361
432.31119 16042
433.31195 4148
434.30124 760
434.31903 766
450.32129 9642
Name: glycoursodeoxycholic acid
PrecursorMZ: 467.3455
PrecursorType: [M+NH4]+
IonMode: Positive
Formula: C26H43NO5
SMILES: CC(CCC(=O)NCC(=O)O)C1CCC2C1(CCC3C2C(CC4C3(CCC(C4)O)C)O)C
InChI: 
InChIKey: GHCZAUBVMUEKKP-XROMFQGDSA-N
RetentionTime: 8.0123
CCS: 
CollisionEnergy: 20-40 eV
InstrumentType: UPLC-QTOF-MS
Comment: PI: Cristina Nerin; Data collector: QiZhi Su, GUIA, University of Zaragoza, Spain; Collision energy: 20-40 V; Instrument: Waters HPLC-QTOF-MS (Xevo G2 QTof); Ionization: ESI; Deconvoluted by MS-DIAL; Column: Waters AtlantisTM premier BEH C18 AX column (2.1 × 100mm x 1.7μm); Flow rate: 0.3mL/min; Mobile phase A and B are water and methnaol, respectively, both with 0.1% formic acid; Gradient elution: from A/B (95/5) to A/B (100/0) in 7min, kept for 4 min, then back to A/B (95/5) in 0.1 min, and maintained for additional 1.9 min (13min in total).; Injection volume: 10 μL
Num peaks: 117
57.07152 561
71.08579 637
73.02705 619
73.03217 752
73.04778 546
73.06239 414
76.04071 3778
81.07084 1412
85.08652 1385
85.10199 770
85.10886 758
89.04222 2367
89.06017 2333
93.07029 760
93.07777 755
95.08691 642
105.07035 455
105.07635 490
109.10169 1049
119.08069 1030
119.08679 1038
123.11748 572
124.98882 373
125.00105 391
131.08589 551
133.08775 1468
133.10168 1493
145.10016 991
145.10814 887
147.06337 368
147.07242 380
147.117 1917
149.13324 1133
151.12268 491
155.07993 464
156.07489 359
158.08304 2019
159.11812 1123
161.13315 1190
163.10477 1212
163.11681 1307
163.14903 463
173.12782 606
173.13879 356
175.11423 361
175.14818 1843
177.11084 454
177.13223 948
185.13321 472
187.16972 391
189.11481 658
189.1291 643
189.16527 1151
199.14882 985
199.16161 971
201.16492 3143
203.12732 509
203.13852 359
203.18129 569
211.14314 994
211.15239 1102
212.13722 430
213.14462 657
213.16124 915
213.17155 866
215.17172 1713
215.18086 1653
224.12036 420
224.13274 416
225.16389 663
225.17322 652
229.15898 559
229.19449 405
237.06343 516
237.07758 475
237.08578 439
237.10211 468
238.14453 751
238.1581 987
239.17029 1008
239.18164 429
241.21349 431
243.17253 569
243.18114 567
252.15486 594
252.16817 814
254.20306 563
255.21808 653
257.17975 834
257.19196 611
264.16617 478
265.18555 434
297.26511 347
298.24884 385
321.26038 2873
322.26553 896
339.26974 5608
340.27286 876
341.00192 562
341.02097 586
385.28995 3604
386.29016 714
396.29633 459
414.29971 34676
415.30173 7945
416.30225 1515
429.31589 1381
430.323 361
432.31119 16042
433.31195 4148
434.30124 760
434.31903 766
450.32129 9373
451.31604 2608
451.33145 2610
454.28668 516
454.30225 467
Name: glycoursodeoxycholic acid
PrecursorMZ: 899.6346
PrecursorType: [2M+H]+
IonMode: Positive
Formula: C26H43NO5
SMILES: CC(CCC(=O)NCC(=O)O)C1CCC2C1(CCC3C2C(CC4C3(CCC(C4)O)C)O)C
InChI: 
InChIKey: GHCZAUBVMUEKKP-XROMFQGDSA-N
RetentionTime: 8.0123
CCS: 
CollisionEnergy: 20-40 eV
InstrumentType: UPLC-QTOF-MS
Comment: PI: Cristina Nerin; Data collector: QiZhi Su, GUIA, University of Zaragoza, Spain; Collision energy: 20-40 V; Instrument: Waters HPLC-QTOF-MS (Xevo G2 QTof); Ionization: ESI; Deconvoluted by MS-DIAL; Column: Waters AtlantisTM premier BEH C18 AX column (2.1 × 100mm x 1.7μm); Flow rate: 0.3mL/min; Mobile phase A and B are water and methnaol, respectively, both with 0.1% formic acid; Gradient elution: from A/B (95/5) to A/B (100/0) in 7min, kept for 4 min, then back to A/B (95/5) in 0.1 min, and maintained for additional 1.9 min (13min in total).; Injection volume: 10 μL
Num peaks: 109
73.03217 752
73.04778 546
73.06239 414
76.04071 3421
83.08647 355
93.07029 760
93.07777 755
95.08691 1006
105.07035 780
105.07635 782
109.10169 1049
121.10181 370
123.11748 639
124.98882 373
125.00105 391
131.08589 551
145.10016 951
145.10814 856
147.06337 368
147.07242 380
147.117 843
149.13324 1261
151.12268 502
155.07993 464
156.07489 359
158.08304 1766
159.11812 1319
161.13315 1364
163.10477 1248
163.11681 1307
163.14903 415
173.12782 437
175.1012 607
175.11423 719
175.14818 1462
177.13223 979
185.13321 589
187.1506 517
187.16972 544
189.11481 658
189.1291 643
189.16527 1198
199.14882 985
199.16161 971
201.16492 3564
203.12732 509
203.13852 508
203.14746 494
203.18129 569
211.14314 867
211.15239 962
212.13722 627
213.14462 792
213.16124 899
213.17155 718
215.17172 2032
215.18086 2017
224.12036 420
224.13274 416
229.15898 412
229.19449 704
237.06343 516
237.07758 475
237.08578 439
237.10211 521
238.14453 620
238.1581 773
239.17029 779
239.18164 399
241.20067 426
241.21349 431
243.17253 572
243.18114 569
252.15486 570
252.16817 853
254.20306 553
255.21808 363
257.17975 854
257.19196 826
264.16617 483
265.18555 434
321.26038 2601
322.26553 982
324.31598 474
324.33539 697
339.26974 4786
340.27286 1472
341.00192 562
341.02097 586
371.30899 355
396.29633 511
414.29971 34676
415.30173 8618
416.30225 1515
432.31119 16046
433.31195 3656
434.30124 760
434.31903 766
450.32129 9373
451.31604 2401
451.33145 2556
454.28668 521
454.30225 471
472.30353 9435
473.30624 2973
488.2662 989
488.28403 1410
657.38391 355
899.6322 9115
Name: glycoursodeoxycholic acid
PrecursorMZ: 488.274
PrecursorType: [M+K]+
IonMode: Positive
Formula: C26H43NO5
SMILES: CC(CCC(=O)NCC(=O)O)C1CCC2C1(CCC3C2C(CC4C3(CCC(C4)O)C)O)C
InChI: 
InChIKey: GHCZAUBVMUEKKP-XROMFQGDSA-N
RetentionTime: 8.0161
CCS: 
CollisionEnergy: 20-40 eV
InstrumentType: UPLC-QTOF-MS
Comment: PI: Cristina Nerin; Data collector: QiZhi Su, GUIA, University of Zaragoza, Spain; Collision energy: 20-40 V; Instrument: Waters HPLC-QTOF-MS (Xevo G2 QTof); Ionization: ESI; Deconvoluted by MS-DIAL; Column: Waters AtlantisTM premier BEH C18 AX column (2.1 × 100mm x 1.7μm); Flow rate: 0.3mL/min; Mobile phase A and B are water and methnaol, respectively, both with 0.1% formic acid; Gradient elution: from A/B (95/5) to A/B (100/0) in 7min, kept for 4 min, then back to A/B (95/5) in 0.1 min, and maintained for additional 1.9 min (13min in total).; Injection volume: 10 μL
Num peaks: 146
73.05417 419
73.0657 443
76.04076 3789
81.07133 1107
85.05438 1163
85.0665 1151
85.07702 1167
93.05467 573
93.07238 741
95.08697 1203
105.06956 766
105.07822 775
107.07272 1499
107.08563 1506
109.10154 1048
119.07768 931
119.08694 931
119.09798 867
121.10298 1458
121.11489 1474
123.11685 509
131.07545 520
131.08521 524
131.09447 621
135.1156 1279
135.12334 1311
137.09863 377
145.08459 944
145.10104 988
147.11665 1776
147.1347 1951
149.13358 1530
151.10728 384
151.12206 414
156.07045 350
157.09828 418
158.08212 2995
158.1011 1943
159.10429 1434
159.11856 1332
159.13094 1246
161.11723 2161
161.13341 1978
163.11348 1286
163.12154 1307
163.13573 938
163.1505 752
172.10408 369
173.11792 491
173.13258 687
175.11284 588
175.12897 2054
175.1396 2198
175.14998 2169
177.11554 586
177.12804 634
185.13321 977
185.15015 861
187.13185 757
187.14948 837
187.15767 821
189.12758 628
189.16415 1493
189.17703 1498
191.14308 375
191.15773 381
199.12988 727
199.14787 959
201.16405 3725
201.17578 3737
202.15643 527
202.17027 550
202.18289 538
203.14325 506
203.1702 519
203.17906 548
203.18932 566
211.15245 1193
212.12569 482
212.13745 642
213.14131 349
213.16214 1194
215.17995 2579
216.18248 364
224.11534 386
225.1519 601
225.16716 668
225.18243 452
226.14232 404
226.15666 416
227.16818 787
227.18484 676
229.15556 741
229.17529 1083
229.19548 787
229.20679 816
231.17732 438
234.10706 367
234.12506 601
238.14226 1030
238.15695 1045
239.17262 880
239.1868 941
241.19612 422
241.21104 428
243.17877 432
243.20432 554
243.22337 595
252.15805 861
254.18564 349
254.196 607
254.21213 558
255.21765 730
255.23506 575
257.19077 839
264.16022 477
265.19714 410
304.18301 439
304.19516 450
321.25928 4303
322.25125 1014
322.26852 1198
324.31439 537
324.33109 695
332.22125 350
339.2692 6301
340.26511 1715
340.27695 1624
396.29562 469
396.30869 438
414.29971 34769
415.30377 8638
416.30725 1392
432.31073 16048
433.3143 4145
434.31857 766
450.32101 9388
451.31757 2617
451.34033 2092
454.29382 537
472.30246 20703
473.29001 3207
473.31042 5396
474.3056 820
474.32794 852
488.27484 2626
Name: glycoursodeoxycholic acid
PrecursorMZ: 472.3033
PrecursorType: [M+Na]+
IonMode: Positive
Formula: C26H43NO5
SMILES: CC(CCC(=O)NCC(=O)O)C1CCC2C1(CCC3C2C(CC4C3(CCC(C4)O)C)O)C
InChI: 
InChIKey: GHCZAUBVMUEKKP-XROMFQGDSA-N
RetentionTime: 8.019917
CCS: 
CollisionEnergy: 20-40 eV
InstrumentType: UPLC-QTOF-MS
Comment: PI: Cristina Nerin; Data collector: QiZhi Su, GUIA, University of Zaragoza, Spain; Collision energy: 20-40 V; Instrument: Waters HPLC-QTOF-MS (Xevo G2 QTof); Ionization: ESI; Deconvoluted by MS-DIAL; Column: Waters AtlantisTM premier BEH C18 AX column (2.1 × 100mm x 1.7μm); Flow rate: 0.3mL/min; Mobile phase A and B are water and methnaol, respectively, both with 0.1% formic acid; Gradient elution: from A/B (95/5) to A/B (100/0) in 7min, kept for 4 min, then back to A/B (95/5) in 0.1 min, and maintained for additional 1.9 min (13min in total).; Injection volume: 10 μL
Num peaks: 143
57.06989 255
69.06895 334
69.07241 334
76.02588 2471
76.04124 2258
85.06085 981
85.06519 972
93.05842 350
93.07028 360
93.07793 448
97.08325 263
107.07307 1329
107.08562 1304
109.09815 849
109.10411 754
121.10321 303
121.12155 635
125.09597 233
125.10482 251
133.08693 919
133.1019 935
135.06519 354
135.09885 319
135.11368 705
135.12161 747
137.08678 425
137.09764 358
139.09941 251
139.11316 249
145.10252 614
149.01671 238
149.02693 310
149.04324 401
149.08752 359
149.10359 305
151.09171 345
151.10365 369
151.11375 375
156.06761 329
157.10342 325
158.07974 1338
158.08752 1142
159.08463 332
161.13455 619
163.0957 477
163.11362 358
163.14087 730
163.1519 697
169.10115 301
172.09293 313
173.12949 330
173.13901 447
173.15065 302
175.14822 703
175.15887 936
177.11069 642
177.12418 810
177.14107 1271
183.10327 265
183.12157 256
185.12843 348
185.13863 366
187.12596 229
187.14053 511
187.14958 362
189.1655 437
198.11841 256
199.14455 475
199.15596 402
201.1633 517
201.17435 530
202.16614 519
211.14622 678
211.15826 579
213.16553 693
213.17542 1035
215.15945 378
215.18054 1119
217.15643 328
217.16653 351
217.18535 249
225.16299 601
227.1772 628
227.18655 537
228.1786 225
229.16084 284
229.17105 759
229.18823 579
229.19994 449
229.21829 451
231.16452 335
231.1795 263
231.19777 271
238.14113 654
238.15404 670
239.15179 228
239.17067 530
239.18338 417
243.20192 573
243.21672 374
252.18541 321
254.2059 290
255.22842 738
255.244 639
265.19391 443
265.21445 356
266.15875 262
266.17438 347
266.19183 318
279.21133 294
283.26569 226
292.18393 285
292.2023 252
295.24506 239
298.24429 254
298.25772 228
304.18936 261
318.21036 243
321.25186 2482
321.26617 3202
322.26193 457
324.32251 332
332.21045 253
332.22409 385
339.26715 3210
341.02121 598
341.26477 1568
342.27194 368
342.28217 329
385.2919 1026
396.30188 283
397.28473 263
414.29968 1574
415.30304 1492
429.29364 280
429.32001 467
432.31122 2058
433.31619 1151
434.31805 343
451.30942 422
451.32974 335
454.28723 406
472.30362 22160
Name: "N,N'-Methylenebisacrylamide"
PrecursorMZ: 177.0642
PrecursorType: [M+Na]+
IonMode: Positive
Formula: C7H10N2O2
SMILES: C=CC(=O)NCNC(=O)C=C
InChI: 
InChIKey: ZIUHHBKFKCYYJD-UHFFFAOYSA-N
RetentionTime: 1.023217
CCS: 
CollisionEnergy: 20-40 eV
InstrumentType: UPLC-QTOF-MS
Comment: PI: Cristina Nerin; Data collector: QiZhi Su, GUIA, University of Zaragoza, Spain; Collision energy: 20-40 V; Instrument: Waters HPLC-QTOF-MS (Xevo G2 QTof); Ionization: ESI; Deconvoluted by MS-DIAL; Column: Waters AtlantisTM premier BEH C18 AX column (2.1 × 100mm x 1.7μm); Flow rate: 0.3mL/min; Mobile phase A and B are water and methnaol, respectively, both with 0.1% formic acid; Gradient elution: from A/B (95/5) to A/B (100/0) in 7min, kept for 4 min, then back to A/B (95/5) in 0.1 min, and maintained for additional 1.9 min (13min in total).; Injection volume: 10 μL
Num peaks: 107
55.01954 531
55.02559 531
56.97035 50
66.98241 73
72.04646 969
73.02998 97
73.05507 98
78.04845 55
78.05398 53
78.06113 70
81.94878 264
81.9561 271
81.96443 266
82.952 138
82.95798 131
82.96186 132
84.04673 878
84.05219 878
84.95068 84
84.95747 89
84.96335 85
85.04482 68
85.05214 74
90.05172 63
94.01476 104
96.99698 57
97.02045 130
98.01876 175
98.02633 175
98.97478 83
98.98006 70
98.9983 54
99.96974 59
106.02261 296
108.96302 224
108.97695 216
109.99258 4821
110.99306 226
111.00142 215
112.03529 52
112.99357 115
113.97082 63
113.98582 99
113.99291 115
114.00822 188
114.01695 146
115.02576 189
115.03563 184
121.99146 95
122.99895 56
124.03139 90
124.04164 95
124.97853 98
125.96134 509
125.97192 528
125.98992 83
126.96585 243
126.97309 242
126.98137 220
127.95746 124
127.9824 271
128.00085 206
128.00815 155
130.06705 49
132.53108 390
132.53957 390
133.02303 62
133.03259 51
138.5313 137
139.04155 54
139.9675 110
139.98222 115
139.99072 83
140.026 52
141.54582 220
141.9901 174
142.00291 258
142.00768 265
142.01846 269
142.03839 88
142.96513 59
143.97746 135
152.98729 79
152.99681 106
153.00751 69
153.97678 103
153.98906 150
154.99995 84
155.0582 58
155.08221 247
155.09123 228
156.08618 52
156.97946 62
156.99805 73
161.08755 272
165.04884 122
165.05576 118
167.02867 131
167.04224 169
167.04945 171
170.03423 68
170.04782 70
170.961 95
174.05347 136
174.55167 63
174.56322 63
177.06776 199
Name: "N,N-Dimethylaniline"
PrecursorMZ: 122.0971
PrecursorType: [M+H]+
IonMode: Positive
Formula: C8H11N
SMILES: CN(C)C1=CC=CC=C1
InChI: 
InChIKey: JLTDJTHDQAWBAV-UHFFFAOYSA-N
RetentionTime: 1.385383
CCS: 
CollisionEnergy: 20-40 eV
InstrumentType: UPLC-QTOF-MS
Comment: PI: Cristina Nerin; Data collector: QiZhi Su, GUIA, University of Zaragoza, Spain; Collision energy: 20-40 V; Instrument: Waters HPLC-QTOF-MS (Xevo G2 QTof); Ionization: ESI; Deconvoluted by MS-DIAL; Column: Waters AtlantisTM premier BEH C18 AX column (2.1 × 100mm x 1.7μm); Flow rate: 0.3mL/min; Mobile phase A and B are water and methnaol, respectively, both with 0.1% formic acid; Gradient elution: from A/B (95/5) to A/B (100/0) in 7min, kept for 4 min, then back to A/B (95/5) in 0.1 min, and maintained for additional 1.9 min (13min in total).; Injection volume: 10 μL
Num peaks: 12
72.93682 48
77.03865 175
77.04457 173
79.05526 99
97.94765 51
106.06596 2874
107.07401 4129
108.07614 335
113.96535 43
122.09258 339
122.09795 690
122.10828 207
Name: "N,N'-Methylenebisacrylamide"
PrecursorMZ: 155.0834
PrecursorType: [M+H]+
IonMode: Positive
Formula: C7H10N2O2
SMILES: C=CC(=O)NCNC(=O)C=C
InChI: 
InChIKey: ZIUHHBKFKCYYJD-UHFFFAOYSA-N
RetentionTime: 2.36855
CCS: 
CollisionEnergy: 20-40 eV
InstrumentType: UPLC-QTOF-MS
Comment: PI: Cristina Nerin; Data collector: QiZhi Su, GUIA, University of Zaragoza, Spain; Collision energy: 20-40 V; Instrument: Waters HPLC-QTOF-MS (Xevo G2 QTof); Ionization: ESI; Deconvoluted by MS-DIAL; Column: Waters AtlantisTM premier BEH C18 AX column (2.1 × 100mm x 1.7μm); Flow rate: 0.3mL/min; Mobile phase A and B are water and methnaol, respectively, both with 0.1% formic acid; Gradient elution: from A/B (95/5) to A/B (100/0) in 7min, kept for 4 min, then back to A/B (95/5) in 0.1 min, and maintained for additional 1.9 min (13min in total).; Injection volume: 10 μL
Num peaks: 56
55.01937 289
66.9868 58
70.98025 31
70.98715 31
72.04374 216
72.04879 216
78.05223 32
81.95213 202
81.96063 202
82.94389 79
82.95714 73
84.04457 458
84.05266 458
85.04745 48
85.05513 33
94.07085 34
97.01631 54
97.966 73
97.97306 74
98.02262 34
106.02681 77
108.95564 47
108.96481 50
108.97701 56
109.06045 38
109.97234 613
109.99282 3001
110.99249 85
110.9973 92
111.99126 31
115.01019 45
115.0203 34
115.02982 44
115.03618 38
118.08642 40
118.09272 35
121.96989 40
121.98022 94
121.99081 88
124.98381 31
126.96751 87
126.9765 99
127.94805 34
127.96489 105
127.97595 93
128.00034 49
128.99173 33
132.53841 366
138.53783 52
139.98021 31
141.53932 90
142.00401 70
142.02744 37
142.96756 34
155.08133 128
155.09436 97
Name: "N,N'-Methylenebisacrylamide"
PrecursorMZ: 177.0659
PrecursorType: [M+Na]+
IonMode: Positive
Formula: C7H10N2O2
SMILES: C=CC(=O)NCNC(=O)C=C
InChI: 
InChIKey: ZIUHHBKFKCYYJD-UHFFFAOYSA-N
RetentionTime: 2.376167
CCS: 
CollisionEnergy: 20-40 eV
InstrumentType: UPLC-QTOF-MS
Comment: PI: Cristina Nerin; Data collector: QiZhi Su, GUIA, University of Zaragoza, Spain; Collision energy: 20-40 V; Instrument: Waters HPLC-QTOF-MS (Xevo G2 QTof); Ionization: ESI; Deconvoluted by MS-DIAL; Column: Waters AtlantisTM premier BEH C18 AX column (2.1 × 100mm x 1.7μm); Flow rate: 0.3mL/min; Mobile phase A and B are water and methnaol, respectively, both with 0.1% formic acid; Gradient elution: from A/B (95/5) to A/B (100/0) in 7min, kept for 4 min, then back to A/B (95/5) in 0.1 min, and maintained for additional 1.9 min (13min in total).; Injection volume: 10 μL
Num peaks: 79
55.01823 146
55.02219 77
56.94353 57
56.97041 61
67.05505 118
70.01685 88
71.05105 80
72.04682 296
78.05044 98
81.04065 98
81.95998 272
82.07316 130
82.95622 123
83.06533 122
84.04479 255
84.05766 103
84.94472 57
84.9575 189
87.00251 62
93.03065 59
96.03036 75
96.20301 69
97.09568 53
98.78485 83
98.97887 132
99.98074 52
100.92904 85
100.96421 73
100.99194 59
101.93658 54
106.02554 94
109.99326 5171
111.00033 89
111.9848 70
112.99244 69
113.03796 63
113.98637 96
115.0324 215
116.97085 165
117.94278 72
117.95866 59
119.07007 104
120.08086 715
120.0899 243
121.07307 109
121.08104 69
121.99741 72
122.96723 63
124.99435 114
125.9656 186
126.97341 155
127.99217 54
128.00299 177
130.37175 208
130.96939 116
132.53531 369
138.53723 55
139.99329 77
141.54247 320
141.55278 246
142.00597 78
143.97054 54
148.97685 77
149.03078 115
151.09897 54
152.91737 67
155.04514 85
155.06859 56
155.09195 245
161.09349 494
161.10576 69
165.05246 58
167.05301 189
170.02875 69
170.0426 53
170.96716 100
174.05899 143
174.56047 54
177.06168 120
Name: Riboflavin
PrecursorMZ: 377.1468
PrecursorType: [M+H]+
IonMode: Positive
Formula: C17H20N4O6
SMILES: CC1=CC2=C(C=C1C)N(C3=NC(=O)NC(=O)C3=N2)CC(C(C(CO)O)O)O
InChI: 
InChIKey: AUNGANRZJHBGPY-SCRDCRAPSA-N
RetentionTime: 4.133234
CCS: 
CollisionEnergy: 20-40 eV
InstrumentType: UPLC-QTOF-MS
Comment: PI: Cristina Nerin; Data collector: QiZhi Su, GUIA, University of Zaragoza, Spain; Collision energy: 20-40 V; Instrument: Waters HPLC-QTOF-MS (Xevo G2 QTof); Ionization: ESI; Deconvoluted by MS-DIAL; Column: Waters AtlantisTM premier BEH C18 AX column (2.1 × 100mm x 1.7μm); Flow rate: 0.3mL/min; Mobile phase A and B are water and methnaol, respectively, both with 0.1% formic acid; Gradient elution: from A/B (95/5) to A/B (100/0) in 7min, kept for 4 min, then back to A/B (95/5) in 0.1 min, and maintained for additional 1.9 min (13min in total).; Injection volume: 10 μL
Num peaks: 36
57.03416 507
69.03399 2256
69.04047 2251
71.0136 474
71.03975 760
71.04862 751
71.05596 751
73.02914 434
75.04089 800
75.04735 800
81.03532 964
99.04591 2138
117.05247 425
117.06047 418
172.08897 9932
173.07515 1017
173.09021 1097
173.09895 1077
197.09752 416
198.0681 8026
199.06979 957
199.07921 1008
200.08298 3198
201.0864 425
226.05885 845
226.08124 570
243.08966 39833
244.09282 5820
245.0939 521
341.05008 472
341.06369 471
355.0614 438
355.07901 513
359.1308 1535
359.14426 1591
377.14584 27524
Name: Riboflavin
PrecursorMZ: 753.285
PrecursorType: [2M+H]+
IonMode: Positive
Formula: C17H20N4O6
SMILES: CC1=CC2=C(C=C1C)N(C3=NC(=O)NC(=O)C3=N2)CC(C(C(CO)O)O)O
InChI: 
InChIKey: AUNGANRZJHBGPY-SCRDCRAPSA-N
RetentionTime: 4.133234
CCS: 
CollisionEnergy: 20-40 eV
InstrumentType: UPLC-QTOF-MS
Comment: PI: Cristina Nerin; Data collector: QiZhi Su, GUIA, University of Zaragoza, Spain; Collision energy: 20-40 V; Instrument: Waters HPLC-QTOF-MS (Xevo G2 QTof); Ionization: ESI; Deconvoluted by MS-DIAL; Column: Waters AtlantisTM premier BEH C18 AX column (2.1 × 100mm x 1.7μm); Flow rate: 0.3mL/min; Mobile phase A and B are water and methnaol, respectively, both with 0.1% formic acid; Gradient elution: from A/B (95/5) to A/B (100/0) in 7min, kept for 4 min, then back to A/B (95/5) in 0.1 min, and maintained for additional 1.9 min (13min in total).; Injection volume: 10 μL
Num peaks: 41
57.03416 507
69.03399 2251
69.04047 2246
71.0136 475
71.03975 759
71.04862 750
71.05596 750
73.02914 433
75.04089 798
75.04735 798
81.03532 964
99.04591 2139
117.05247 425
117.06047 418
172.08897 9982
173.07515 1017
173.09021 1097
173.09895 1077
197.09752 417
198.0681 8016
199.06979 952
199.07921 1003
200.08298 3212
201.0864 428
226.05885 847
226.08124 576
243.08966 39784
244.09282 5819
245.0939 517
341.05008 475
341.06369 474
355.0614 438
355.07901 516
359.1308 1540
359.14426 1595
377.14584 24125
378.14822 4738
379.14233 679
379.15723 721
399.1264 1849
415.08591 401
Name: 1-Phenyl-3-methyl-5-pyrazolone
PrecursorMZ: 175.0885
PrecursorType: [M+H]+
IonMode: Positive
Formula: C10H10N2O
SMILES: CC1=NN(C(=O)C1)C2=CC=CC=C2
InChI: 
InChIKey: QELUYTUMUWHWMC-UHFFFAOYSA-N
RetentionTime: 4.472133
CCS: 
CollisionEnergy: 20-40 eV
InstrumentType: UPLC-QTOF-MS
Comment: PI: Cristina Nerin; Data collector: QiZhi Su, GUIA, University of Zaragoza, Spain; Collision energy: 20-40 V; Instrument: Waters HPLC-QTOF-MS (Xevo G2 QTof); Ionization: ESI; Deconvoluted by MS-DIAL; Column: Waters AtlantisTM premier BEH C18 AX column (2.1 × 100mm x 1.7μm); Flow rate: 0.3mL/min; Mobile phase A and B are water and methnaol, respectively, both with 0.1% formic acid; Gradient elution: from A/B (95/5) to A/B (100/0) in 7min, kept for 4 min, then back to A/B (95/5) in 0.1 min, and maintained for additional 1.9 min (13min in total).; Injection volume: 10 μL
Num peaks: 30
79.05242 916
79.05688 914
82.03003 498
82.05334 743
84.045 436
84.05291 424
89.03972 293
89.04568 378
91.03657 390
92.05038 2423
93.0348 2348
93.05704 415
93.06264 430
94.04141 361
105.0586 294
105.06937 333
105.07616 287
116.05245 501
117.05772 1069
117.06807 1191
117.07746 451
118.08682 600
130.06577 2426
132.08327 260
134.05943 560
134.07034 869
134.08882 603
135.05661 1916
147.09306 809
175.08765 24107
Name: 1-Phenyl-3-methyl-5-pyrazolone
PrecursorMZ: 175.0885
PrecursorType: [M+H]+
IonMode: Positive
Formula: C10H10N2O
SMILES: CC1=NN(C(=O)C1)C2=CC=CC=C2
InChI: 
InChIKey: QELUYTUMUWHWMC-UHFFFAOYSA-N
RetentionTime: 4.636317
CCS: 
CollisionEnergy: 20-40 eV
InstrumentType: UPLC-QTOF-MS
Comment: PI: Cristina Nerin; Data collector: QiZhi Su, GUIA, University of Zaragoza, Spain; Collision energy: 20-40 V; Instrument: Waters HPLC-QTOF-MS (Xevo G2 QTof); Ionization: ESI; Deconvoluted by MS-DIAL; Column: Waters AtlantisTM premier BEH C18 AX column (2.1 × 100mm x 1.7μm); Flow rate: 0.3mL/min; Mobile phase A and B are water and methnaol, respectively, both with 0.1% formic acid; Gradient elution: from A/B (95/5) to A/B (100/0) in 7min, kept for 4 min, then back to A/B (95/5) in 0.1 min, and maintained for additional 1.9 min (13min in total).; Injection volume: 10 μL
Num peaks: 53
66.03177 518
66.04381 528
77.03986 2579
78.02923 546
78.0405 552
78.04492 552
78.05022 545
79.05547 1732
79.07767 546
82.03001 1587
82.04217 639
82.05333 403
82.06355 1924
84.04588 547
89.04025 442
91.03883 758
91.05598 553
92.05076 5673
93.03535 1737
93.05787 920
103.05483 1363
104.05075 1337
105.03569 921
105.05411 1544
105.06648 397
105.07278 766
106.06644 1312
107.05622 666
107.06293 796
107.07379 583
115.05413 693
116.03672 1156
116.05049 1263
116.0563 1193
116.06536 1247
117.05853 956
118.06591 4800
120.08185 1779
131.05652 1782
131.06694 1937
131.08125 1651
132.09924 441
133.05768 20172
133.07732 1660
135.05618 1221
135.06245 1402
135.07294 1186
136.06355 407
145.06239 474
145.07849 798
148.0771 565
148.095 507
175.08797 37837
Name: 1-Phenyl-3-methyl-5-pyrazolone
PrecursorMZ: 371.1507
PrecursorType: [2M+Na]+
IonMode: Positive
Formula: C10H10N2O
SMILES: CC1=NN(C(=O)C1)C2=CC=CC=C2
InChI: 
InChIKey: QELUYTUMUWHWMC-UHFFFAOYSA-N
RetentionTime: 4.636317
CCS: 
CollisionEnergy: 20-40 eV
InstrumentType: UPLC-QTOF-MS
Comment: PI: Cristina Nerin; Data collector: QiZhi Su, GUIA, University of Zaragoza, Spain; Collision energy: 20-40 V; Instrument: Waters HPLC-QTOF-MS (Xevo G2 QTof); Ionization: ESI; Deconvoluted by MS-DIAL; Column: Waters AtlantisTM premier BEH C18 AX column (2.1 × 100mm x 1.7μm); Flow rate: 0.3mL/min; Mobile phase A and B are water and methnaol, respectively, both with 0.1% formic acid; Gradient elution: from A/B (95/5) to A/B (100/0) in 7min, kept for 4 min, then back to A/B (95/5) in 0.1 min, and maintained for additional 1.9 min (13min in total).; Injection volume: 10 μL
Num peaks: 69
54.03193 294
54.03736 294
66.03177 518
66.04381 528
67.0189 244
67.02427 271
67.02928 279
67.04034 214
77.03986 2686
78.0405 552
78.04492 552
78.05022 545
79.05547 1943
79.07767 546
82.03001 1722
82.04217 863
82.05333 584
82.06355 1924
84.04588 637
89.04025 442
91.03883 882
91.05598 674
92.05076 5946
93.03535 1733
93.05787 920
103.05483 1568
104.05075 1250
105.03569 882
105.05411 1544
105.06648 404
105.07278 766
106.06644 1355
107.05622 565
107.06293 714
107.07379 549
115.05413 693
116.03672 1156
116.05049 1263
116.0563 1193
116.06536 1247
117.05853 1045
118.06591 4800
119.04273 281
120.04384 225
120.08185 1779
131.05652 1782
131.06694 1937
131.08125 1651
132.08786 333
132.09924 441
133.05768 20172
133.07732 2133
135.05618 1388
135.06245 1576
135.07294 1437
136.06355 384
145.05588 224
145.06239 613
145.07849 798
148.0771 565
148.095 507
160.05157 206
160.06294 280
160.07024 283
176.09085 1291
177.09082 299
197.07379 691
231.02701 207
371.15097 221
Name: 1-Phenyl-3-methyl-5-pyrazolone
PrecursorMZ: 349.1689
PrecursorType: [2M+H]+
IonMode: Positive
Formula: C10H10N2O
SMILES: CC1=NN(C(=O)C1)C2=CC=CC=C2
InChI: 
InChIKey: QELUYTUMUWHWMC-UHFFFAOYSA-N
RetentionTime: 4.640133
CCS: 
CollisionEnergy: 20-40 eV
InstrumentType: UPLC-QTOF-MS
Comment: PI: Cristina Nerin; Data collector: QiZhi Su, GUIA, University of Zaragoza, Spain; Collision energy: 20-40 V; Instrument: Waters HPLC-QTOF-MS (Xevo G2 QTof); Ionization: ESI; Deconvoluted by MS-DIAL; Column: Waters AtlantisTM premier BEH C18 AX column (2.1 × 100mm x 1.7μm); Flow rate: 0.3mL/min; Mobile phase A and B are water and methnaol, respectively, both with 0.1% formic acid; Gradient elution: from A/B (95/5) to A/B (100/0) in 7min, kept for 4 min, then back to A/B (95/5) in 0.1 min, and maintained for additional 1.9 min (13min in total).; Injection volume: 10 μL
Num peaks: 87
65.04005 6453
66.03537 484
66.04349 484
77.03963 6310
78.04479 540
79.05546 2728
80.04968 545
80.06008 544
82.03051 3147
82.0535 1286
84.04506 1362
84.05016 1374
89.03883 469
91.03925 1010
91.05259 1093
91.05991 1050
91.07065 1024
92.05109 4293
93.03478 3434
93.06958 1076
94.02661 792
94.03999 800
94.06718 757
94.07825 936
103.0555 1272
104.05174 1896
105.03539 964
106.06618 8320
106.0868 1977
107.03692 700
107.0469 2838
107.05639 2810
107.06661 2671
115.05318 568
115.06153 551
116.04967 704
116.06355 1178
117.05841 2992
117.07366 2981
118.04726 1373
118.06569 4810
119.04698 794
119.06197 1139
119.07357 1048
119.08158 934
120.06326 2082
120.08025 1720
120.08818 1705
128.04971 339
128.0578 324
130.06657 11142
131.05396 1808
131.06786 1942
131.08028 1741
132.04488 719
132.06903 5863
132.08086 5757
133.03934 479
133.05225 444
133.05893 10770
133.07756 15354
134.04405 1955
134.05951 2516
134.06673 3359
134.08092 2632
135.05676 3385
136.05771 312
136.0728 419
145.06935 420
145.07733 882
146.06715 624
146.08434 889
147.07455 1842
147.09363 4385
148.08003 556
148.09612 472
148.11345 419
158.05653 703
158.06483 729
175.08766 28440
176.09227 1825
197.06795 400
197.07921 555
213.03345 367
213.04234 300
259.03729 419
259.04587 388
Name: Maleic anhydride
PrecursorMZ: 99.00915
PrecursorType: [M+H]+
IonMode: Positive
Formula: C4H2O3
SMILES: C1=CC(=O)OC1=O
InChI: 
InChIKey: FPYJFEHAWHCUMM-UHFFFAOYSA-N
RetentionTime: 4.75435
CCS: 
CollisionEnergy: 20-40 eV
InstrumentType: UPLC-QTOF-MS
Comment: PI: Cristina Nerin; Data collector: QiZhi Su, GUIA, University of Zaragoza, Spain; Collision energy: 20-40 V; Instrument: Waters HPLC-QTOF-MS (Xevo G2 QTof); Ionization: ESI; Deconvoluted by MS-DIAL; Column: Waters AtlantisTM premier BEH C18 AX column (2.1 × 100mm x 1.7μm); Flow rate: 0.3mL/min; Mobile phase A and B are water and methnaol, respectively, both with 0.1% formic acid; Gradient elution: from A/B (95/5) to A/B (100/0) in 7min, kept for 4 min, then back to A/B (95/5) in 0.1 min, and maintained for additional 1.9 min (13min in total).; Injection volume: 10 μL
Num peaks: 67
53.00064 64
56.96246 80
56.96942 76
57.03049 37
58.06361 60
58.06833 52
59.00837 110
59.01497 110
64.95173 28
68.99929 11
70.03597 14
70.98148 590
70.98856 682
71.01755 94
72.98034 27
72.99137 33
73.00811 11
73.03109 31
73.03989 34
73.06365 12
74.95726 19
79.05501 54
79.08285 12
82.98592 33
83.05347 11
83.0652 24
83.47965 11
83.94907 94
83.9625 102
83.96796 102
84.94962 97
84.95927 64
84.96446 55
84.97514 143
85.02906 878
85.06865 11
85.94788 22
85.95491 17
85.96843 28
86.02726 20
86.95396 77
86.96813 94
87.03842 12
87.05174 32
88.05008 11
88.96445 28
89.06026 530
90.05743 62
90.06213 39
90.96696 20
92.0264 26
93.00097 29
93.49634 17
95.00488 9
95.04571 13
95.08904 36
95.99783 64
96.99551 271
97.00243 280
97.10629 12
98.97364 100
98.98374 134
98.9922 25
99.00291 206
99.00771 474
99.04106 59
99.04853 41
Name: Pentaerythritol
PrecursorMZ: 137.0822
PrecursorType: [M+H]+
IonMode: Positive
Formula: C5H12O4
SMILES: C(C(CO)(CO)CO)O
InChI: 
InChIKey: WXZMFSXDPGVJKK-UHFFFAOYSA-N
RetentionTime: 0.8557333
CCS: 
CollisionEnergy: 20-40 eV
InstrumentType: UPLC-QTOF-MS
Comment: PI: Cristina Nerin; Data collector: QiZhi Su, GUIA, University of Zaragoza, Spain; Collision energy: 20-40 V; Instrument: Waters HPLC-QTOF-MS (Xevo G2 QTof); Ionization: ESI; Deconvoluted by MS-DIAL; Column: Waters AtlantisTM premier BEH C18 AX column (2.1 × 100mm x 1.7μm); Flow rate: 0.3mL/min; Mobile phase A and B are water and methnaol, respectively, both with 0.1% formic acid; Gradient elution: from A/B (95/5) to A/B (100/0) in 7min, kept for 4 min, then back to A/B (95/5) in 0.1 min, and maintained for additional 1.9 min (13min in total).; Injection volume: 10 μL
Num peaks: 246
51.76397 27
53.03863 30
55.001 20
55.05082 32
55.05541 181
55.06083 119
57.0724 23
59.07458 20
60.08214 62
62.03176 27
69.03605 86
69.75011 30
70.06004 35
70.06795 51
71.04576 430
71.05019 1738
71.06582 21
72.04409 33
72.05083 52
72.05685 76
72.08323 30
72.94261 235
73.00017 70
73.01162 29
73.02686 27
73.04691 24
73.9502 26
78.03796 63
78.04642 27
78.98785 32
79.00057 21
79.01235 138
79.45866 63
81.0312 30
81.07058 89
83.05054 1228
83.05676 463
83.28544 30
83.96889 87
84.04662 36
84.04972 72
84.0568 50
84.08295 29
84.95238 28
84.96001 23
85.04908 27
85.06239 44
85.93794 21
85.94492 34
86.95226 43
86.97477 130
87.04803 23
88.01748 517
88.21881 39
88.97388 49
89.00298 21
89.0248 21
89.06135 116
89.82145 26
89.93832 27
90.07906 27
90.95397 40
91.05296 64
91.0573 81
92.01462 32
93.04991 37
93.05548 30
94.16842 53
94.76028 23
94.9832 215
95.04694 24
95.96665 86
96.05046 24
96.08653 34
96.97138 57
96.9761 63
97.01172 46
97.0229 862
97.03256 172
97.06699 60
97.51229 32
97.98734 33
98.01834 45
98.95118 26
98.96602 24
98.98165 23
99.04323 70
99.05056 19
100.12089 23
100.95414 20
100.96651 20
101.02225 34
101.02994 48
101.03909 22
101.06119 628
102.03797 25
102.06825 59
102.0932 243
102.94922 560
103.01891 147
103.02828 76
103.07172 21
103.09415 44
103.10705 33
103.94998 32
104.02344 68
104.03674 42
104.04361 90
105.50822 23
106.02959 834
106.06695 40
106.52694 59
107.01701 60
107.07645 54
107.96751 49
108.02833 57
108.03332 146
108.04708 34
109.08157 52
109.09878 34
109.99942 47
110.0737 21
110.95115 33
110.97228 21
111.00874 120
111.9659 40
111.98255 23
112.03255 270
112.11164 39
112.53622 36
112.61252 24
112.97182 34
113.01472 79
113.02202 114
113.03357 32
113.04127 64
113.06992 20
113.50685 24
113.97815 25
114.0473 78
114.05585 21
114.06459 20
114.08896 20
114.09915 27
114.16623 53
114.56046 27
114.69874 22
115.03741 60
115.04839 33
115.05995 21
116.01625 34
116.05533 37
117.00285 25
117.53303 81
117.92866 23
117.93781 67
118.04509 21
118.0801 59
118.53039 79
118.98232 22
118.99344 24
118.99819 72
119.02522 49
119.06525 66
119.073 350
119.08177 160
120.01385 38
120.04078 43
120.05174 24
120.07005 28
120.08402 207
121.02278 21
121.04087 80
121.05901 20
121.09479 37
121.51121 43
121.5218 35
121.97142 136
122.95991 21
123.04847 33
123.11683 84
123.12243 76
123.95937 264
123.97628 33
124.05634 27
124.5573 35
124.95129 25
124.96748 430
124.97343 167
124.99101 580
125.06039 29
125.96983 336
125.97574 88
126.05175 20
126.05878 21
126.9678 25
126.97668 97
127.00795 1677
127.03793 27
127.06178 144
127.66945 20
127.99114 23
128.02867 29
128.90076 20
128.9556 25
128.97148 117
128.97974 36
128.99619 24
129.01357 265
129.04733 55
129.07004 28
129.10109 21
129.86896 23
129.96501 20
130.06465 37
130.1115 27
131.02286 304
131.03178 133
131.04976 44
131.08359 34
131.96674 52
132.01932 44
132.03004 27
132.04424 272
132.07564 31
132.54741 91
132.9635 22
132.98247 21
133.01361 68
133.02016 38
133.17644 45
134.05827 25
134.07137 26
134.99652 54
135.03165 31
135.05515 60
135.08788 26
135.30559 44
136.03954 60
136.0777 29
136.14146 20
137.02029 34
137.06288 24
137.07494 45
137.08247 142
137.12332 84
Name: Pentaerythritol
PrecursorMZ: 159.0643
PrecursorType: [M+Na]+
IonMode: Positive
Formula: C5H12O4
SMILES: C(C(CO)(CO)CO)O
InChI: 
InChIKey: WXZMFSXDPGVJKK-UHFFFAOYSA-N
RetentionTime: 0.8557333
CCS: 
CollisionEnergy: 20-40 eV
InstrumentType: UPLC-QTOF-MS
Comment: PI: Cristina Nerin; Data collector: QiZhi Su, GUIA, University of Zaragoza, Spain; Collision energy: 20-40 V; Instrument: Waters HPLC-QTOF-MS (Xevo G2 QTof); Ionization: ESI; Deconvoluted by MS-DIAL; Column: Waters AtlantisTM premier BEH C18 AX column (2.1 × 100mm x 1.7μm); Flow rate: 0.3mL/min; Mobile phase A and B are water and methnaol, respectively, both with 0.1% formic acid; Gradient elution: from A/B (95/5) to A/B (100/0) in 7min, kept for 4 min, then back to A/B (95/5) in 0.1 min, and maintained for additional 1.9 min (13min in total).; Injection volume: 10 μL
Num peaks: 343
51.76397 27
53.03863 30
55.001 20
55.05082 32
55.05541 181
55.06083 119
57.0724 23
59.07458 20
60.08214 62
62.03176 27
69.03605 86
69.75011 30
70.06004 35
70.06795 51
71.04576 430
71.05019 1738
71.06582 21
72.04409 33
72.05083 52
72.05685 76
72.08323 30
72.94261 235
73.00017 70
73.01162 29
73.02686 27
73.04691 24
73.9502 26
78.03796 63
78.04642 27
78.98785 32
79.00057 21
79.01235 138
79.45866 63
81.0312 30
81.07058 89
83.05054 1228
83.05676 463
83.28544 30
83.96889 87
84.04662 36
84.04972 72
84.0568 50
84.08295 29
84.95238 28
84.96001 23
85.04908 27
85.06239 44
85.93794 21
85.94492 34
86.95226 43
86.97477 130
87.04803 23
88.01748 517
88.21881 39
88.97388 49
89.00298 21
89.0248 21
89.06135 116
89.82145 26
89.93832 27
90.07906 27
90.95397 40
91.05296 64
91.0573 81
92.01462 32
93.04991 37
93.05548 30
94.16842 53
94.76028 23
94.9832 215
95.04694 24
95.96665 86
96.05046 24
96.08653 34
96.97138 57
96.9761 63
97.01172 46
97.0229 862
97.03256 172
97.06699 60
97.51229 32
97.98734 33
98.01834 45
98.95118 26
98.96602 24
98.98165 23
99.04323 70
99.05056 19
100.12089 23
100.95414 20
100.96651 20
101.02225 34
101.02994 48
101.03909 22
101.06119 628
102.03797 25
102.06825 59
102.0932 243
102.94922 560
103.01891 147
103.02828 76
103.07172 21
103.09415 44
103.10705 33
103.94998 32
104.02344 68
104.03674 42
104.04361 90
105.50822 23
106.02959 834
106.06695 40
106.52694 59
107.01701 60
107.07645 54
107.96751 49
108.02833 57
108.03332 146
108.04708 34
109.08157 52
109.09878 34
109.99942 47
110.0737 21
110.95115 33
110.97228 21
111.00874 120
111.9659 40
111.98255 23
112.03255 270
112.11164 39
112.53622 36
112.61252 24
112.97182 34
113.01472 79
113.02202 114
113.03357 32
113.04127 64
113.06992 20
113.50685 24
113.97815 25
114.0473 78
114.05585 21
114.06459 20
114.08896 20
114.09915 27
114.16623 53
114.56046 27
114.69874 22
115.03741 60
115.04839 33
115.05995 21
116.01625 34
116.05533 37
117.00285 25
117.53303 81
117.92866 23
117.93781 67
118.04509 21
118.0801 59
118.53039 79
118.98232 22
118.99344 24
118.99819 72
119.02522 49
119.06525 66
119.073 350
119.08177 160
120.01385 38
120.04078 43
120.05174 24
120.07005 28
120.08402 207
121.02278 21
121.04087 80
121.05901 20
121.09479 37
121.51121 43
121.5218 35
121.97142 136
122.95991 21
123.04847 33
123.11683 84
123.12243 76
123.95937 264
123.97628 33
124.05634 27
124.5573 35
124.95129 25
124.96748 430
124.97343 167
124.99101 580
125.06039 29
125.96983 336
125.97574 88
126.05175 20
126.05878 21
126.9678 25
126.97668 97
127.00795 1677
127.03793 27
127.06178 144
127.66945 20
127.99114 23
128.02867 29
128.90076 20
128.9556 25
128.97148 117
128.97974 36
128.99619 24
129.01357 265
129.04733 55
129.07004 28
129.10109 21
129.86896 23
129.96501 20
130.06465 37
130.1115 27
131.02286 304
131.03178 133
131.04976 44
131.08359 34
131.96674 52
132.01932 44
132.03004 27
132.04424 272
132.07564 31
132.54741 91
132.9635 22
132.98247 21
133.01361 68
133.02016 38
133.17644 45
134.05827 25
134.07137 26
134.99652 54
135.03165 31
135.05515 60
135.08788 26
135.30559 44
136.03954 60
136.0777 29
136.14146 20
137.02029 34
137.06288 24
137.07494 45
137.08247 142
137.12332 84
137.97881 35
138.0518 22
139.09711 34
139.54732 40
139.95518 58
139.97639 58
140.03313 149
140.07401 51
140.71068 22
140.96371 181
140.98592 108
140.99695 26
141.01341 37
141.03537 63
141.05321 34
141.95949 50
141.97404 944
142.03033 66
142.09079 46
142.96187 53
142.9819 1155
142.99738 21
143.02953 115
143.07338 78
143.08072 27
143.09129 50
143.98909 45
144.08397 30
144.97623 89
144.98305 109
145.01224 45
145.03667 49
145.04684 42
145.09764 39
145.98116 20
146.02051 22
146.0466 55
146.07484 103
146.09621 24
146.97197 59
147.04562 64
147.05528 122
147.07722 32
147.11684 25
148.05992 62
148.06755 70
148.08421 22
148.55995 24
149.03804 35
149.04712 28
149.06554 21
149.07132 25
149.97522 33
150.05777 77
150.98112 26
150.99617 28
151.04062 47
151.04932 62
151.99495 55
152.00623 50
152.08351 35
153.00151 265
153.01328 86
153.05699 33
153.73207 24
154.03738 39
154.16306 25
154.7748 27
154.98331 23
155.01622 23
155.04721 36
155.06329 26
155.07042 20
155.08838 83
156.05571 599
156.06819 52
156.55028 25
156.56435 76
156.85567 37
156.95329 206
156.96428 200
156.9798 27
157.03307 64
157.07921 20
157.08755 26
157.09402 62
157.96523 20
157.99091 27
158.04532 21
158.05496 215
158.07343 34
158.09306 65
158.98888 24
159.05406 182
159.06496 109
159.09094 29
159.54672 88
Name: Maleic anhydride
PrecursorMZ: 99.009
PrecursorType: [M+H]+
IonMode: Positive
Formula: C4H2O3
SMILES: C1=CC(=O)OC1=O
InChI: 
InChIKey: FPYJFEHAWHCUMM-UHFFFAOYSA-N
RetentionTime: 4.788667
CCS: 
CollisionEnergy: 20-40 eV
InstrumentType: UPLC-QTOF-MS
Comment: PI: Cristina Nerin; Data collector: QiZhi Su, GUIA, University of Zaragoza, Spain; Collision energy: 20-40 V; Instrument: Waters HPLC-QTOF-MS (Xevo G2 QTof); Ionization: ESI; Deconvoluted by MS-DIAL; Column: Waters AtlantisTM premier BEH C18 AX column (2.1 × 100mm x 1.7μm); Flow rate: 0.3mL/min; Mobile phase A and B are water and methnaol, respectively, both with 0.1% formic acid; Gradient elution: from A/B (95/5) to A/B (100/0) in 7min, kept for 4 min, then back to A/B (95/5) in 0.1 min, and maintained for additional 1.9 min (13min in total).; Injection volume: 10 μL
Num peaks: 48
56.96527 75
57.0742 21
59.01379 275
59.02182 275
69.03457 109
70.0395 26
71.01454 344
73.0168 151
73.0285 149
73.03252 150
73.06346 53
73.07117 49
78.96954 24
78.98592 64
81.02682 52
81.0339 45
81.03898 35
82.95413 35
82.96148 40
82.97834 28
83.03562 65
83.04714 56
83.05495 65
85.02908 2091
85.03572 2067
86.03094 92
86.03731 86
86.95377 21
86.95852 29
86.97175 49
86.99455 27
87.00874 21
87.04539 304
88.05007 31
89.06085 1315
90.0491 57
90.07299 59
92.94553 23
92.96346 21
94.94686 24
95.04507 68
95.05452 53
95.99635 25
97.04609 43
99.00159 159
99.00874 926
99.04532 1009
99.05846 152
Name: Lithocholic acid
PrecursorMZ: 753.6022
PrecursorType: [2M+H]+
IonMode: Positive
Formula: C24H40O3
SMILES: CC(CCC(=O)O)C1CCC2C1(CCC3C2CCC4C3(CCC(C4)O)C)C
InChI: 
InChIKey: SMEROWZSTRWXGI-HVATVPOCSA-N
RetentionTime: 8.180367
CCS: 
CollisionEnergy: 20-40 eV
InstrumentType: UPLC-QTOF-MS
Comment: PI: Cristina Nerin; Data collector: QiZhi Su, GUIA, University of Zaragoza, Spain; Collision energy: 20-40 V; Instrument: Waters HPLC-QTOF-MS (Xevo G2 QTof); Ionization: ESI; Deconvoluted by MS-DIAL; Column: Waters AtlantisTM premier BEH C18 AX column (2.1 × 100mm x 1.7μm); Flow rate: 0.3mL/min; Mobile phase A and B are water and methnaol, respectively, both with 0.1% formic acid; Gradient elution: from A/B (95/5) to A/B (100/0) in 7min, kept for 4 min, then back to A/B (95/5) in 0.1 min, and maintained for additional 1.9 min (13min in total).; Injection volume: 10 μL
Num peaks: 39
73.02924 3813
117.08933 5464
135.11855 2603
137.0618 2518
149.13419 3448
163.15016 3364
177.16524 3579
199.09683 9764
217.11411 2437
219.12326 4547
239.13106 4181
245.22781 4285
249.18642 3712
249.20134 3688
263.20102 4087
266.16458 2442
291.26984 11536
324.27734 2941
333.2811 3778
341.2851 33179
342.28836 7917
359.29492 240863
360.29868 52790
361.30099 7381
397.33316 7150
399.28876 11049
400.29041 2857
442.37381 7187
463.25488 8723
529.40887 2794
576.44769 2585
699.57196 6419
700.57654 3011
717.57397 2519
735.5921 16515
736.59509 10034
737.60364 2605
745.41479 3746
753.60181 62960
Name: Lithocholic acid
PrecursorMZ: 775.582
PrecursorType: [2M+Na]+
IonMode: Positive
Formula: C24H40O3
SMILES: CC(CCC(=O)O)C1CCC2C1(CCC3C2CCC4C3(CCC(C4)O)C)C
InChI: 
InChIKey: SMEROWZSTRWXGI-HVATVPOCSA-N
RetentionTime: 8.218433
CCS: 
CollisionEnergy: 20-40 eV
InstrumentType: UPLC-QTOF-MS
Comment: PI: Cristina Nerin; Data collector: QiZhi Su, GUIA, University of Zaragoza, Spain; Collision energy: 20-40 V; Instrument: Waters HPLC-QTOF-MS (Xevo G2 QTof); Ionization: ESI; Deconvoluted by MS-DIAL; Column: Waters AtlantisTM premier BEH C18 AX column (2.1 × 100mm x 1.7μm); Flow rate: 0.3mL/min; Mobile phase A and B are water and methnaol, respectively, both with 0.1% formic acid; Gradient elution: from A/B (95/5) to A/B (100/0) in 7min, kept for 4 min, then back to A/B (95/5) in 0.1 min, and maintained for additional 1.9 min (13min in total).; Injection volume: 10 μL
Num peaks: 141
67.05502 340
81.07125 1272
85.06652 429
85.10043 291
85.10633 291
93.07185 996
93.08381 997
95.08656 2462
97.05759 302
97.06572 306
100.07485 399
100.0833 355
100.08971 362
105.06786 322
105.07552 349
107.07021 1694
107.08575 1753
107.0965 1915
109.08355 2692
109.10222 2459
110.10658 232
111.02457 376
115.05698 439
115.09057 364
117.07138 515
121.10272 2034
123.11748 1267
129.08322 269
129.08815 275
129.09601 240
147.07831 249
147.09807 716
147.1171 793
149.01889 230
149.02637 250
149.095 333
149.10439 367
151.10043 1001
151.11429 1083
159.11659 578
159.12544 821
161.11179 410
161.13402 237
163.09361 265
166.09264 325
167.0878 408
175.129 821
175.14894 609
178.13562 229
178.1689 581
178.17447 563
183.12163 322
189.19055 291
193.12607 232
199.14149 298
213.14668 545
221.13808 576
237.08186 254
243.21274 448
243.22308 442
278.21005 356
282.27194 801
282.28412 749
283.2641 22417
284.26733 4349
285.27051 410
305.18069 261
312.29987 1202
327.28653 401
327.30417 430
355.06674 293
355.08334 261
375.29639 271
399.28766 15764
400.27817 3683
400.29181 3682
401.27774 584
401.29382 670
413.21317 1018
415.2085 580
415.26212 449
415.27881 546
415.33914 570
415.35776 613
525.26904 354
575.48492 370
575.50793 380
576.49219 276
583.37372 456
583.40082 302
587.42865 298
587.94543 246
589.87762 362
611.36304 230
627.38312 463
627.41455 389
628.4267 247
633.39685 331
646.38062 413
646.89313 263
655.43671 1134
656.45068 238
668.40442 599
668.90057 573
673.56531 604
674.54468 228
690.91083 391
691.42096 298
694.51392 266
695.43231 484
696.44183 244
699.46368 3205
700.43652 287
700.46991 1284
701.47516 411
707.45221 231
713.55701 531
714.54163 262
715.41815 267
720.42938 226
721.48615 406
721.5163 225
738.51459 496
738.54291 1014
739.46625 930
739.56683 515
743.48969 6518
744.49146 1510
745.4967 245
753.97607 252
755.50873 234
756.45276 545
756.96417 365
759.44458 438
760.45441 291
765.53241 274
772.49847 563
773.0672 256
773.50354 706
775.58032 1475
775.98517 408
Name: Phenyl isothiocyanate
PrecursorMZ: 136.0218
PrecursorType: [M+H]+
IonMode: Positive
Formula: C7H5NS
SMILES: C1=CC=C(C=C1)N=C=S
InChI: 
InChIKey: QKFJKGMPGYROCL-UHFFFAOYSA-N
RetentionTime: 6.1074
CCS: 
CollisionEnergy: 20-40 eV
InstrumentType: UPLC-QTOF-MS
Comment: PI: Cristina Nerin; Data collector: QiZhi Su, GUIA, University of Zaragoza, Spain; Collision energy: 20-40 V; Instrument: Waters HPLC-QTOF-MS (Xevo G2 QTof); Ionization: ESI; Deconvoluted by MS-DIAL; Column: Waters AtlantisTM premier BEH C18 AX column (2.1 × 100mm x 1.7μm); Flow rate: 0.3mL/min; Mobile phase A and B are water and methnaol, respectively, both with 0.1% formic acid; Gradient elution: from A/B (95/5) to A/B (100/0) in 7min, kept for 4 min, then back to A/B (95/5) in 0.1 min, and maintained for additional 1.9 min (13min in total).; Injection volume: 10 μL
Num peaks: 124
65.03038 51
65.03994 54
66.04389 71
71.04961 72
71.05594 72
71.08317 26
73.02787 58
74.99142 1237
74.99855 1234
75.04145 71
75.99294 38
76.9847 84
76.99707 90
77.04018 2400
78.04271 134
78.04825 134
78.98347 46
80.05246 40
82.97663 61
83.07211 34
83.08815 42
84.95947 45
84.96483 44
85.05978 39
85.06711 39
86.03006 27
87.04544 57
88.07782 63
88.91463 94
88.93728 61
88.9524 31
88.96545 38
89.0636 118
91.05758 370
92.04408 97
92.05211 106
93.04856 935
93.05193 817
93.06016 853
93.0696 858
93.07565 821
95.03456 25
95.08585 119
96.08601 49
97.06699 126
98.96133 40
98.97356 35
98.98275 32
99.05036 51
99.97132 39
101.05893 28
101.96217 61
102.9426 28
102.95295 28
102.96188 27
103.07222 252
103.08038 249
106.05411 131
106.06042 131
106.06728 193
106.08879 164
107.05056 37
107.08658 290
108.06385 73
108.0801 106
108.08607 102
108.09187 102
109.01101 1152
109.03316 297
109.03748 132
109.07059 31
109.10081 115
109.10715 98
109.99537 42
110.01903 81
110.02614 83
110.06291 33
110.97944 78
111.00312 80
111.01235 84
111.03552 68
111.04375 31
111.06563 26
115.00431 37
115.0239 51
115.03294 29
115.04308 30
115.10014 35
117.06841 33
117.07676 62
119.01455 53
119.03585 482
119.0465 470
119.0829 27
119.09179 29
120.04698 156
120.06077 114
121.02837 48
121.03419 54
121.04318 47
123.11691 33
123.12415 28
127.08247 33
127.97766 28
129.05862 36
129.07123 87
129.08923 84
129.0979 67
129.10902 45
130.99327 44
131.00266 43
134.05519 138
134.06078 155
134.07555 138
135.02434 61
135.10309 55
135.11479 61
136.02214 2243
136.02867 664
136.07172 37
136.08974 33
136.11765 29
136.34692 28
136.37503 32
Name: "1,1,3,3-Tetraethoxypropane"
PrecursorMZ: 243.1586
PrecursorType: [M+Na]+
IonMode: Positive
Formula: C11H24O4
SMILES: CCOC(CC(OCC)OCC)OCC
InChI: 
InChIKey: KVJHGPAAOUGYJX-UHFFFAOYSA-N
RetentionTime: 6.724633
CCS: 
CollisionEnergy: 20-40 eV
InstrumentType: UPLC-QTOF-MS
Comment: PI: Cristina Nerin; Data collector: QiZhi Su, GUIA, University of Zaragoza, Spain; Collision energy: 20-40 V; Instrument: Waters HPLC-QTOF-MS (Xevo G2 QTof); Ionization: ESI; Deconvoluted by MS-DIAL; Column: Waters AtlantisTM premier BEH C18 AX column (2.1 × 100mm x 1.7μm); Flow rate: 0.3mL/min; Mobile phase A and B are water and methnaol, respectively, both with 0.1% formic acid; Gradient elution: from A/B (95/5) to A/B (100/0) in 7min, kept for 4 min, then back to A/B (95/5) in 0.1 min, and maintained for additional 1.9 min (13min in total).; Injection volume: 10 μL
Num peaks: 112
70.97881 110
70.98506 120
73.02935 1536
73.03471 1513
73.04448 1629
73.04928 863
73.06841 51
74.02826 93
74.03442 86
75.0454 1111
75.05165 1112
84.9925 330
84.99639 329
85.00107 329
87.03902 75
87.04881 78
88.07166 53
97.10174 100
97.11099 100
100.0817 50
100.08933 53
101.05918 1311
101.06635 1318
101.08421 68
102.05716 75
103.00493 64
103.03648 88
103.05465 51
103.07635 3207
104.07774 130
104.08472 124
110.97544 817
110.99014 825
111.01298 50
111.06348 53
111.07949 60
112.10117 65
112.11457 61
114.98236 79
114.98894 81
114.99673 180
115.00631 128
115.01294 106
120.0452 82
121.103 101
123.04823 57
128.97498 319
128.98247 310
128.99043 314
129.02032 79
129.02742 87
129.08624 4919
129.09204 4952
130.09407 331
135.10779 56
135.11816 88
138.9998 89
139.01846 106
139.02779 78
141.0247 371
141.04004 336
143.02609 55
143.03752 74
143.04648 52
145.02888 53
153.11694 66
155.06723 74
156.04614 63
157.02023 323
157.10486 74
157.11281 68
158.05791 53
158.08145 75
158.99773 310
160.01593 53
163.06909 53
163.10956 68
163.14456 69
169.0881 56
171.03821 55
171.05334 71
173.00919 180
173.01489 184
176.08757 90
176.09975 94
185.01012 117
185.02692 182
185.04984 299
197.10629 53
199.08208 75
199.09752 70
202.12091 62
211.07001 50
215.0508 66
223.04427 61
223.06441 104
223.07339 107
227.06413 54
227.18999 93
231.04202 259
231.05432 322
232.05719 53
239.10356 102
239.1174 103
239.12842 114
241.09123 270
241.10368 265
241.11591 211
243.10747 60
243.13611 56
243.15115 322
243.16319 903
Name: "1,1,3,3-Tetraethoxypropane"
PrecursorMZ: 259.1339
PrecursorType: [M+K]+
IonMode: Positive
Formula: C11H24O4
SMILES: CCOC(CC(OCC)OCC)OCC
InChI: 
InChIKey: KVJHGPAAOUGYJX-UHFFFAOYSA-N
RetentionTime: 6.72845
CCS: 
CollisionEnergy: 20-40 eV
InstrumentType: UPLC-QTOF-MS
Comment: PI: Cristina Nerin; Data collector: QiZhi Su, GUIA, University of Zaragoza, Spain; Collision energy: 20-40 V; Instrument: Waters HPLC-QTOF-MS (Xevo G2 QTof); Ionization: ESI; Deconvoluted by MS-DIAL; Column: Waters AtlantisTM premier BEH C18 AX column (2.1 × 100mm x 1.7μm); Flow rate: 0.3mL/min; Mobile phase A and B are water and methnaol, respectively, both with 0.1% formic acid; Gradient elution: from A/B (95/5) to A/B (100/0) in 7min, kept for 4 min, then back to A/B (95/5) in 0.1 min, and maintained for additional 1.9 min (13min in total).; Injection volume: 10 μL
Num peaks: 114
60.08069 91
70.9798 145
72.05363 50
72.0866 51
73.01813 1613
73.02917 1640
73.03873 1655
73.04446 1700
74.03643 106
75.04287 1101
75.04821 1112
84.99261 330
85.00092 330
87.04652 72
89.05884 120
89.06544 116
89.07327 142
93.01931 81
93.03448 70
99.07706 59
101.06222 1313
102.06165 75
102.06715 75
103.00192 85
103.03816 88
103.07728 2886
103.0853 2938
104.07893 108
110.97497 815
110.98346 821
111.0794 60
111.08953 50
114.97132 99
114.99551 216
115.00754 188
115.0135 166
118.07513 71
118.08689 58
119.01865 59
120.08105 56
121.08813 65
128.97363 316
128.98425 286
128.99101 296
129.00783 232
129.02502 87
129.09247 4952
130.08669 197
130.09775 144
132.07088 73
135.12143 81
135.13165 78
139.00177 90
139.00876 96
139.02716 75
141.02458 364
141.03586 381
141.04425 280
143.00262 56
143.01424 98
143.02209 113
156.04962 60
157.01167 222
157.02061 223
157.03275 318
157.10234 69
158.06259 79
158.07652 97
158.99696 244
159.00671 285
160.0004 60
163.12668 79
169.09082 56
173.01071 122
173.02147 138
176.08971 164
184.07771 54
185.00471 52
185.0162 92
185.04398 340
185.05238 299
199.08748 69
201.02426 51
208.06313 52
211.06081 77
223.064 110
227.04765 53
231.05557 344
231.07111 338
233.12262 55
239.09702 76
239.11336 142
239.1256 109
241.08737 360
241.10516 365
243.15506 588
243.16557 680
243.18048 512
250.07854 52
250.09673 57
251.08856 62
251.10634 57
253.10466 72
253.12256 60
255.09195 647
255.10965 547
255.15512 62
256.09418 117
257.09183 54
257.11307 51
259.06158 69
259.0799 146
259.10086 121
259.11249 107
Name: Hyodeoxycholic acid
PrecursorMZ: 785.5906
PrecursorType: [2M+H]+
IonMode: Positive
Formula: C24H40O4
SMILES: CC(CCC(=O)O)C1CCC2C1(CCC3C2CC(C4C3(CCC(C4)O)C)O)C
InChI: 
InChIKey: DGABKXLVXPYZII-SIBKNCMHSA-N
RetentionTime: 7.440834
CCS: 
CollisionEnergy: 20-40 eV
InstrumentType: UPLC-QTOF-MS
Comment: PI: Cristina Nerin; Data collector: QiZhi Su, GUIA, University of Zaragoza, Spain; Collision energy: 20-40 V; Instrument: Waters HPLC-QTOF-MS (Xevo G2 QTof); Ionization: ESI; Deconvoluted by MS-DIAL; Column: Waters AtlantisTM premier BEH C18 AX column (2.1 × 100mm x 1.7μm); Flow rate: 0.3mL/min; Mobile phase A and B are water and methnaol, respectively, both with 0.1% formic acid; Gradient elution: from A/B (95/5) to A/B (100/0) in 7min, kept for 4 min, then back to A/B (95/5) in 0.1 min, and maintained for additional 1.9 min (13min in total).; Injection volume: 10 μL
Num peaks: 36
81.07116 17865
93.05403 5315
93.07076 5248
95.08601 7002
105.07089 5561
107.06864 7968
107.08633 7821
109.10293 5598
119.08615 6324
119.09621 6332
121.1023 6404
133.10132 6957
135.11734 15065
147.11734 7513
147.13722 5623
149.13319 6508
161.13321 22711
175.14832 9026
189.16422 5997
215.17989 6686
221.15387 12806
243.21176 4916
247.16977 5352
275.20245 8820
321.25635 5408
339.26816 18480
357.27878 459178
358.28165 114993
359.28467 13743
375.28827 19599
376.29236 4683
415.28021 17627
600.43048 5746
600.93469 4639
785.59064 88393
786.09015 7858
Name: Hyodeoxycholic acid
PrecursorMZ: 807.5721
PrecursorType: [2M+Na]+
IonMode: Positive
Formula: C24H40O4
SMILES: CC(CCC(=O)O)C1CCC2C1(CCC3C2CC(C4C3(CCC(C4)O)C)O)C
InChI: 
InChIKey: DGABKXLVXPYZII-SIBKNCMHSA-N
RetentionTime: 7.471283
CCS: 
CollisionEnergy: 20-40 eV
InstrumentType: UPLC-QTOF-MS
Comment: PI: Cristina Nerin; Data collector: QiZhi Su, GUIA, University of Zaragoza, Spain; Collision energy: 20-40 V; Instrument: Waters HPLC-QTOF-MS (Xevo G2 QTof); Ionization: ESI; Deconvoluted by MS-DIAL; Column: Waters AtlantisTM premier BEH C18 AX column (2.1 × 100mm x 1.7μm); Flow rate: 0.3mL/min; Mobile phase A and B are water and methnaol, respectively, both with 0.1% formic acid; Gradient elution: from A/B (95/5) to A/B (100/0) in 7min, kept for 4 min, then back to A/B (95/5) in 0.1 min, and maintained for additional 1.9 min (13min in total).; Injection volume: 10 μL
Num peaks: 214
55.05342 164
55.06034 142
65.03367 71
65.04169 69
67.05421 137
67.06382 145
69.06642 350
69.07114 350
69.07557 350
83.04819 103
83.08571 79
83.09238 69
88.07903 161
88.0951 150
93.01661 317
93.03172 256
93.03805 249
93.05844 598
93.0703 762
95.08639 750
95.10144 762
96.08294 112
96.08994 97
98.96912 100
99.04407 84
99.08105 91
100.05157 73
101.05975 204
101.06639 189
105.06947 295
107.04301 95
107.04958 138
107.06063 122
107.0714 629
107.08698 408
109.09597 558
109.10187 549
110.10331 95
117.05565 84
117.06411 85
119.08701 216
121.02825 146
121.03683 108
121.10162 310
122.10286 115
122.11282 126
123.10773 223
123.12003 174
127.05749 118
127.07585 177
127.08413 121
127.10199 87
129.0675 222
129.07501 267
129.09309 118
130.05974 126
130.07808 106
131.08675 164
133.06737 113
133.08505 448
135.07843 149
135.08803 140
136.12148 142
137.09412 86
137.10197 77
139.09628 105
141.06102 81
141.07222 80
141.08237 75
142.07033 209
142.08044 205
145.06053 74
145.07077 81
145.10266 358
145.12459 207
146.10753 81
147.11847 771
148.10141 86
149.02405 2249
149.04324 4013
149.06123 95
149.09445 205
149.10152 223
149.13329 179
150.02867 214
151.07298 71
151.13835 75
155.0997 118
157.10371 298
157.12251 464
163.04973 82
165.086 88
165.09764 92
169.09566 103
173.11125 137
173.13292 336
174.10286 70
175.14781 102
177.11369 108
177.16331 147
179.09903 171
179.11328 167
180.10564 107
183.09541 120
183.14191 153
187.14233 180
187.15517 154
197.13185 232
197.15321 126
199.14244 209
200.2002 69
201.1642 286
203.14105 110
203.14995 135
204.14487 74
204.15222 82
211.18571 114
211.19849 73
212.15021 73
213.1537 128
213.16876 159
215.20383 706
219.17432 102
219.1933 75
225.16406 133
227.17879 164
229.10707 69
239.19373 164
251.20006 89
257.18811 86
262.18524 125
265.02304 72
268.26526 1398
269.23917 156
269.25256 228
269.27371 142
279.24237 80
301.13586 457
301.14813 437
302.13275 139
302.14941 161
302.16699 229
309.27203 69
313.29895 71
337.28448 70
360.17166 83
363.20908 96
363.22565 99
368.41818 109
368.43195 129
371.33603 93
379.23807 231
379.25262 231
381.2403 92
391.3335 318
393.2785 72
397.27249 99
410.1875 82
411.20166 122
412.21185 78
413.23129 93
413.25092 222
413.27158 219
413.29044 211
414.23239 87
415.28192 6899
416.2851 1707
417.27628 315
417.29803 219
429.21878 131
431.24649 696
431.26202 628
432.24261 85
432.25952 87
447.22147 352
449.21045 130
449.23267 203
475.30841 78
507.27319 75
599.42987 78
600.43231 78
600.93518 446
611.41711 1004
611.45837 231
611.92255 706
611.95209 427
612.42175 256
616.90045 86
618.41766 84
619.33148 70
619.4198 122
619.90479 268
619.9234 248
620.41144 117
627.36847 133
627.39972 133
627.90509 248
628.39508 147
669.59082 86
785.93048 167
788.52448 78
788.6377 84
790.54724 76
796.06183 131
797.03253 115
797.58154 231
798.09344 138
803.46942 73
805.48517 74
805.56757 97
806.49994 100
807.54913 1055
807.578 2136
808.06702 519
Name: Pentaerythritol
PrecursorMZ: 273.1556
PrecursorType: [2M+H]+
IonMode: Positive
Formula: C5H12O4
SMILES: C(C(CO)(CO)CO)O
InChI: 
InChIKey: WXZMFSXDPGVJKK-UHFFFAOYSA-N
RetentionTime: 0.8519167
CCS: 
CollisionEnergy: 20-40 eV
InstrumentType: UPLC-QTOF-MS
Comment: PI: Cristina Nerin; Data collector: QiZhi Su, GUIA, University of Zaragoza, Spain; Collision energy: 20-40 V; Instrument: Waters HPLC-QTOF-MS (Xevo G2 QTof); Ionization: ESI; Deconvoluted by MS-DIAL; Column: Waters AtlantisTM premier BEH C18 AX column (2.1 × 100mm x 1.7μm); Flow rate: 0.3mL/min; Mobile phase A and B are water and methnaol, respectively, both with 0.1% formic acid; Gradient elution: from A/B (95/5) to A/B (100/0) in 7min, kept for 4 min, then back to A/B (95/5) in 0.1 min, and maintained for additional 1.9 min (13min in total).; Injection volume: 10 μL
Num peaks: 618
50.60401 33
50.64548 24
52.92334 43
53.89166 68
54.75939 35
55.05281 117
55.06044 28
55.93539 25
65.05656 21
69.03635 121
69.05286 35
70.064 52
70.07043 51
70.99343 49
71.04803 940
71.0529 928
71.08784 29
71.48195 29
71.85737 28
72.0423 28
72.05307 77
72.93913 250
73.00193 39
73.01793 139
73.02957 24
73.94812 31
75.02814 33
75.04729 157
76.99751 64
77.0352 44
77.03906 29
78.98774 37
79.01263 71
79.03518 30
79.05249 41
80.0507 26
80.93995 27
81.03368 49
81.06873 50
81.96172 28
82.01285 27
82.02073 78
82.52319 30
83.04987 1910
83.08185 27
83.4949 35
83.96729 33
84.05061 86
84.06863 28
84.07694 22
84.08421 94
84.28409 20
84.42046 30
84.95779 22
85.06557 130
85.10138 64
85.83906 42
85.9493 25
86.0632 23
86.97669 66
87.03817 29
87.04727 38
87.5501 44
88.00852 28
88.01615 125
88.07726 25
89.05981 20
89.19141 34
89.93887 24
89.94344 34
90.05091 43
90.9493 24
91.05099 49
91.22527 154
92.89426 23
93.0709 26
93.55984 39
94.03793 21
94.07027 24
94.96371 32
94.98612 29
95.03562 25
95.0848 123
95.09235 57
95.96604 73
96.00601 30
96.03738 151
96.08856 21
97.02074 541
97.02654 659
97.08644 37
97.52147 21
97.92445 21
98.02641 36
98.44414 26
98.94984 70
98.97731 24
99.04049 32
99.04639 56
100.04614 25
100.92738 30
100.9702 30
101.02393 105
101.04236 27
101.05569 69
101.06271 486
102.06393 84
102.09032 237
102.09688 84
102.94052 91
102.95089 399
102.99511 55
103.02325 345
103.02833 131
103.05968 21
103.53474 44
103.94476 32
104.03433 50
104.94666 29
104.96713 51
105.01092 52
106.00749 23
106.0176 34
106.02953 884
106.32739 59
106.51119 20
106.52718 93
106.53495 47
106.99281 21
107.07077 23
109.00771 62
109.03658 45
109.09911 22
109.4566 20
110.07337 132
110.10123 41
110.42594 38
110.94694 22
110.95911 53
111.00961 32
111.02135 39
111.4563 24
111.95911 50
111.96494 20
112.00805 20
112.02547 117
112.03141 63
112.04591 24
112.05147 22
112.9761 86
113.01572 361
113.03679 23
113.95927 30
113.98248 33
113.99371 37
114.00969 33
114.01472 23
114.06241 25
115.04349 66
115.05627 214
115.07923 100
115.23398 30
115.48531 159
116.0703 41
116.51244 25
116.98148 38
118.52793 107
118.93121 39
119.00187 35
119.01253 51
119.01628 22
119.05388 39
119.06626 195
119.07296 600
119.24614 76
120.01577 117
120.08118 80
120.0895 80
121.00466 22
121.02615 24
121.0397 73
121.07579 24
121.51616 24
121.98357 20
122.09704 22
123.03945 37
123.09256 34
123.11159 27
123.12342 112
123.96149 232
124.05382 61
124.12345 25
124.13708 20
124.20267 22
124.95941 24
124.97177 174
124.99268 807
125.04794 31
125.06031 77
125.09805 24
125.48361 25
125.97691 84
125.99655 20
126.06342 34
126.96143 66
126.96984 51
126.98322 106
127.00728 1347
127.04195 63
127.05346 42
127.948 43
127.96374 30
127.98756 27
128.01587 32
128.05907 21
128.08891 79
128.96661 32
128.98949 23
129.01407 135
129.04385 80
129.10274 107
129.11256 43
130.03088 27
130.85648 20
131.02332 179
131.03142 495
131.07889 33
132.03329 65
132.04439 995
132.05719 90
132.07022 33
133.02972 24
133.04404 31
133.07022 57
133.4679 73
133.93738 22
134.0584 33
134.55205 103
134.99365 20
135.03416 41
135.04576 51
135.05298 35
135.57463 49
135.9653 30
136.03516 71
136.06628 111
136.07594 27
136.9686 27
136.98926 21
137.04512 38
137.0825 284
137.13542 22
137.53181 37
137.97746 28
138.0434 37
138.07864 22
138.36378 29
138.95218 65
138.96036 52
138.97041 36
139.00583 28
139.06076 38
139.09549 21
139.94617 30
139.95749 45
139.96375 79
140.02686 121
140.54034 20
140.961 78
140.97067 50
140.9857 64
141.00243 86
141.02989 34
141.05511 68
141.0956 25
141.97423 426
141.99104 20
142.05722 23
142.98099 1128
143.02446 102
143.0607 24
143.0824 54
143.0914 125
143.97737 72
143.98506 110
144.09688 53
144.98195 149
145.00664 73
145.01617 126
145.05199 77
145.05997 49
145.10493 21
145.54037 35
145.98405 56
146.9716 70
146.98141 28
147.09343 26
148.0439 25
148.06523 30
148.57237 230
149.01773 27
149.02866 26
149.04378 83
149.06169 40
149.0688 78
149.10287 40
149.13147 25
149.98106 47
150.98376 24
151.11681 33
151.12605 133
152.01251 101
152.47963 38
152.96968 24
153.00331 222
153.01292 79
153.05881 22
153.522 31
154.97084 47
155.01076 28
155.40691 21
155.92464 22
156.05313 841
156.06232 302
156.56386 214
156.95903 220
156.96873 81
156.98181 20
157.02264 30
157.05667 22
157.08449 24
157.11102 60
158.04222 60
158.0836 23
158.97458 81
158.9955 20
159.04985 27
159.06369 47
159.5466 96
159.97644 21
159.98558 84
160.045 211
160.05334 250
160.2659 27
160.54604 70
160.98352 190
160.99416 255
161.02507 56
161.04218 37
161.16968 36
161.96799 21
162.06734 69
162.98775 26
163.04529 35
163.06241 52
163.54503 26
164.03664 234
164.04782 394
164.42534 86
165.00043 23
165.0432 54
165.5453 43
166.03323 48
166.09254 20
167.06148 37
167.07803 100
167.53825 40
168.00594 78
168.97319 20
168.99637 85
169.01128 107
169.07062 30
169.09026 40
169.50565 32
169.70483 27
169.91823 31
170.00172 25
171.05801 25
171.08655 20
171.97812 20
172.08232 35
172.10774 58
172.40361 39
172.55453 56
172.98672 250
173.04788 36
173.0544 35
173.10858 25
173.99091 31
174.08841 26
174.99745 25
175.0309 730
175.08304 110
175.14784 23
175.67244 26
175.98949 26
175.99773 33
176.90761 28
178.07269 29
179.03693 49
179.05228 724
179.0993 27
180.04936 54
180.60927 22
181.03014 21
181.04343 24
181.55301 48
181.86858 22
181.99249 44
182.00458 114
182.03331 46
182.07298 25
182.63216 51
183.05487 51
183.06419 70
183.07195 43
183.09636 106
183.97374 21
183.98502 41
184.06544 30
184.1295 73
184.96935 20
185.00475 47
185.07928 28
185.10936 22
185.9957 27
186.02171 27
186.10831 35
186.97969 22
187.05037 48
187.12183 33
187.99629 30
188.01596 55
188.10176 76
188.79221 56
188.97769 30
188.99884 22
189.01311 126
189.12595 20
189.98529 47
189.99994 169
190.08426 21
191.00061 888
191.01387 285
191.05952 38
191.16805 91
191.99516 51
192.00923 176
192.94125 21
192.99437 44
193.00432 148
193.022 25
193.033 25
193.68948 21
194.03436 74
195.07053 53
197.00352 20
197.01215 24
197.0379 51
197.15559 40
197.27061 27
198.13901 45
198.9351 24
198.98569 39
199.00386 86
199.08777 36
200.01724 57
200.03252 27
200.11365 40
200.13219 49
200.14258 21
201.01398 25
201.03264 315
201.49635 38
202.02951 67
202.10391 204
202.52373 33
202.98959 28
203.14278 20
203.57866 33
206.00325 20
206.05562 24
206.97401 43
207.01366 61
208.00137 67
208.01248 49
208.06116 22
208.57585 24
209.01361 166
210.01967 55
210.49858 41
211.00586 96
211.09201 23
212.01605 172
212.02945 26
213.02425 33
213.8006 56
214.11852 21
215.10965 165
216.00261 31
217.11317 21
217.73599 46
218.00609 25
218.13567 26
218.46339 47
219.00166 105
219.1049 25
219.13873 24
220.09311 88
220.1066 24
221.03285 27
221.05412 20
221.1091 24
221.72269 33
222.02292 82
223.00145 37
223.04112 22
223.58356 20
224.01129 32
224.08723 27
225.00444 32
225.02203 30
225.11757 72
226.98341 34
227.58723 32
227.99992 40
228.08403 74
228.58447 41
228.83 29
229.0508 43
229.09209 50
229.11385 27
230.01906 136
230.03665 88
230.07465 28
230.09941 30
230.99504 28
231.08012 84
231.58267 254
232.01279 21
232.06352 21
232.07755 396
233.12079 22
234.0742 22
236.07162 152
237.0051 42
237.01807 22
238.02296 27
238.06393 20
238.08134 32
239.07744 96
239.08775 143
240.05319 28
240.06873 23
240.09412 43
240.55504 23
240.58376 27
240.9537 27
241.0038 23
241.06444 20
241.11113 66
242.12024 50
242.57317 35
242.61252 29
243.16132 29
244.09065 27
244.11258 44
244.13292 187
245.1196 111
245.94818 48
246.54488 20
246.94928 61
247.02371 23
247.13498 27
247.70848 39
248.03517 35
248.04684 33
249.10275 21
250.0186 95
250.10626 20
253.0518 27
253.25432 42
254.07671 52
254.16612 32
256.01926 20
256.04733 28
257.02176 22
257.08014 69
258.03564 47
258.04468 23
258.17081 20
260.02969 130
260.04282 92
261.04575 83
261.06189 32
263.12817 70
264.95901 31
267.48148 44
268.03091 27
269.02692 21
269.04575 47
269.08044 45
269.93939 29
270.05432 25
270.07056 21
270.11615 32
271.05344 27
271.06277 23
271.52753 30
272.02939 21
272.09726 28
272.99109 21
273.00436 28
273.03232 25
273.04868 29
273.0997 21
273.12268 23
273.15375 21
Name: Riboflavin
PrecursorMZ: 377.1461
PrecursorType: [M+H]+
IonMode: Positive
Formula: C17H20N4O6
SMILES: CC1=CC2=C(C=C1C)N(C3=NC(=O)NC(=O)C3=N2)CC(C(C(CO)O)O)O
InChI: 
InChIKey: AUNGANRZJHBGPY-SCRDCRAPSA-N
RetentionTime: 0.99655
CCS: 
CollisionEnergy: 20-40 eV
InstrumentType: UPLC-QTOF-MS
Comment: PI: Cristina Nerin; Data collector: QiZhi Su, GUIA, University of Zaragoza, Spain; Collision energy: 20-40 V; Instrument: Waters HPLC-QTOF-MS (Xevo G2 QTof); Ionization: ESI; Deconvoluted by MS-DIAL; Column: Waters AtlantisTM premier BEH C18 AX column (2.1 × 100mm x 1.7μm); Flow rate: 0.3mL/min; Mobile phase A and B are water and methnaol, respectively, both with 0.1% formic acid; Gradient elution: from A/B (95/5) to A/B (100/0) in 7min, kept for 4 min, then back to A/B (95/5) in 0.1 min, and maintained for additional 1.9 min (13min in total).; Injection volume: 10 μL
Num peaks: 42
57.03254 324
69.03226 1452
69.03653 1460
71.01398 349
71.04552 522
71.05149 520
71.05964 513
73.02704 453
73.03683 451
75.03144 374
75.04582 390
75.05381 377
81.03495 764
99.02637 1374
99.04356 1475
117.04394 342
117.05482 351
117.06556 345
145.07951 275
172.0863 6846
172.09407 6852
173.07236 696
173.09109 912
197.08391 288
197.09366 298
198.06636 5378
198.07506 5382
199.06544 821
199.07578 892
200.08266 2160
200.10533 405
201.09114 324
226.05936 582
226.07198 598
243.08957 27252
244.09103 3860
244.10266 3874
245.08203 314
245.09618 352
325.11081 296
359.13873 1055
377.14676 11970
Name: "2,2'-(Dodecylimino)diethanol"
PrecursorMZ: 296.2582
PrecursorType: [M+Na]+
IonMode: Positive
Formula: C16H35NO2
SMILES: CCCCCCCCCCCCN(CCO)CCO
InChI: 
InChIKey: NKFNBVMJTSYZDV-UHFFFAOYSA-N
RetentionTime: 5.1773
CCS: 
CollisionEnergy: 20-40 eV
InstrumentType: UPLC-QTOF-MS
Comment: PI: Cristina Nerin; Data collector: QiZhi Su, GUIA, University of Zaragoza, Spain; Collision energy: 20-40 V; Instrument: Waters HPLC-QTOF-MS (Xevo G2 QTof); Ionization: ESI; Deconvoluted by MS-DIAL; Column: Waters AtlantisTM premier BEH C18 AX column (2.1 × 100mm x 1.7μm); Flow rate: 0.3mL/min; Mobile phase A and B are water and methnaol, respectively, both with 0.1% formic acid; Gradient elution: from A/B (95/5) to A/B (100/0) in 7min, kept for 4 min, then back to A/B (95/5) in 0.1 min, and maintained for additional 1.9 min (13min in total).; Injection volume: 10 μL
Num peaks: 24
57.07119 4859
70.0659 39558
70.08568 40065
71.06845 9614
71.08644 9182
85.10232 3904
88.05659 17689
88.07661 69665
89.07995 2482
102.09215 20671
106.08689 37135
230.2484 4091
256.26462 33651
257.26779 5239
274.27548 227626
274.36182 4803
274.42407 8485
274.44083 9169
274.45688 8237
274.54211 3221
274.57962 3234
275.27777 36122
276.27927 2821
296.25824 11464
Name: "2,2'-(Dodecylimino)diethanol"
PrecursorMZ: 569.5234
PrecursorType: [2M+Na]+
IonMode: Positive
Formula: C16H35NO2
SMILES: CCCCCCCCCCCCN(CCO)CCO
InChI: 
InChIKey: NKFNBVMJTSYZDV-UHFFFAOYSA-N
RetentionTime: 5.1773
CCS: 
CollisionEnergy: 20-40 eV
InstrumentType: UPLC-QTOF-MS
Comment: PI: Cristina Nerin; Data collector: QiZhi Su, GUIA, University of Zaragoza, Spain; Collision energy: 20-40 V; Instrument: Waters HPLC-QTOF-MS (Xevo G2 QTof); Ionization: ESI; Deconvoluted by MS-DIAL; Column: Waters AtlantisTM premier BEH C18 AX column (2.1 × 100mm x 1.7μm); Flow rate: 0.3mL/min; Mobile phase A and B are water and methnaol, respectively, both with 0.1% formic acid; Gradient elution: from A/B (95/5) to A/B (100/0) in 7min, kept for 4 min, then back to A/B (95/5) in 0.1 min, and maintained for additional 1.9 min (13min in total).; Injection volume: 10 μL
Num peaks: 18
57.07119 10589
70.0659 75191
70.08568 75855
71.06845 18214
71.08644 17516
85.10232 6846
88.05659 57267
88.07661 130499
89.07995 4976
102.09215 40679
106.08689 70891
230.2484 8003
256.26462 63399
257.26779 10181
274.27548 376817
275.27777 67951
276.27927 5981
296.25824 9388
Name: "N,N-Dimethylcyclohexanamine"
PrecursorMZ: 128.1445
PrecursorType: [M+H]+
IonMode: Positive
Formula: C8H17N
SMILES: CN(C)C1CCCCC1
InChI: 
InChIKey: SVYKKECYCPFKGB-UHFFFAOYSA-N
RetentionTime: 0.7757334
CCS: 
CollisionEnergy: 20-40 eV
InstrumentType: UPLC-QTOF-MS
Comment: PI: Cristina Nerin; Data collector: QiZhi Su, GUIA, University of Zaragoza, Spain; Collision energy: 20-40 V; Instrument: Waters HPLC-QTOF-MS (Xevo G2 QTof); Ionization: ESI; Deconvoluted by MS-DIAL; Column: Waters AtlantisTM premier BEH C18 AX column (2.1 × 100mm x 1.7μm); Flow rate: 0.3mL/min; Mobile phase A and B are water and methnaol, respectively, both with 0.1% formic acid; Gradient elution: from A/B (95/5) to A/B (100/0) in 7min, kept for 4 min, then back to A/B (95/5) in 0.1 min, and maintained for additional 1.9 min (13min in total).; Injection volume: 10 μL
Num peaks: 5
55.05454 2303
56.05886 146
83.0863 8147
84.08953 596
128.14427 6906
Name: "2,2'-(Dodecylimino)diethanol"
PrecursorMZ: 296.2584
PrecursorType: [M+Na]+
IonMode: Positive
Formula: C16H35NO2
SMILES: CCCCCCCCCCCCN(CCO)CCO
InChI: 
InChIKey: NKFNBVMJTSYZDV-UHFFFAOYSA-N
RetentionTime: 5.318167
CCS: 
CollisionEnergy: 20-40 eV
InstrumentType: UPLC-QTOF-MS
Comment: PI: Cristina Nerin; Data collector: QiZhi Su, GUIA, University of Zaragoza, Spain; Collision energy: 20-40 V; Instrument: Waters HPLC-QTOF-MS (Xevo G2 QTof); Ionization: ESI; Deconvoluted by MS-DIAL; Column: Waters AtlantisTM premier BEH C18 AX column (2.1 × 100mm x 1.7μm); Flow rate: 0.3mL/min; Mobile phase A and B are water and methnaol, respectively, both with 0.1% formic acid; Gradient elution: from A/B (95/5) to A/B (100/0) in 7min, kept for 4 min, then back to A/B (95/5) in 0.1 min, and maintained for additional 1.9 min (13min in total).; Injection volume: 10 μL
Num peaks: 28
57.07109 20132
70.06593 141989
71.06874 31235
71.0862 31254
85.08357 13436
85.10199 13102
88.07648 263360
88.09347 263400
89.0793 10624
89.09684 10773
102.09197 81697
106.08707 135980
107.09152 5828
212.23824 6766
230.24855 16974
256.26471 128788
257.26749 21836
274.27713 572599
274.36258 12381
274.4231 22912
274.44043 25461
274.45865 23210
274.54031 10196
274.58478 9579
275.27805 137658
275.45264 7675
276.28131 14062
296.25668 21901
Name: "2,2'-(Dodecylimino)diethanol"
PrecursorMZ: 312.2275
PrecursorType: [M+K]+
IonMode: Positive
Formula: C16H35NO2
SMILES: CCCCCCCCCCCCN(CCO)CCO
InChI: 
InChIKey: NKFNBVMJTSYZDV-UHFFFAOYSA-N
RetentionTime: 5.325767
CCS: 
CollisionEnergy: 20-40 eV
InstrumentType: UPLC-QTOF-MS
Comment: PI: Cristina Nerin; Data collector: QiZhi Su, GUIA, University of Zaragoza, Spain; Collision energy: 20-40 V; Instrument: Waters HPLC-QTOF-MS (Xevo G2 QTof); Ionization: ESI; Deconvoluted by MS-DIAL; Column: Waters AtlantisTM premier BEH C18 AX column (2.1 × 100mm x 1.7μm); Flow rate: 0.3mL/min; Mobile phase A and B are water and methnaol, respectively, both with 0.1% formic acid; Gradient elution: from A/B (95/5) to A/B (100/0) in 7min, kept for 4 min, then back to A/B (95/5) in 0.1 min, and maintained for additional 1.9 min (13min in total).; Injection volume: 10 μL
Num peaks: 30
57.05415 24793
57.07063 24667
70.05351 171351
70.06597 171298
71.06891 38224
71.0865 37844
85.10209 15603
88.07655 316252
89.06219 13178
89.08043 13206
102.09205 97893
102.11147 98079
106.08705 163853
212.23929 8433
212.25755 7933
230.2485 20417
256.26434 156009
257.26773 26363
274.27664 731465
274.3624 14193
274.42331 26133
274.44037 28942
274.45847 26268
274.53998 11306
274.58347 10720
275.27832 167249
275.43576 8236
275.45334 8046
276.28159 17273
296.25735 19096
Name: Diethylene glycol monovinyl ether
PrecursorMZ: 155.0696
PrecursorType: [M+Na]+
IonMode: Positive
Formula: C6H12O3
SMILES: C=COCCOCCO
InChI: 
InChIKey: WULAHPYSGCVQHM-UHFFFAOYSA-N
RetentionTime: 3.03905
CCS: 
CollisionEnergy: 20-40 eV
InstrumentType: UPLC-QTOF-MS
Comment: PI: Cristina Nerin; Data collector: QiZhi Su, GUIA, University of Zaragoza, Spain; Collision energy: 20-40 V; Instrument: Waters HPLC-QTOF-MS (Xevo G2 QTof); Ionization: ESI; Deconvoluted by MS-DIAL; Column: Waters AtlantisTM premier BEH C18 AX column (2.1 × 100mm x 1.7μm); Flow rate: 0.3mL/min; Mobile phase A and B are water and methnaol, respectively, both with 0.1% formic acid; Gradient elution: from A/B (95/5) to A/B (100/0) in 7min, kept for 4 min, then back to A/B (95/5) in 0.1 min, and maintained for additional 1.9 min (13min in total).; Injection volume: 10 μL
Num peaks: 221
50.23108 32
54.03473 26
55.05581 44
56.94526 29
56.96627 96
57.07026 47
60.4912 26
60.68118 48
62.9335 25
67.05219 96
67.05862 111
68.55714 38
68.88881 22
69.01607 21
70.95568 47
70.95994 61
71.00581 20
71.04869 60
71.9595 22
72.08861 29
72.94073 45
72.9846 142
72.99092 109
73.014 29
73.02489 21
73.06737 21
74.06966 52
74.51886 42
75.00348 33
76.99892 43
77.03821 24
78.99677 43
79.05383 57
79.05872 23
81.06496 27
82.95407 23
82.98141 1160
82.98923 160
83.01762 25
83.07086 24
83.98843 82
84.05076 51
84.965 174
85.01368 21
85.05387 26
85.06535 31
85.94163 24
85.95506 20
85.969 72
86.97544 24
87.00204 43
87.05123 49
88.0379 23
88.95109 21
88.95696 25
88.96651 20
89.05601 43
89.90737 56
91.06112 24
91.83281 25
93.0718 149
94.93724 33
94.96056 49
95.02553 40
95.05456 92
95.08842 42
95.95755 20
96.07829 29
96.08632 60
96.94264 24
96.95676 25
97.01141 22
97.02483 36
97.94627 61
97.95847 40
97.9646 98
97.9794 20
98.09843 29
98.94825 117
98.955 129
98.98046 117
99.95461 42
100.59053 24
100.93967 41
100.96744 317
100.97296 372
100.98722 74
100.99561 73
101.02409 45
101.96734 74
102.09291 30
102.47908 30
102.94706 21
102.97548 25
103.05474 23
103.95991 108
103.97536 56
104.02501 30
104.03376 39
105.01227 45
105.95685 22
107.90199 33
108.94184 59
108.95941 19
108.96561 26
109.03197 20
109.09353 31
109.97504 32
110.0312 57
111.03967 47
111.07869 18
111.0852 52
111.57151 41
111.96471 20
112.02689 52
112.97601 26
112.99996 20
113.01315 22
113.0212 52
113.72091 22
113.88918 38
113.97665 76
114.01851 37
114.94651 354
114.96642 28
114.98129 49
114.99541 135
115.04179 52
115.94962 22
115.96577 93
115.97358 25
116.00615 30
116.94579 24
116.95998 76
116.97239 64
117.93725 86
118.08886 29
119.02455 20
119.08935 38
119.80817 36
120.04952 57
120.93789 57
121.86919 36
121.98758 75
122.0776 42
122.9551 20
122.96877 25
123.42754 44
123.9599 20
124.10646 20
124.97395 30
124.98099 101
125.97942 117
126.99983 26
127.00861 136
127.01952 44
127.02917 55
127.03886 29
128.00751 21
128.13956 23
128.91803 30
128.93292 22
128.9502 45
129.01585 69
129.03548 63
130.00807 37
130.15634 21
130.94162 23
131.02332 23
131.6302 94
131.97507 91
132.71529 31
132.95946 25
133.01205 57
133.02148 47
133.10303 28
133.94655 28
133.96849 22
135.03751 28
136.06165 28
136.07755 20
137.00847 30
137.09682 22
137.1113 33
137.9709 70
138.02509 27
138.4324 64
138.95662 20
139.79463 48
139.95476 54
140.14105 29
140.89528 20
141.95241 21
141.98462 48
141.99379 38
142.97661 78
142.98503 77
143.94116 26
143.98407 33
144.95236 32
144.96138 23
145.00853 155
145.01913 785
145.02844 324
145.97122 73
146.01649 30
146.1692 22
146.19806 28
147.94038 24
148.11107 30
149.01236 23
149.02359 60
149.04001 25
150.02003 26
150.97961 22
151.0274 23
153.01285 62
153.06631 113
154.07579 29
155.02632 43
155.05998 20
Name: "1,2,3-Benzotriazole"
PrecursorMZ: 120.0569
PrecursorType: [M+H]+
IonMode: Positive
Formula: C6H5N3
SMILES: C1=CC2=NNN=C2C=C1
InChI: 
InChIKey: QRUDEWIWKLJBPS-UHFFFAOYSA-N
RetentionTime: 3.923317
CCS: 
CollisionEnergy: 20-40 eV
InstrumentType: UPLC-QTOF-MS
Comment: PI: Cristina Nerin; Data collector: QiZhi Su, GUIA, University of Zaragoza, Spain; Collision energy: 20-40 V; Instrument: Waters HPLC-QTOF-MS (Xevo G2 QTof); Ionization: ESI; Deconvoluted by MS-DIAL; Column: Waters AtlantisTM premier BEH C18 AX column (2.1 × 100mm x 1.7μm); Flow rate: 0.3mL/min; Mobile phase A and B are water and methnaol, respectively, both with 0.1% formic acid; Gradient elution: from A/B (95/5) to A/B (100/0) in 7min, kept for 4 min, then back to A/B (95/5) in 0.1 min, and maintained for additional 1.9 min (13min in total).; Injection volume: 10 μL
Num peaks: 17
65.03941 6196
66.02065 91
66.0369 211
66.05052 167
77.04298 142
83.09343 195
84.96269 506
92.05057 2708
93.05569 244
95.08859 163
100.6758 139
103.0527 102
107.07797 91
107.08641 149
114.94962 157
118.0792 134
120.05684 9045
Name: "1,2,3-Benzotriazole"
PrecursorMZ: 120.0568
PrecursorType: [M+H]+
IonMode: Positive
Formula: C6H5N3
SMILES: C1=CC2=NNN=C2C=C1
InChI: 
InChIKey: QRUDEWIWKLJBPS-UHFFFAOYSA-N
RetentionTime: 4.137
CCS: 
CollisionEnergy: 20-40 eV
InstrumentType: UPLC-QTOF-MS
Comment: PI: Cristina Nerin; Data collector: QiZhi Su, GUIA, University of Zaragoza, Spain; Collision energy: 20-40 V; Instrument: Waters HPLC-QTOF-MS (Xevo G2 QTof); Ionization: ESI; Deconvoluted by MS-DIAL; Column: Waters AtlantisTM premier BEH C18 AX column (2.1 × 100mm x 1.7μm); Flow rate: 0.3mL/min; Mobile phase A and B are water and methnaol, respectively, both with 0.1% formic acid; Gradient elution: from A/B (95/5) to A/B (100/0) in 7min, kept for 4 min, then back to A/B (95/5) in 0.1 min, and maintained for additional 1.9 min (13min in total).; Injection volume: 10 μL
Num peaks: 5
65.02538 379
65.04004 419
65.05971 5994
100.87582 174
120.05674 16637
Name: "2,2'-(Dodecylimino)diethanol"
PrecursorMZ: 569.5247
PrecursorType: [2M+Na]+
IonMode: Positive
Formula: C16H35NO2
SMILES: CCCCCCCCCCCCN(CCO)CCO
InChI: 
InChIKey: NKFNBVMJTSYZDV-UHFFFAOYSA-N
RetentionTime: 5.363833
CCS: 
CollisionEnergy: 20-40 eV
InstrumentType: UPLC-QTOF-MS
Comment: PI: Cristina Nerin; Data collector: QiZhi Su, GUIA, University of Zaragoza, Spain; Collision energy: 20-40 V; Instrument: Waters HPLC-QTOF-MS (Xevo G2 QTof); Ionization: ESI; Deconvoluted by MS-DIAL; Column: Waters AtlantisTM premier BEH C18 AX column (2.1 × 100mm x 1.7μm); Flow rate: 0.3mL/min; Mobile phase A and B are water and methnaol, respectively, both with 0.1% formic acid; Gradient elution: from A/B (95/5) to A/B (100/0) in 7min, kept for 4 min, then back to A/B (95/5) in 0.1 min, and maintained for additional 1.9 min (13min in total).; Injection volume: 10 μL
Num peaks: 23
57.07087 8863
70.06618 57954
70.07974 57975
71.06856 14392
71.08607 14329
85.08313 5379
85.10184 5753
85.11355 5744
88.07651 104150
89.07967 4471
102.09232 33041
106.0871 53832
106.10333 53883
212.23796 3065
230.25002 6900
256.26492 50686
257.26801 8749
274.27576 304142
274.42435 4240
274.4407 4505
275.27863 53704
276.28198 6171
296.25806 7742
Name: "2,2'-(Dodecylimino)diethanol"
PrecursorMZ: 274.277
PrecursorType: [M+H]+
IonMode: Positive
Formula: C16H35NO2
SMILES: CCCCCCCCCCCCN(CCO)CCO
InChI: 
InChIKey: NKFNBVMJTSYZDV-UHFFFAOYSA-N
RetentionTime: 5.367633
CCS: 
CollisionEnergy: 20-40 eV
InstrumentType: UPLC-QTOF-MS
Comment: PI: Cristina Nerin; Data collector: QiZhi Su, GUIA, University of Zaragoza, Spain; Collision energy: 20-40 V; Instrument: Waters HPLC-QTOF-MS (Xevo G2 QTof); Ionization: ESI; Deconvoluted by MS-DIAL; Column: Waters AtlantisTM premier BEH C18 AX column (2.1 × 100mm x 1.7μm); Flow rate: 0.3mL/min; Mobile phase A and B are water and methnaol, respectively, both with 0.1% formic acid; Gradient elution: from A/B (95/5) to A/B (100/0) in 7min, kept for 4 min, then back to A/B (95/5) in 0.1 min, and maintained for additional 1.9 min (13min in total).; Injection volume: 10 μL
Num peaks: 16
57.0708 8107
70.06615 58076
70.08369 58123
71.06863 13719
71.08644 13690
85.10239 5716
88.05968 106006
88.07665 105949
89.08 4134
102.09212 34409
106.0871 54826
230.24937 6774
256.26498 53193
257.26797 9185
274.27539 336342
274.44006 3922
Name: "2,2'-(Dodecylimino)diethanol"
PrecursorMZ: 296.2576
PrecursorType: [M+Na]+
IonMode: Positive
Formula: C16H35NO2
SMILES: CCCCCCCCCCCCN(CCO)CCO
InChI: 
InChIKey: NKFNBVMJTSYZDV-UHFFFAOYSA-N
RetentionTime: 5.367633
CCS: 
CollisionEnergy: 20-40 eV
InstrumentType: UPLC-QTOF-MS
Comment: PI: Cristina Nerin; Data collector: QiZhi Su, GUIA, University of Zaragoza, Spain; Collision energy: 20-40 V; Instrument: Waters HPLC-QTOF-MS (Xevo G2 QTof); Ionization: ESI; Deconvoluted by MS-DIAL; Column: Waters AtlantisTM premier BEH C18 AX column (2.1 × 100mm x 1.7μm); Flow rate: 0.3mL/min; Mobile phase A and B are water and methnaol, respectively, both with 0.1% formic acid; Gradient elution: from A/B (95/5) to A/B (100/0) in 7min, kept for 4 min, then back to A/B (95/5) in 0.1 min, and maintained for additional 1.9 min (13min in total).; Injection volume: 10 μL
Num peaks: 21
57.0708 8107
70.06615 58076
70.08369 58123
71.06863 13719
71.08644 13690
85.10239 5716
88.05968 106006
88.07665 105949
89.08 4134
102.09212 34409
106.0871 54826
230.24937 6774
256.26498 53193
257.26797 9185
274.27539 317024
274.42459 4933
274.44006 5185
274.4567 4533
275.27783 58215
276.2822 6462
296.25632 8438
Name: Trimethylolpropane
PrecursorMZ: 135.1021
PrecursorType: [M+H]+
IonMode: Positive
Formula: C6H14O3
SMILES: CCC(CO)(CO)CO
InChI: 
InChIKey: ZJCCRDAZUWHFQH-UHFFFAOYSA-N
RetentionTime: 1.926433
CCS: 
CollisionEnergy: 20-40 eV
InstrumentType: UPLC-QTOF-MS
Comment: PI: Cristina Nerin; Data collector: QiZhi Su, GUIA, University of Zaragoza, Spain; Collision energy: 20-40 V; Instrument: Waters HPLC-QTOF-MS (Xevo G2 QTof); Ionization: ESI; Deconvoluted by MS-DIAL; Column: Waters AtlantisTM premier BEH C18 AX column (2.1 × 100mm x 1.7μm); Flow rate: 0.3mL/min; Mobile phase A and B are water and methnaol, respectively, both with 0.1% formic acid; Gradient elution: from A/B (95/5) to A/B (100/0) in 7min, kept for 4 min, then back to A/B (95/5) in 0.1 min, and maintained for additional 1.9 min (13min in total).; Injection volume: 10 μL
Num peaks: 160
55.05659 35
56.94394 22
56.96375 44
57.06964 27
59.04847 23
59.07218 33
61.37498 28
64.59577 36
65.05961 25
67.05212 97
68.94604 25
69.07072 395
69.289 20
70.58916 21
70.96272 33
71.0461 20
72.05308 56
72.93062 30
72.93616 84
72.98586 78
72.99534 26
73.04547 23
74.89775 42
74.95143 22
74.97619 98
75.04262 24
77.0395 47
77.65064 60
77.95729 364
79.05188 85
79.05996 160
79.58987 24
80.00352 27
81.0007 57
81.06237 43
81.07033 309
84.04772 84
84.9559 25
84.9628 24
84.97187 31
85.03384 25
85.06677 21
85.94203 30
86.96152 134
86.98546 54
87.0289 23
88.96134 54
88.9836 21
90.94698 30
91.0609 59
93.06775 46
93.91678 25
94.01923 29
95.04838 51
95.05449 27
96.03414 353
96.93725 24
96.96172 52
96.97021 23
96.99898 41
97.01579 54
97.06759 21
98.09386 28
98.90836 61
98.97471 122
99.04864 43
99.07999 84
99.96249 33
100.94138 344
100.96198 38
101.93864 21
101.95026 29
102.9483 21
102.95332 32
103.03618 102
103.04242 27
103.99408 21
104.4859 20
104.99022 37
105.0377 94
105.04418 24
105.53695 47
106.07916 31
107.07526 20
109.04919 65
109.0638 22
109.98315 132
110.04305 45
110.98083 44
111.01314 44
111.03544 31
111.04957 21
111.26444 20
111.9965 158
112.03825 50
112.96755 60
112.98911 66
112.99483 142
113.00366 54
113.01722 24
113.54707 55
113.84675 27
113.9614 34
113.96973 31
113.98112 39
114.0901 26
115.03009 20
115.07204 26
115.9612 152
116.10946 54
116.97601 28
117.00761 33
117.09217 58
118.08416 27
118.09572 55
118.99786 39
120.04574 25
120.78444 33
120.99744 22
121.08263 21
122.06528 62
122.90009 21
123.00532 27
123.01783 171
123.05379 26
123.07286 25
124.00233 186
124.01224 24
124.69035 22
124.99815 33
125.02705 1022
125.04497 25
125.97567 21
125.98921 30
126.03074 23
126.07817 29
126.62038 30
126.94421 20
126.96267 20
126.97309 24
126.9783 24
127.00916 29
127.01847 21
127.03429 85
127.06473 184
128.00809 62
128.9666 68
129.02466 65
129.58232 82
129.95505 37
130.05641 41
130.175 27
130.95094 20
131.03067 22
131.09297 40
131.80444 50
131.94574 34
132.98444 47
133.00874 31
134.99799 27
Name: (-)-Erythromycin
PrecursorMZ: 734.4689
PrecursorType: [M+H]+
IonMode: Positive
Formula: C37H67NO13
SMILES: CCC1C(C(C(C(=O)C(CC(C(C(C(C(C(=O)O1)C)OC2CC(C(C(O2)C)O)(C)OC)C)OC3C(C(CC(O3)C)N(C)C)O)(C)O)C)C)O)(C)O
InChI: 
InChIKey: ULGZDMOVFRHVEP-RWJQBGPGSA-N
RetentionTime: 4.403517
CCS: 
CollisionEnergy: 20-40 eV
InstrumentType: UPLC-QTOF-MS
Comment: PI: Cristina Nerin; Data collector: QiZhi Su, GUIA, University of Zaragoza, Spain; Collision energy: 20-40 V; Instrument: Waters HPLC-QTOF-MS (Xevo G2 QTof); Ionization: ESI; Deconvoluted by MS-DIAL; Column: Waters AtlantisTM premier BEH C18 AX column (2.1 × 100mm x 1.7μm); Flow rate: 0.3mL/min; Mobile phase A and B are water and methnaol, respectively, both with 0.1% formic acid; Gradient elution: from A/B (95/5) to A/B (100/0) in 7min, kept for 4 min, then back to A/B (95/5) in 0.1 min, and maintained for additional 1.9 min (13min in total).; Injection volume: 10 μL
Num peaks: 26
83.05015 60920
98.09705 5617
113.06056 7222
115.07643 10941
116.07204 14478
116.0911 67243
116.10787 52054
127.07623 21485
158.11879 540424
159.12151 47437
233.1544 9602
316.21219 5597
408.27524 8616
522.34302 49674
523.3465 13996
540.35333 35978
541.35687 9250
558.36334 56203
559.36554 15261
576.3736 221838
577.37756 67891
578.37805 14056
698.44629 9072
716.4577 16058
717.46118 6749
734.46747 127585
Name: Adipic acid
PrecursorMZ: 169.0484
PrecursorType: [M+Na]+
IonMode: Positive
Formula: C6H10O4
SMILES: C(CCC(=O)O)CC(=O)O
InChI: 
InChIKey: WNLRTRBMVRJNCN-UHFFFAOYSA-N
RetentionTime: 3.07385
CCS: 
CollisionEnergy: 20-40 eV
InstrumentType: UPLC-QTOF-MS
Comment: PI: Cristina Nerin; Data collector: QiZhi Su, GUIA, University of Zaragoza, Spain; Collision energy: 20-40 V; Instrument: Waters HPLC-QTOF-MS (Xevo G2 QTof); Ionization: ESI; Deconvoluted by MS-DIAL; Column: Waters AtlantisTM premier BEH C18 AX column (2.1 × 100mm x 1.7μm); Flow rate: 0.3mL/min; Mobile phase A and B are water and methnaol, respectively, both with 0.1% formic acid; Gradient elution: from A/B (95/5) to A/B (100/0) in 7min, kept for 4 min, then back to A/B (95/5) in 0.1 min, and maintained for additional 1.9 min (13min in total).; Injection volume: 10 μL
Num peaks: 137
55.05415 591
56.06059 176
57.07638 104
59.05043 54
67.0611 48
68.98373 63
69.06877 55
70.01663 55
72.08167 61
72.94442 80
73.0578 65
73.06424 427
73.0703 252
75.06833 44
77.04227 41
81.076 98
81.42133 40
83.04859 1455
83.96928 109
84.05026 43
84.05683 82
84.9635 41
85.10394 68
87.04723 67
88.01543 55
91.05441 46
92.99787 54
93.06705 151
96.99638 44
97.06487 94
98.97696 187
98.98867 46
100.02612 69
100.93739 58
100.97045 118
101.05828 230
101.06729 41
101.96 75
102.09274 52
107.03664 153
109.9786 194
109.98647 202
110.98196 68
110.98763 59
111.02406 46
111.04405 450
111.05024 104
112.03773 93
112.99919 67
113.06309 41
114.05493 39
114.96749 90
114.9927 95
115.07059 150
115.07751 175
115.95488 53
116.06933 159
116.07589 101
116.1059 134
116.11263 147
119.04577 40
120.99438 285
121.00342 479
121.11025 50
123.01077 1758
123.07538 55
124.01623 61
124.99615 55
125.02193 39
125.04277 67
125.97992 106
126.01057 58
127.03573 99
127.07183 180
127.07893 151
127.99094 187
128.03465 51
128.08514 125
129.07974 112
131.00691 51
131.96585 58
132.05396 61
133.06644 39
133.09735 44
134.07721 71
135.08215 44
136.00922 44
136.9705 71
137.06992 46
137.18275 55
137.9688 40
137.97697 128
137.98784 50
138.97379 55
138.98398 524
138.99211 110
139.00668 85
139.989 60
140.99922 189
141.02888 205
141.05055 100
143.078 163
145.10483 84
149.01334 86
149.02663 95
149.0705 39
151.0258 164
151.99565 50
153.04852 69
153.07762 84
153.63214 48
153.99689 103
154.01221 66
154.98314 108
155.00131 185
155.99524 835
156.98552 100
156.99945 796
157.98677 63
158.11752 2761
159.00815 39
159.05733 63
159.11931 272
159.14095 88
159.97072 62
160.11504 89
161.95865 68
162.05962 54
164.96693 42
165.09624 81
167.0029 3886
167.02701 43
168.00148 102
168.00789 261
168.02657 90
169.00789 49
169.03831 220
Name: Adipic acid
PrecursorMZ: 147.0676
PrecursorType: [M+H]+
IonMode: Positive
Formula: C6H10O4
SMILES: C(CCC(=O)O)CC(=O)O
InChI: 
InChIKey: WNLRTRBMVRJNCN-UHFFFAOYSA-N
RetentionTime: 3.077667
CCS: 
CollisionEnergy: 20-40 eV
InstrumentType: UPLC-QTOF-MS
Comment: PI: Cristina Nerin; Data collector: QiZhi Su, GUIA, University of Zaragoza, Spain; Collision energy: 20-40 V; Instrument: Waters HPLC-QTOF-MS (Xevo G2 QTof); Ionization: ESI; Deconvoluted by MS-DIAL; Column: Waters AtlantisTM premier BEH C18 AX column (2.1 × 100mm x 1.7μm); Flow rate: 0.3mL/min; Mobile phase A and B are water and methnaol, respectively, both with 0.1% formic acid; Gradient elution: from A/B (95/5) to A/B (100/0) in 7min, kept for 4 min, then back to A/B (95/5) in 0.1 min, and maintained for additional 1.9 min (13min in total).; Injection volume: 10 μL
Num peaks: 206
52.01632 29
53.04275 41
55.01879 25
55.05581 557
56.05658 21
56.84955 24
56.85987 36
56.96396 30
56.96822 32
59.01101 63
59.01564 33
59.05041 76
59.965 60
60.05361 24
60.31972 67
62.98675 32
63.00325 83
67.05579 67
69.07102 69
69.97905 23
71.03665 79
71.04331 24
71.08479 22
72.04517 61
72.94207 41
73.05411 61
73.0654 967
73.14014 63
73.67757 36
74.09201 28
74.15473 59
74.31978 33
75.04172 21
76.55031 23
77.03748 45
78.98721 20
79.05262 111
81.0153 60
81.0706 95
81.94992 20
82.5152 21
82.96027 24
83.05107 1553
84.05041 20
84.06029 108
84.0843 59
84.96207 80
85.05585 22
85.10139 56
85.50159 99
87.04197 24
88.5181 89
91.05553 76
92.26825 23
93.00654 21
93.06184 31
93.06785 22
94.06856 20
95.01738 30
95.0568 177
96.05473 33
96.93641 22
96.96501 65
97.02127 54
97.06269 55
97.07355 79
97.96105 24
97.96693 70
97.99354 58
98.09664 174
98.97071 25
98.97697 55
98.98234 108
98.98858 32
99.08099 20
100.92902 20
101.0603 198
102.06223 64
104.07286 23
104.91058 21
104.99185 62
105.06952 23
105.07662 25
106.98528 26
107.03622 22
107.08558 29
107.35713 20
107.96902 45
108.02969 51
109.06594 147
109.98092 53
109.98806 47
110.07548 57
110.8654 25
110.97472 68
110.99124 99
111.04529 527
111.985 37
112.98687 66
112.99493 73
113.01194 24
113.05767 66
113.11564 22
113.97883 25
113.98671 24
114.08689 41
114.98426 39
114.99211 60
115.00638 25
115.07525 144
115.08427 52
115.10073 22
116.0668 24
116.07973 96
116.10984 349
116.92746 23
116.98438 66
118.11775 21
119.01775 44
120.02042 20
120.0517 21
120.99375 321
121.00429 262
121.03605 35
121.05861 25
121.73841 23
122.00636 37
122.08083 23
123.01228 1798
123.02101 283
123.05898 38
123.08213 20
123.08589 38
123.11863 20
123.99651 26
124.01645 61
124.02749 53
124.99157 21
125.02834 58
125.04041 70
125.80869 36
125.978 145
126.09093 49
126.9491 22
126.98081 21
127.00118 24
127.03702 169
127.07387 89
127.98905 64
127.99525 86
128.9908 26
129.0081 41
129.05156 25
129.05986 51
129.99242 25
130.0768 20
130.08972 24
130.99855 46
131.0883 72
132.97758 27
133.08316 21
134.06189 38
134.06952 140
134.08693 20
134.09889 23
134.10516 45
134.9838 37
135.05122 41
135.06467 28
135.08875 41
135.98195 48
136.07022 29
136.08623 20
136.95767 21
136.97386 31
136.98846 20
136.99799 34
137.07236 22
137.55019 23
137.97186 80
137.98267 173
138.00101 89
138.07578 58
138.08279 27
138.98093 230
138.99258 233
139.00192 39
139.01721 255
139.08647 26
139.91324 23
139.98035 48
139.99519 52
140.06908 20
140.99789 184
141.01974 273
141.03006 108
142.07884 29
144.1033 58
144.92307 57
145.01105 34
145.1008 62
146.97227 50
146.98134 44
147.02599 21
147.0412 25
147.11327 31
Name: "2,4-Diaminoanisole"
PrecursorMZ: 277.1644
PrecursorType: [2M+H]+
IonMode: Positive
Formula: C7H10N2O
SMILES: COC1=C(C=C(C=C1)N)N
InChI: 
InChIKey: BAHPQISAXRFLCL-UHFFFAOYSA-N
RetentionTime: 6.758833
CCS: 
CollisionEnergy: 20-40 eV
InstrumentType: UPLC-QTOF-MS
Comment: PI: Cristina Nerin; Data collector: QiZhi Su, GUIA, University of Zaragoza, Spain; Collision energy: 20-40 V; Instrument: Waters HPLC-QTOF-MS (Xevo G2 QTof); Ionization: ESI; Deconvoluted by MS-DIAL; Column: Waters AtlantisTM premier BEH C18 AX column (2.1 × 100mm x 1.7μm); Flow rate: 0.3mL/min; Mobile phase A and B are water and methnaol, respectively, both with 0.1% formic acid; Gradient elution: from A/B (95/5) to A/B (100/0) in 7min, kept for 4 min, then back to A/B (95/5) in 0.1 min, and maintained for additional 1.9 min (13min in total).; Injection volume: 10 μL
Num peaks: 43
58.07423 227
59.0502 19226
60.05441 769
96.99769 522
97.01363 477
105.0332 488
112.98951 784
112.99809 733
113.01318 1333
113.02808 1607
114.98568 329
114.99441 812
115.00507 382
115.01094 785
115.02402 392
115.09492 295
115.11434 523
116.0489 633
116.06326 630
117.08783 237
125.06914 254
125.07726 199
130.9677 228
130.98215 198
144.0817 2656
144.09875 2673
144.5827 292
155.08746 225
155.09398 230
171.02173 206
171.03383 244
173.03905 902
173.05273 304
185.02457 314
185.03699 432
231.10872 274
245.07724 316
245.092 325
255.21703 711
271.18991 18069
272.19003 1340
272.20337 847
272.2207 351
Name: (-)-Erythromycin
PrecursorMZ: 734.4704
PrecursorType: [M+K]+
IonMode: Positive
Formula: C37H67NO13
SMILES: CCC1C(C(C(C(=O)C(CC(C(C(C(C(C(=O)O1)C)OC2CC(C(C(O2)C)O)(C)OC)C)OC3C(C(CC(O3)C)N(C)C)O)(C)O)C)C)O)(C)O
InChI: 
InChIKey: ULGZDMOVFRHVEP-RWJQBGPGSA-N
RetentionTime: 0.9737167
CCS: 
CollisionEnergy: 20-40 eV
InstrumentType: UPLC-QTOF-MS
Comment: PI: Cristina Nerin; Data collector: QiZhi Su, GUIA, University of Zaragoza, Spain; Collision energy: 20-40 V; Instrument: Waters HPLC-QTOF-MS (Xevo G2 QTof); Ionization: ESI; Deconvoluted by MS-DIAL; Column: Waters AtlantisTM premier BEH C18 AX column (2.1 × 100mm x 1.7μm); Flow rate: 0.3mL/min; Mobile phase A and B are water and methnaol, respectively, both with 0.1% formic acid; Gradient elution: from A/B (95/5) to A/B (100/0) in 7min, kept for 4 min, then back to A/B (95/5) in 0.1 min, and maintained for additional 1.9 min (13min in total).; Injection volume: 10 μL
Num peaks: 31
83.04996 58387
98.0823 6814
98.09806 6712
113.06087 8131
115.05681 8900
115.07681 11023
116.07222 16575
116.10823 56335
123.08182 7032
127.07656 23579
158.11894 559414
159.12209 49869
233.15469 10991
342.22781 6602
408.27542 9602
522.34283 50490
523.34656 16137
540.35498 41564
541.35651 12253
542.36652 7455
558.36487 78867
559.36737 24551
560.37518 10492
576.37482 194633
577.37787 60425
578.38031 12310
698.44604 8309
716.45782 20000
717.46344 7424
718.47028 6170
734.46881 134508
Name: Tripropylene glycol butyl ether
PrecursorMZ: 266.2338
PrecursorType: [M+NH4]+
IonMode: Positive
Formula: C13H28O4
SMILES: CCCCOC(CC)OC(C)COC(CC)O
InChI: 
InChIKey: RNFAKTRFMQEEQE-UHFFFAOYSA-N
RetentionTime: 6.72465
CCS: 
CollisionEnergy: 20-40 eV
InstrumentType: UPLC-QTOF-MS
Comment: PI: Cristina Nerin; Data collector: QiZhi Su, GUIA, University of Zaragoza, Spain; Collision energy: 20-40 V; Instrument: Waters HPLC-QTOF-MS (Xevo G2 QTof); Ionization: ESI; Deconvoluted by MS-DIAL; Column: Waters AtlantisTM premier BEH C18 AX column (2.1 × 100mm x 1.7μm); Flow rate: 0.3mL/min; Mobile phase A and B are water and methnaol, respectively, both with 0.1% formic acid; Gradient elution: from A/B (95/5) to A/B (100/0) in 7min, kept for 4 min, then back to A/B (95/5) in 0.1 min, and maintained for additional 1.9 min (13min in total).; Injection volume: 10 μL
Num peaks: 26
57.03378 406
57.07067 5316
59.04999 32739
60.05376 1444
99.01488 431
105.03317 767
111.01025 477
112.99152 628
113.02676 938
113.03374 346
115.0013 429
115.00941 561
116.04628 388
116.0547 515
117.08889 681
125.05421 685
128.9639 688
144.07793 2445
153.08324 502
171.06985 1624
172.09711 426
173.04817 776
185.02638 515
185.03322 374
229.11526 1005
255.21469 655
Name: Tripropylene glycol butyl ether
PrecursorMZ: 249.2085
PrecursorType: [M+H]+
IonMode: Positive
Formula: C13H28O4
SMILES: CCCCOC(CC)OC(C)COC(CC)O
InChI: 
InChIKey: RNFAKTRFMQEEQE-UHFFFAOYSA-N
RetentionTime: 6.7475
CCS: 
CollisionEnergy: 20-40 eV
InstrumentType: UPLC-QTOF-MS
Comment: PI: Cristina Nerin; Data collector: QiZhi Su, GUIA, University of Zaragoza, Spain; Collision energy: 20-40 V; Instrument: Waters HPLC-QTOF-MS (Xevo G2 QTof); Ionization: ESI; Deconvoluted by MS-DIAL; Column: Waters AtlantisTM premier BEH C18 AX column (2.1 × 100mm x 1.7μm); Flow rate: 0.3mL/min; Mobile phase A and B are water and methnaol, respectively, both with 0.1% formic acid; Gradient elution: from A/B (95/5) to A/B (100/0) in 7min, kept for 4 min, then back to A/B (95/5) in 0.1 min, and maintained for additional 1.9 min (13min in total).; Injection volume: 10 μL
Num peaks: 34
57.07063 6904
59.03614 42864
59.04972 42868
60.04884 1768
60.05354 1770
97.00264 554
97.01523 478
112.99079 440
112.99635 436
113.02723 860
113.04681 655
115.00956 719
115.11335 952
116.0444 569
116.05151 565
116.05643 566
117.08817 656
117.09527 710
128.96185 666
128.97215 671
144.07877 1996
144.10039 878
171.06889 1173
171.08614 1035
172.09467 502
173.04964 794
185.02127 744
185.02798 761
185.04646 452
229.10478 853
229.11469 834
231.08293 494
231.09572 499
245.08224 517
Name: Tripropylene glycol butyl ether
PrecursorMZ: 287.1628
PrecursorType: [M+K]+
IonMode: Positive
Formula: C13H28O4
SMILES: CCCCOC(CC)OC(C)COC(CC)O
InChI: 
InChIKey: RNFAKTRFMQEEQE-UHFFFAOYSA-N
RetentionTime: 6.7475
CCS: 
CollisionEnergy: 20-40 eV
InstrumentType: UPLC-QTOF-MS
Comment: PI: Cristina Nerin; Data collector: QiZhi Su, GUIA, University of Zaragoza, Spain; Collision energy: 20-40 V; Instrument: Waters HPLC-QTOF-MS (Xevo G2 QTof); Ionization: ESI; Deconvoluted by MS-DIAL; Column: Waters AtlantisTM premier BEH C18 AX column (2.1 × 100mm x 1.7μm); Flow rate: 0.3mL/min; Mobile phase A and B are water and methnaol, respectively, both with 0.1% formic acid; Gradient elution: from A/B (95/5) to A/B (100/0) in 7min, kept for 4 min, then back to A/B (95/5) in 0.1 min, and maintained for additional 1.9 min (13min in total).; Injection volume: 10 μL
Num peaks: 19
57.07063 6490
58.06298 425
58.06702 425
58.07479 423
59.03614 41445
59.04972 41492
60.04884 1806
60.05354 1806
105.0319 765
105.04008 771
115.11335 969
117.08817 558
117.09527 608
144.07877 1229
144.10039 875
272.18893 3625
272.20053 3626
273.19055 512
287.14893 1445
Name: Tripropylene glycol butyl ether
PrecursorMZ: 271.1896
PrecursorType: [M+Na]+
IonMode: Positive
Formula: C13H28O4
SMILES: CCCCOC(CC)OC(C)COC(CC)O
InChI: 
InChIKey: RNFAKTRFMQEEQE-UHFFFAOYSA-N
RetentionTime: 6.7513
CCS: 
CollisionEnergy: 20-40 eV
InstrumentType: UPLC-QTOF-MS
Comment: PI: Cristina Nerin; Data collector: QiZhi Su, GUIA, University of Zaragoza, Spain; Collision energy: 20-40 V; Instrument: Waters HPLC-QTOF-MS (Xevo G2 QTof); Ionization: ESI; Deconvoluted by MS-DIAL; Column: Waters AtlantisTM premier BEH C18 AX column (2.1 × 100mm x 1.7μm); Flow rate: 0.3mL/min; Mobile phase A and B are water and methnaol, respectively, both with 0.1% formic acid; Gradient elution: from A/B (95/5) to A/B (100/0) in 7min, kept for 4 min, then back to A/B (95/5) in 0.1 min, and maintained for additional 1.9 min (13min in total).; Injection volume: 10 μL
Num peaks: 42
57.03383 341
57.04497 338
57.07129 7009
59.05001 1280
96.99438 451
97.01421 487
111.00613 366
111.01379 369
112.99226 496
113.00408 437
113.02774 984
113.0547 314
114.98581 311
114.99448 960
115.00932 765
115.02557 729
116.04916 584
116.05836 597
125.05535 289
128.96457 642
144.06401 1934
144.07643 2126
144.0838 2132
144.10315 492
153.06744 361
153.0833 430
171.06035 1361
171.06944 1351
171.09079 529
172.09598 404
173.04305 834
173.05226 857
173.153 371
185.02681 568
187.03587 297
187.04953 287
229.10732 968
229.1207 964
231.09395 501
245.08292 523
255.21338 699
271.18845 27616
Name: Adipic acid
PrecursorMZ: 169.0462
PrecursorType: [M+Na]+
IonMode: Positive
Formula: C6H10O4
SMILES: C(CCC(=O)O)CC(=O)O
InChI: 
InChIKey: WNLRTRBMVRJNCN-UHFFFAOYSA-N
RetentionTime: 3.070067
CCS: 
CollisionEnergy: 20-40 eV
InstrumentType: UPLC-QTOF-MS
Comment: PI: Cristina Nerin; Data collector: QiZhi Su, GUIA, University of Zaragoza, Spain; Collision energy: 20-40 V; Instrument: Waters HPLC-QTOF-MS (Xevo G2 QTof); Ionization: ESI; Deconvoluted by MS-DIAL; Column: Waters AtlantisTM premier BEH C18 AX column (2.1 × 100mm x 1.7μm); Flow rate: 0.3mL/min; Mobile phase A and B are water and methnaol, respectively, both with 0.1% formic acid; Gradient elution: from A/B (95/5) to A/B (100/0) in 7min, kept for 4 min, then back to A/B (95/5) in 0.1 min, and maintained for additional 1.9 min (13min in total).; Injection volume: 10 μL
Num peaks: 216
50.4711 22
51.84647 27
55.0529 56
55.05887 94
56.96279 25
56.96769 23
59.84789 35
65.06464 116
67.05495 31
67.45974 40
69.07116 21
69.07941 95
70.06625 49
70.7841 25
70.95058 59
70.95635 26
71.11245 46
72.93852 84
72.99106 20
73.06064 52
73.06838 45
74.93708 62
75.35137 25
76.6993 24
77.03929 92
78.04055 77
78.98186 26
78.98753 20
79.02644 29
79.05753 46
79.98042 31
80.04655 74
80.98098 23
81.07217 20
81.96687 23
82.03866 33
82.95412 36
82.9818 22
83.04756 278
83.05447 139
83.95107 21
83.97897 20
84.0521 27
84.9584 291
85.06892 48
86.03263 29
86.57512 33
87.95885 36
88.08058 53
88.98377 30
89.05925 23
90.09158 28
90.90968 24
90.96893 27
91.0584 93
91.56802 20
92.95531 51
93.01453 53
93.06944 89
93.0751 38
94.07845 45
95.00755 20
95.08263 29
95.08783 51
96.02799 34
96.07715 26
96.08274 35
96.95996 40
97.97132 39
97.99241 29
98.09321 28
99.00421 33
99.97926 35
100.08554 21
100.93423 48
101.02349 59
101.05907 57
101.94335 139
103.95699 46
103.97697 25
105.06963 53
106.0615 24
106.33835 33
107.03046 107
107.05611 36
107.08889 50
109.0342 36
109.10435 56
109.97347 22
109.98355 100
110.97483 24
110.98885 24
111.03534 22
111.044 117
112.92818 23
112.96275 28
112.98949 90
112.99633 39
113.97706 34
114.06232 29
115.00877 28
115.80682 21
116.02102 27
116.10231 35
116.36537 125
116.97273 47
117.06782 58
117.07716 29
119.02014 27
119.07655 30
120.95948 35
120.99406 201
120.99986 120
121.02263 25
121.03075 60
121.07228 24
122.00102 146
122.07394 44
123.0126 1541
123.07872 32
123.11435 67
123.29518 25
124.02434 36
124.87624 25
125.006 26
125.05381 23
126.97403 21
127.00316 38
127.03794 53
127.99224 90
127.99858 75
128.94907 37
128.96103 122
128.9725 20
129.10652 29
131.05907 22
131.98813 52
132.04723 21
133.10545 21
134.05836 32
134.09047 32
134.91943 20
135.08173 23
135.10876 34
135.32655 26
135.95935 26
135.97203 23
136.96457 27
136.97755 37
136.98834 25
136.99792 25
137.98088 76
138.02541 20
138.98029 204
138.98767 147
139.00949 95
139.07312 24
139.25931 21
139.95491 45
139.99112 124
140.06792 26
140.20149 32
140.9957 101
141.0181 112
141.03015 229
141.03938 116
141.97623 53
142.26753 20
143.04405 77
143.9948 51
144.08627 23
145.0062 32
146.99648 117
147.04478 35
147.0623 64
147.93005 23
148.11871 25
149.0127 30
149.05803 147
150.09888 34
150.96254 20
151.02271 61
151.48715 21
151.95332 36
151.98343 26
152.02744 23
153.97141 30
153.99989 29
154.0406 28
154.96553 20
154.97679 22
155.01282 32
155.02623 83
155.03352 29
155.98225 93
155.98975 332
156.96364 56
156.97665 59
156.99541 444
157.01086 37
158.11215 43
158.12291 121
158.13387 43
159.00095 20
159.94786 25
160.96461 23
161.09892 29
163.07326 24
165.05937 26
167.00227 1887
168.00603 156
168.07974 32
168.08943 21
169.01309 87
169.02751 28
169.04802 158
Name: "2,4-Diaminoanisole"
PrecursorMZ: 139.0877
PrecursorType: [M+H]+
IonMode: Positive
Formula: C7H10N2O
SMILES: COC1=C(C=C(C=C1)N)N
InChI: 
InChIKey: BAHPQISAXRFLCL-UHFFFAOYSA-N
RetentionTime: 0.5968333
CCS: 
CollisionEnergy: 20-40 eV
InstrumentType: UPLC-QTOF-MS
Comment: PI: Cristina Nerin; Data collector: QiZhi Su, GUIA, University of Zaragoza, Spain; Collision energy: 20-40 V; Instrument: Waters HPLC-QTOF-MS (Xevo G2 QTof); Ionization: ESI; Deconvoluted by MS-DIAL; Column: Waters AtlantisTM premier BEH C18 AX column (2.1 × 100mm x 1.7μm); Flow rate: 0.3mL/min; Mobile phase A and B are water and methnaol, respectively, both with 0.1% formic acid; Gradient elution: from A/B (95/5) to A/B (100/0) in 7min, kept for 4 min, then back to A/B (95/5) in 0.1 min, and maintained for additional 1.9 min (13min in total).; Injection volume: 10 μL
Num peaks: 139
55.68911 29
56.02137 27
60.98843 61
61.51051 46
63.00299 32
65.05993 23
67.93698 21
68.05151 30
68.05844 20
69.03064 24
69.43331 52
70.02064 281
70.99542 20
71.0839 24
72.93905 73
72.98411 22
73.94189 28
75.04659 106
77.04092 21
77.3119 20
78.52866 20
79.02473 66
79.04018 46
79.05287 22
80.04716 25
81.05708 38
81.07529 31
81.95158 36
82.82854 94
83.05311 21
83.05861 32
84.95197 21
84.96014 194
84.96671 292
85.02874 41
85.05958 22
85.9451 25
86.95364 81
86.96738 24
88.98462 46
89.05912 23
90.89998 20
90.99854 52
91.06181 52
92.0471 27
93.01612 23
93.05785 22
93.07041 76
94.06853 20
95.05716 86
95.0843 59
95.97532 25
96.03475 24
96.07008 28
96.08603 23
96.96368 36
97.04099 33
97.04958 58
97.95287 24
97.96437 50
98.04667 151
98.59723 24
98.95625 50
98.96107 54
98.97065 69
98.99338 30
99.94642 20
100.92942 21
100.93881 113
100.94365 33
100.95575 20
100.99332 38
101.94189 145
102.05315 35
102.93578 32
105.06529 26
105.07206 38
105.07687 29
106.01592 27
106.06509 45
107.0289 29
107.05124 55
107.08517 21
108.06657 86
108.07383 66
109.04044 40
109.96294 21
110.07966 30
110.97362 30
110.98273 27
111.05608 91
111.06319 49
113.03983 46
113.09522 33
113.96578 41
114.03583 61
114.95151 26
114.97603 26
115.98545 21
116.9727 22
117.07736 42
117.93491 24
117.96597 20
118.09522 35
118.95902 23
119.08704 20
120.95586 26
121.03816 22
121.99523 37
122.05704 28
123.05804 170
123.08222 54
123.08904 167
123.19791 58
123.97382 27
124.02511 98
124.03336 113
124.06228 299
124.07426 41
124.94871 20
124.9649 28
125.03426 451
126.6506 161
128.26543 33
128.98431 25
129.09853 26
129.97159 28
130.9393 27
130.99307 21
131.94945 42
133.91869 58
136.93176 25
137.08185 90
137.97087 46
138.03336 24
138.07796 22
139.0461 118
139.05246 97
139.08272 25
Name: "2,4-Diaminoanisole"
PrecursorMZ: 139.088
PrecursorType: [M+H]+
IonMode: Positive
Formula: C7H10N2O
SMILES: COC1=C(C=C(C=C1)N)N
InChI: 
InChIKey: BAHPQISAXRFLCL-UHFFFAOYSA-N
RetentionTime: 0.5968167
CCS: 
CollisionEnergy: 20-40 eV
InstrumentType: UPLC-QTOF-MS
Comment: PI: Cristina Nerin; Data collector: QiZhi Su, GUIA, University of Zaragoza, Spain; Collision energy: 20-40 V; Instrument: Waters HPLC-QTOF-MS (Xevo G2 QTof); Ionization: ESI; Deconvoluted by MS-DIAL; Column: Waters AtlantisTM premier BEH C18 AX column (2.1 × 100mm x 1.7μm); Flow rate: 0.3mL/min; Mobile phase A and B are water and methnaol, respectively, both with 0.1% formic acid; Gradient elution: from A/B (95/5) to A/B (100/0) in 7min, kept for 4 min, then back to A/B (95/5) in 0.1 min, and maintained for additional 1.9 min (13min in total).; Injection volume: 10 μL
Num peaks: 103
65.03856 144
65.04324 139
66.03407 29
67.04903 55
67.06096 56
68.03665 128
68.0497 102
69.05537 26
70.05901 41
70.07323 22
72.98764 23
75.04533 29
75.05983 29
77.03963 200
78.0347 77
79.01823 47
79.04269 204
79.05492 196
80.02806 111
80.03513 319
80.04932 280
82.0649 32
83.05032 98
83.05861 98
83.06446 91
84.04104 171
84.06715 69
85.0311 70
85.53853 12
88.97397 12
90.02736 50
90.03377 50
90.04145 50
92.0497 51
93.05379 56
93.06207 59
94.06099 61
94.06709 59
95.06319 274
95.0705 289
95.08541 130
96.02581 134
96.03228 153
96.0453 158
96.0629 109
96.07111 76
97.03725 108
97.04522 105
98.04439 340
98.05107 331
98.05753 327
107.01869 102
107.03305 116
107.03894 90
107.06248 192
108.06619 645
108.07083 646
109.05324 17
109.06641 24
109.07457 17
110.03667 85
110.05535 60
110.99333 18
111.05573 405
112.03699 93
112.04461 98
112.07173 25
112.99783 16
113.02172 363
113.0358 356
113.04062 357
115.08098 12
116.9718 18
116.9856 19
119.05404 24
121.04268 37
122.05982 71
123.05386 236
123.05848 236
124.03069 310
124.06461 721
125.03732 1124
125.06319 107
125.08181 58
126.0355 143
126.04433 175
126.05921 145
126.06859 58
132.90424 24
134.93365 12
135.01442 117
135.01891 117
135.0285 114
135.11241 22
135.12721 22
136.92198 12
138.0274 18
139.03946 489
139.05305 538
139.06339 542
139.07782 56
139.0874 291
139.26154 27
Name: Trimethylolpropane
PrecursorMZ: 135.103
PrecursorType: [M+H]+
IonMode: Positive
Formula: C6H14O3
SMILES: CCC(CO)(CO)CO
InChI: 
InChIKey: ZJCCRDAZUWHFQH-UHFFFAOYSA-N
RetentionTime: 1.00035
CCS: 
CollisionEnergy: 20-40 eV
InstrumentType: UPLC-QTOF-MS
Comment: PI: Cristina Nerin; Data collector: QiZhi Su, GUIA, University of Zaragoza, Spain; Collision energy: 20-40 V; Instrument: Waters HPLC-QTOF-MS (Xevo G2 QTof); Ionization: ESI; Deconvoluted by MS-DIAL; Column: Waters AtlantisTM premier BEH C18 AX column (2.1 × 100mm x 1.7μm); Flow rate: 0.3mL/min; Mobile phase A and B are water and methnaol, respectively, both with 0.1% formic acid; Gradient elution: from A/B (95/5) to A/B (100/0) in 7min, kept for 4 min, then back to A/B (95/5) in 0.1 min, and maintained for additional 1.9 min (13min in total).; Injection volume: 10 μL
Num peaks: 123
57.03387 16
65.04282 31
67.0564 47
69.92903 13
71.04909 41
71.07238 83
71.07856 56
71.08739 56
72.0689 173
72.08264 154
76.16535 12
78.06386 17
79.05544 163
81.06725 290
81.07268 281
81.52632 12
81.54016 16
81.95161 13
83.25481 18
83.28707 18
83.35841 17
83.36695 17
83.57017 16
83.60789 15
83.68378 16
83.92792 20
83.96638 45
83.97312 47
84.03321 1166
84.08128 17
84.23451 19
85.05016 145
86.1467 20
87.06832 12
89.05876 29
89.06389 30
89.07784 92
89.7672 17
90.14551 13
92.58425 21
93.06585 12
93.07388 19
93.08975 14
94.0539 20
94.06393 14
95.24039 18
95.97342 16
97.24036 16
98.05444 16
98.07125 12
98.95219 16
99.1565 17
100.07755 75
100.09218 44
101.01608 18
101.08659 31
102.03427 40
102.08657 20
102.09447 38
103.09405 13
105.0586 18
105.07188 21
105.30309 18
107.11742 13
107.95287 37
108.03168 12
108.74203 31
109.02784 19
110.09259 56
113.95693 16
114.02414 13
114.40187 17
114.47672 12
114.63252 23
114.79167 17
115.07658 387
115.09174 336
115.99268 28
116.03732 55
116.10805 97
116.12694 40
116.9565 77
117.09289 573
117.11109 640
117.13607 37
117.53375 17
118.06912 38
118.07542 114
118.08521 121
118.10654 87
118.13892 115
118.45651 30
119.43896 14
119.74161 21
120.60799 19
120.96724 12
121.10046 46
121.10667 25
123.1142 20
123.22366 19
125.06117 35
125.13519 14
126.04768 25
127.74022 14
128.11534 43
128.20889 12
128.50169 24
128.96724 14
129.05702 73
129.07741 63
129.08481 15
130.65991 17
131.49455 21
131.51505 16
132.45969 16
132.47342 18
132.9537 24
133.07669 35
133.08501 51
133.09221 40
133.10291 36
135.11296 60
135.27216 35
Name: Trimethylolpropane
PrecursorMZ: 157.0851
PrecursorType: [M+Na]+
IonMode: Positive
Formula: C6H14O3
SMILES: CCC(CO)(CO)CO
InChI: 
InChIKey: ZJCCRDAZUWHFQH-UHFFFAOYSA-N
RetentionTime: 1.922633
CCS: 
CollisionEnergy: 20-40 eV
InstrumentType: UPLC-QTOF-MS
Comment: PI: Cristina Nerin; Data collector: QiZhi Su, GUIA, University of Zaragoza, Spain; Collision energy: 20-40 V; Instrument: Waters HPLC-QTOF-MS (Xevo G2 QTof); Ionization: ESI; Deconvoluted by MS-DIAL; Column: Waters AtlantisTM premier BEH C18 AX column (2.1 × 100mm x 1.7μm); Flow rate: 0.3mL/min; Mobile phase A and B are water and methnaol, respectively, both with 0.1% formic acid; Gradient elution: from A/B (95/5) to A/B (100/0) in 7min, kept for 4 min, then back to A/B (95/5) in 0.1 min, and maintained for additional 1.9 min (13min in total).; Injection volume: 10 μL
Num peaks: 217
55.05511 49
55.93195 23
55.93497 37
56.96105 24
56.96673 21
57.0727 26
59.46386 20
60.98423 24
60.99058 108
61.03019 27
63.00262 66
67.05846 27
69.0699 337
70.06757 27
70.94231 45
70.95247 54
70.96194 41
70.96626 44
71.05137 94
71.62443 33
72.98827 45
73.0295 30
74.96888 26
74.97768 26
76.99605 23
77.0144 39
77.04028 25
78.9864 33
79.05428 271
80.05547 22
81.00338 144
81.07063 507
81.0771 92
82.07128 60
82.95904 20
82.97667 31
83.00752 20
83.04919 122
83.05808 25
83.96232 27
83.98438 30
84.95627 153
84.9632 88
84.97248 57
85.94267 23
86.97578 54
87.02861 36
88.03896 24
88.0715 25
88.97977 39
88.98431 25
89.08224 48
89.9557 29
90.94367 44
91.00967 74
92.05089 47
93.01836 65
93.98032 49
95.08327 52
96.026 48
96.03229 187
96.03904 42
97.06188 43
97.98698 30
98.94879 47
98.9582 33
98.97962 93
98.99497 53
99.07625 76
99.96903 20
100.02659 59
100.96801 20
101.02449 76
101.94113 75
101.97118 25
102.06561 33
103.03972 90
104.04745 43
105.01476 22
105.03966 187
105.80183 37
106.01999 61
106.96269 33
107.08574 98
107.96771 24
107.99127 25
108.98304 27
109.04965 43
109.09975 33
109.97939 89
109.98625 333
110.0414 21
110.06891 23
110.9555 49
111.95924 37
111.96508 88
111.99799 68
112.04662 45
112.96578 126
112.97448 271
112.98659 60
112.99358 182
113.76212 47
113.96685 24
113.98193 42
114.42935 36
114.9912 140
115.03253 21
115.95561 149
116.96514 23
116.99874 37
117.09361 50
117.93565 35
118.0965 172
118.98624 24
118.9952 21
119.00191 24
119.04691 20
119.08256 26
119.08807 30
120.07932 39
121.0745 79
122.03974 31
123.00919 121
123.04697 28
123.07968 25
123.11776 25
123.99785 85
124.00449 31
124.96947 83
125.01155 67
125.02535 850
125.03228 897
125.04716 37
125.60026 33
125.96859 96
126.00521 42
126.03074 40
126.97732 24
127.00259 22
127.03466 33
127.05674 113
127.07381 48
127.95415 30
127.9687 30
128.06175 61
128.06775 27
128.98869 29
129.05414 135
129.07014 56
129.97789 35
130.04776 20
130.06264 47
130.2054 24
130.22641 35
130.98959 92
131.12444 31
133.04933 45
135.0428 26
135.10974 20
135.49477 32
136.00456 45
136.95921 83
138.05394 30
138.119 33
138.95169 34
138.98792 145
139.00137 24
139.9879 236
139.99507 764
140.00598 122
140.98601 114
140.99747 285
141.00615 133
141.02737 28
141.05185 50
141.11223 50
141.118 59
141.97151 69
142.00882 207
142.02008 61
142.11484 58
142.14983 33
142.98257 30
143.00195 112
143.03555 239
143.04465 257
144.0417 77
144.09973 25
144.97081 37
145.04274 20
146.98943 47
147.06313 94
149.01765 40
149.03033 77
149.91295 20
150.05109 42
150.09444 26
150.99727 38
151.05537 163
152.05806 20
152.57434 20
153.57343 142
154.07123 271
154.50385 23
154.57964 123
154.96425 64
154.99014 21
154.99925 21
155.03966 63
155.99117 42
156.03975 27
156.96605 36
156.99985 74
157.06128 32
157.07088 93
157.08142 228
Name: "2,4,6-Tris((dimethylamino)methyl)phenol"
PrecursorMZ: 266.2249
PrecursorType: [M+H]+
IonMode: Positive
Formula: C15H27N3O
SMILES: CN(C)CC1=CC(=C(C(=C1)CN(C)C)O)CN(C)C
InChI: 
InChIKey: AHDSRXYHVZECER-UHFFFAOYSA-N
RetentionTime: 0.4706833
CCS: 
CollisionEnergy: 20-40 eV
InstrumentType: UPLC-QTOF-MS
Comment: PI: Cristina Nerin; Data collector: QiZhi Su, GUIA, University of Zaragoza, Spain; Collision energy: 20-40 V; Instrument: Waters HPLC-QTOF-MS (Xevo G2 QTof); Ionization: ESI; Deconvoluted by MS-DIAL; Column: Waters AtlantisTM premier BEH C18 AX column (2.1 × 100mm x 1.7μm); Flow rate: 0.3mL/min; Mobile phase A and B are water and methnaol, respectively, both with 0.1% formic acid; Gradient elution: from A/B (95/5) to A/B (100/0) in 7min, kept for 4 min, then back to A/B (95/5) in 0.1 min, and maintained for additional 1.9 min (13min in total).; Injection volume: 10 μL
Num peaks: 47
72.98754 30
77.03703 93
77.0425 93
78.04003 55
79.04094 518
79.05578 535
85.93951 30
85.94615 30
86.95238 68
88.96107 42
98.96363 95
99.96628 51
99.97629 54
100.93302 29
100.93629 41
100.95239 56
100.96107 82
103.04697 394
103.05447 394
103.06055 392
105.07198 1657
106.06122 158
106.07242 147
106.6028 26
116.98436 26
118.93705 27
131.94897 19
133.05121 1673
133.0607 1640
133.06622 1655
134.05669 141
134.07169 150
135.07405 62
135.08205 62
170.0043 38
177.09961 100
177.10907 96
178.1228 865
178.13293 858
179.12856 56
205.12654 21
221.16425 112
221.17812 80
222.15736 42
222.16908 24
266.21951 249
266.23804 28
Name: hexaoxyethylene glycol
PrecursorMZ: 321.1302
PrecursorType: [M+K]+
IonMode: Positive
Formula: C12H26O7
SMILES: C(COCCOCCOCCOCCOCCO)O
InChI: 
InChIKey: IIRDTKBZINWQAW-UHFFFAOYSA-N
RetentionTime: 3.039083
CCS: 
CollisionEnergy: 20-40 eV
InstrumentType: UPLC-QTOF-MS
Comment: PI: Cristina Nerin; Data collector: QiZhi Su, GUIA, University of Zaragoza, Spain; Collision energy: 20-40 V; Instrument: Waters HPLC-QTOF-MS (Xevo G2 QTof); Ionization: ESI; Deconvoluted by MS-DIAL; Column: Waters AtlantisTM premier BEH C18 AX column (2.1 × 100mm x 1.7μm); Flow rate: 0.3mL/min; Mobile phase A and B are water and methnaol, respectively, both with 0.1% formic acid; Gradient elution: from A/B (95/5) to A/B (100/0) in 7min, kept for 4 min, then back to A/B (95/5) in 0.1 min, and maintained for additional 1.9 min (13min in total).; Injection volume: 10 μL
Num peaks: 27
89.061 10788
89.0743 10793
90.06335 455
90.0685 454
100.97247 175
100.99104 368
100.9994 380
101.0168 114
133.08646 2018
133.09538 2012
134.09036 113
145.01395 442
145.02344 445
161.07039 119
177.10457 158
177.11391 160
189.04266 397
189.05341 412
233.06802 441
233.07819 434
277.09073 278
277.10593 278
289.17926 249
289.20032 166
305.15683 5538
306.15979 570
321.12549 661
Name: hexaoxyethylene glycol
PrecursorMZ: 283.1761
PrecursorType: [M+H]+
IonMode: Positive
Formula: C12H26O7
SMILES: C(COCCOCCOCCOCCOCCO)O
InChI: 
InChIKey: IIRDTKBZINWQAW-UHFFFAOYSA-N
RetentionTime: 3.042883
CCS: 
CollisionEnergy: 20-40 eV
InstrumentType: UPLC-QTOF-MS
Comment: PI: Cristina Nerin; Data collector: QiZhi Su, GUIA, University of Zaragoza, Spain; Collision energy: 20-40 V; Instrument: Waters HPLC-QTOF-MS (Xevo G2 QTof); Ionization: ESI; Deconvoluted by MS-DIAL; Column: Waters AtlantisTM premier BEH C18 AX column (2.1 × 100mm x 1.7μm); Flow rate: 0.3mL/min; Mobile phase A and B are water and methnaol, respectively, both with 0.1% formic acid; Gradient elution: from A/B (95/5) to A/B (100/0) in 7min, kept for 4 min, then back to A/B (95/5) in 0.1 min, and maintained for additional 1.9 min (13min in total).; Injection volume: 10 μL
Num peaks: 19
89.06036 10788
89.07539 10793
90.06465 455
90.07356 454
100.9892 372
100.99738 378
133.08693 2018
134.08313 114
134.09296 115
145.0192 445
145.02861 444
161.06653 126
177.10887 159
177.12045 166
189.04417 397
189.05341 412
233.07243 446
277.09622 283
277.1149 202
Name: hexaoxyethylene glycol
PrecursorMZ: 300.2019
PrecursorType: [M+NH4]+
IonMode: Positive
Formula: C12H26O7
SMILES: C(COCCOCCOCCOCCOCCO)O
InChI: 
InChIKey: IIRDTKBZINWQAW-UHFFFAOYSA-N
RetentionTime: 3.042883
CCS: 
CollisionEnergy: 20-40 eV
InstrumentType: UPLC-QTOF-MS
Comment: PI: Cristina Nerin; Data collector: QiZhi Su, GUIA, University of Zaragoza, Spain; Collision energy: 20-40 V; Instrument: Waters HPLC-QTOF-MS (Xevo G2 QTof); Ionization: ESI; Deconvoluted by MS-DIAL; Column: Waters AtlantisTM premier BEH C18 AX column (2.1 × 100mm x 1.7μm); Flow rate: 0.3mL/min; Mobile phase A and B are water and methnaol, respectively, both with 0.1% formic acid; Gradient elution: from A/B (95/5) to A/B (100/0) in 7min, kept for 4 min, then back to A/B (95/5) in 0.1 min, and maintained for additional 1.9 min (13min in total).; Injection volume: 10 μL
Num peaks: 21
89.06036 10788
89.07539 10793
90.06465 455
90.07356 454
100.9892 372
100.99738 378
133.08693 2018
134.08313 114
134.09296 115
145.0192 445
145.02861 444
161.06653 126
177.10887 159
177.12045 166
189.04417 397
189.05341 412
233.07243 446
277.09622 283
277.1149 202
289.17294 233
289.19168 269
Name: hexaoxyethylene glycol
PrecursorMZ: 305.1581
PrecursorType: [M+Na]+
IonMode: Positive
Formula: C12H26O7
SMILES: C(COCCOCCOCCOCCOCCO)O
InChI: 
InChIKey: IIRDTKBZINWQAW-UHFFFAOYSA-N
RetentionTime: 3.0467
CCS: 
CollisionEnergy: 20-40 eV
InstrumentType: UPLC-QTOF-MS
Comment: PI: Cristina Nerin; Data collector: QiZhi Su, GUIA, University of Zaragoza, Spain; Collision energy: 20-40 V; Instrument: Waters HPLC-QTOF-MS (Xevo G2 QTof); Ionization: ESI; Deconvoluted by MS-DIAL; Column: Waters AtlantisTM premier BEH C18 AX column (2.1 × 100mm x 1.7μm); Flow rate: 0.3mL/min; Mobile phase A and B are water and methnaol, respectively, both with 0.1% formic acid; Gradient elution: from A/B (95/5) to A/B (100/0) in 7min, kept for 4 min, then back to A/B (95/5) in 0.1 min, and maintained for additional 1.9 min (13min in total).; Injection volume: 10 μL
Num peaks: 24
89.0609 10790
90.0593 455
90.06604 455
100.99005 372
100.99744 378
101.01728 116
133.08598 2018
133.0979 2018
134.09686 120
145.01808 445
145.02805 444
161.06427 127
161.07542 113
177.10622 158
177.12231 166
189.03561 397
189.04472 397
233.05562 443
233.07277 444
233.08168 430
277.09418 274
289.17987 249
289.19095 269
305.15869 6337
Name: Tocopheryl acetate
PrecursorMZ: 495.3833
PrecursorType: [M+Na]+
IonMode: Positive
Formula: C31H52O3
SMILES: CC1=C(C(=C(C2=C1OC(CC2)(C)CCCC(C)CCCC(C)CCCC(C)C)C)OC(=O)C)C
InChI: 
InChIKey: ZAKOWWREFLAJOT-CEFNRUSXSA-N
RetentionTime: 10.50057
CCS: 
CollisionEnergy: 20-40 eV
InstrumentType: UPLC-QTOF-MS
Comment: PI: Cristina Nerin; Data collector: QiZhi Su, GUIA, University of Zaragoza, Spain; Collision energy: 20-40 V; Instrument: Waters HPLC-QTOF-MS (Xevo G2 QTof); Ionization: ESI; Deconvoluted by MS-DIAL; Column: Waters AtlantisTM premier BEH C18 AX column (2.1 × 100mm x 1.7μm); Flow rate: 0.3mL/min; Mobile phase A and B are water and methnaol, respectively, both with 0.1% formic acid; Gradient elution: from A/B (95/5) to A/B (100/0) in 7min, kept for 4 min, then back to A/B (95/5) in 0.1 min, and maintained for additional 1.9 min (13min in total).; Injection volume: 10 μL
Num peaks: 28
60.08207 7720
69.07059 6967
71.08724 4538
83.08678 8411
85.10271 4092
97.10246 9193
111.11852 6701
125.13409 3591
135.08238 4910
147.08154 12780
149.09711 11801
153.0927 6562
165.09273 69670
166.095 7034
189.12808 3038
195.10391 3881
207.10338 259734
208.10649 31557
209.10899 3475
431.39105 8682
432.39362 3346
473.40073 232301
474.40451 70200
475.40692 12705
490.42703 38188
491.42987 12851
492.43439 2665
495.38245 241844
Name: Tocopheryl acetate
PrecursorMZ: 983.7478
PrecursorType: [2M+K]+
IonMode: Positive
Formula: C31H52O3
SMILES: CC1=C(C(=C(C2=C1OC(CC2)(C)CCCC(C)CCCC(C)CCCC(C)C)C)OC(=O)C)C
InChI: 
InChIKey: ZAKOWWREFLAJOT-CEFNRUSXSA-N
RetentionTime: 10.53102
CCS: 
CollisionEnergy: 20-40 eV
InstrumentType: UPLC-QTOF-MS
Comment: PI: Cristina Nerin; Data collector: QiZhi Su, GUIA, University of Zaragoza, Spain; Collision energy: 20-40 V; Instrument: Waters HPLC-QTOF-MS (Xevo G2 QTof); Ionization: ESI; Deconvoluted by MS-DIAL; Column: Waters AtlantisTM premier BEH C18 AX column (2.1 × 100mm x 1.7μm); Flow rate: 0.3mL/min; Mobile phase A and B are water and methnaol, respectively, both with 0.1% formic acid; Gradient elution: from A/B (95/5) to A/B (100/0) in 7min, kept for 4 min, then back to A/B (95/5) in 0.1 min, and maintained for additional 1.9 min (13min in total).; Injection volume: 10 μL
Num peaks: 509
50.08234 27
50.32039 31
50.33157 30
51.97282 28
51.97961 34
53.31832 27
54.25075 38
54.92573 25
55.28224 51
55.31726 59
57.82663 32
58.07385 130
58.12438 31
59.05057 31
59.05538 28
59.50103 58
60.06129 2471
60.08186 1438
60.80122 33
60.8155 32
66.19384 32
68.14549 26
69.07139 556
70.56088 80
72.06306 37
72.07989 35
72.08652 37
72.0939 35
73.09717 26
74.09293 136
74.09701 144
74.10355 154
74.11193 153
74.11672 278
74.61863 29
74.69193 130
79.0467 48
79.05444 50
79.06594 61
80.96758 57
81.06975 51
85.10265 243
88.95325 35
88.9595 34
89.06277 37
90.73461 53
91.26601 61
91.47679 90
95.07428 209
95.08424 166
95.08911 165
98.10091 103
98.10671 105
99.09931 69
99.13709 48
99.65607 32
99.66192 37
100.93373 41
101.05559 31
101.06306 38
101.07542 77
102.09367 44
102.1059 85
103.12531 36
103.1326 36
107.07578 27
107.08717 78
110.10786 48
111.1177 324
114.04152 38
114.05253 36
114.0836 87
114.09508 105
116.90386 31
117.07298 333
118.06147 25
119.07011 69
119.08788 417
122.08781 34
125.00558 29
125.06427 33
125.1336 39
127.01492 25
128.03081 25
128.08765 32
130.08783 29
130.15628 156
130.16209 157
132.10425 54
133.08563 170
135.08174 419
137.08076 283
137.09828 326
137.1418 39
138.09805 41
138.10379 29
138.99226 42
139.10992 60
139.11977 64
139.14902 68
139.15761 76
139.16336 148
140.79884 28
143.0677 31
143.0739 25
146.06502 44
146.07346 51
147.08209 1730
147.67383 32
149.09753 156
150.1019 248
151.0739 33
151.08635 26
151.09978 61
151.10979 28
153.04198 36
153.05585 28
153.09216 248
153.10817 262
154.09431 113
154.11301 244
154.16492 50
155.0939 54
155.10564 68
156.04741 34
156.06523 37
156.07947 41
157.08167 43
161.0827 52
161.09402 227
162.01633 34
162.0551 27
163.03149 32
163.05737 53
164.08575 107
164.13232 30
165.03 40
165.09198 945
166.78969 29
167.08626 158
167.09627 29
167.18307 27
168.07306 46
168.08995 62
168.18559 25
171.12514 38
174.11267 28
174.68547 32
177.50706 34
184.22171 46
190.06181 35
191.03011 52
191.04317 44
191.11066 29
193.13399 54
193.14465 44
193.15884 28
195.10283 509
197.16032 36
203.1375 38
203.18484 39
203.20567 43
203.26657 48
203.27766 72
203.30289 55
203.3127 39
203.32761 68
205.10416 27
206.00433 30
206.78299 25
207.00537 47
207.13701 59
207.14755 25
207.43456 35
207.57559 46
208.10637 850
208.26598 25
208.45538 28
208.50966 30
208.51752 29
208.75163 32
209.10912 41
210.13033 106
215.1479 45
215.16029 49
215.17581 37
217.1692 52
221.2372 46
226.63124 29
227.13631 44
229.14012 28
229.14786 33
233.19264 41
234.04764 50
236.06725 27
236.08272 25
237.20882 48
239.12231 46
246.64522 26
247.18359 39
249.08485 40
251.22647 75
251.23587 66
255.14188 28
259.16388 39
259.17252 41
264.07047 31
264.69211 34
267.01706 32
267.03006 33
267.11993 25
268.17258 45
270.19757 27
272.2515 26
274.07861 28
274.09406 34
277.07278 38
277.15701 56
278.15475 43
278.18073 36
280.12677 35
281.29434 29
282.05997 26
283.29495 40
284.28964 34
284.73886 27
284.75146 29
286.07166 29
289.24408 28
289.87836 32
290.1586 26
290.25497 28
290.27075 42
290.7923 33
291.05023 44
291.19473 78
291.34637 26
292.06439 28
294.21063 27
295.11612 27
295.29681 40
298.83673 26
302.12253 47
302.13794 44
306.28033 27
307.01685 57
310.31348 44
311.16656 28
315.28439 31
317.08502 29
317.17551 31
319.26602 34
326.2851 30
326.379 52
329.90796 33
338.19226 39
338.35873 50
344.26453 26
349.11783 46
349.14911 30
349.20093 29
353.18176 31
353.3201 31
354.18036 27
357.2034 37
367.69388 45
368.1647 34
368.4465 59
369.34906 38
369.43604 49
379.28583 28
385.28687 27
385.34015 26
385.99039 25
387.11542 37
393.20599 28
393.24063 47
393.25745 75
393.29144 37
393.30487 26
398.24603 25
401.08923 51
408.10144 26
408.31216 25
409.75229 26
409.76883 31
413.35849 148
430.38177 221
430.42435 27
431.32922 33
431.38931 537
432.39209 188
432.40903 233
440.37851 53
445.33096 38
448.85562 44
458.83627 36
459.49722 34
459.80231 36
465.29236 36
465.33865 54
466.17273 29
466.79648 30
469.35562 27
471.43884 28
472.39362 51
472.80148 28
473.27066 28
473.45572 116
473.53226 72
473.74622 26
473.81189 30
474.27225 43
475.2652 39
475.83054 26
476.41208 186
476.69995 43
480.1611 27
480.354 51
480.93396 41
481.32562 37
481.3696 56
481.42642 37
482.29681 38
482.31158 45
482.3273 46
484.3143 30
484.90961 138
485.47958 27
485.90179 30
486.18985 30
487.04922 37
487.33633 36
490.42575 973
490.47784 58
491.15015 25
491.4303 609
492.16382 39
492.37277 270
492.92874 42
493.35837 37
493.3833 134
493.43723 62
493.87302 37
495.23505 30
495.28506 31
495.34308 82
495.60681 33
495.7139 37
496.12695 28
496.38538 327
496.62036 49
496.64719 30
497.20679 34
497.25751 99
497.7179 28
498.18896 30
498.37793 301
498.54175 34
499.35101 84
499.8454 70
500.13275 26
500.3562 68
500.44397 32
500.94025 34
501.36176 144
501.66357 30
501.74368 33
501.8634 94
501.88208 160
503.10336 31
503.31125 25
504.43661 49
511.35696 480
514.33539 49
515.32202 42
515.40405 65
515.43164 53
518.29474 25
527.17017 27
529.38416 25
531.39679 45
532.34991 41
539.25116 32
539.26624 30
542.36279 90
543.39307 78
545.34088 34
547.48236 25
549.4715 27
550.62091 28
551.22046 25
551.55231 48
552.16211 32
553.39154 54
555.40619 46
555.43359 29
556.40436 28
558.32849 59
558.35602 83
558.38055 26
559.34778 53
568.29028 33
574.33197 77
575.29852 25
576.40173 40
577.33734 44
577.39905 27
577.51862 31
582.35968 28
582.40894 34
584.27399 26
587.42285 80
587.43945 60
588.42554 27
599.37384 48
602.52997 25
604.42218 29
605.42853 29
613.37238 25
619.20447 45
621.50287 42
622.26709 25
628.56952 26
629.44733 27
639.38971 25
640.16925 38
649.33167 29
652.11456 28
663.35828 53
666.44165 30
673.43365 31
674.30798 28
674.4444 51
677.46466 31
692.47351 29
695.276 25
695.42145 25
696.4588 42
718.46967 29
720.06036 25
720.58356 429
721.06805 112
721.09259 391
721.32977 26
721.48163 36
721.59631 48
722.53931 29
722.56873 128
722.59204 78
723.07587 71
729.08722 118
730.57172 60
730.60303 32
730.61926 27
735.47205 26
737.38818 35
737.55804 43
738.0506 99
740.55542 30
746.95654 37
755.15356 25
755.37372 26
759.65643 28
768.46942 34
777.49823 29
781.51459 27
782.43121 26
785.55695 46
795.47308 37
795.63831 60
799.56183 25
813.56451 74
815.5528 26
818.5451 31
818.6828 57
819.58698 28
823.58679 35
830.22894 28
834.33575 35
840.54645 39
849.47266 58
849.50073 64
855.50879 43
857.50989 42
859.48639 62
860.55969 63
877.04163 26
885.54541 46
886.44489 25
904.56799 27
907.52203 25
909.71686 27
913.46136 29
938.72943 29
956.80133 64
957.71124 53
958.28864 44
958.74847 47
962.84576 70
964.75616 53
965.28851 103
968.68268 43
968.77167 29
970.63348 34
970.8042 37
978.61884 34
983.73047 31
983.77856 73
Name: Tocopheryl acetate
PrecursorMZ: 490.4269
PrecursorType: [M+NH4]+
IonMode: Positive
Formula: C31H52O3
SMILES: CC1=C(C(=C(C2=C1OC(CC2)(C)CCCC(C)CCCC(C)CCCC(C)C)C)OC(=O)C)C
InChI: 
InChIKey: ZAKOWWREFLAJOT-CEFNRUSXSA-N
RetentionTime: 10.53483
CCS: 
CollisionEnergy: 20-40 eV
InstrumentType: UPLC-QTOF-MS
Comment: PI: Cristina Nerin; Data collector: QiZhi Su, GUIA, University of Zaragoza, Spain; Collision energy: 20-40 V; Instrument: Waters HPLC-QTOF-MS (Xevo G2 QTof); Ionization: ESI; Deconvoluted by MS-DIAL; Column: Waters AtlantisTM premier BEH C18 AX column (2.1 × 100mm x 1.7μm); Flow rate: 0.3mL/min; Mobile phase A and B are water and methnaol, respectively, both with 0.1% formic acid; Gradient elution: from A/B (95/5) to A/B (100/0) in 7min, kept for 4 min, then back to A/B (95/5) in 0.1 min, and maintained for additional 1.9 min (13min in total).; Injection volume: 10 μL
Num peaks: 24
60.08206 8308
69.07149 7096
71.08615 6330
71.09557 6329
83.08649 11688
85.10246 6247
97.10196 11515
111.11766 12212
125.13163 4389
125.13814 4390
135.06335 6472
135.08199 6212
147.08156 15151
149.09651 15818
153.09203 10348
165.0921 89386
166.09544 9296
195.1041 6080
207.10289 371106
208.10649 45916
209.10722 4823
431.38806 10113
432.38742 3725
490.42636 60018
Name: Tocopheryl acetate
PrecursorMZ: 967.7742
PrecursorType: [2M+Na]+
IonMode: Positive
Formula: C31H52O3
SMILES: CC1=C(C(=C(C2=C1OC(CC2)(C)CCCC(C)CCCC(C)CCCC(C)C)C)OC(=O)C)C
InChI: 
InChIKey: ZAKOWWREFLAJOT-CEFNRUSXSA-N
RetentionTime: 10.53483
CCS: 
CollisionEnergy: 20-40 eV
InstrumentType: UPLC-QTOF-MS
Comment: PI: Cristina Nerin; Data collector: QiZhi Su, GUIA, University of Zaragoza, Spain; Collision energy: 20-40 V; Instrument: Waters HPLC-QTOF-MS (Xevo G2 QTof); Ionization: ESI; Deconvoluted by MS-DIAL; Column: Waters AtlantisTM premier BEH C18 AX column (2.1 × 100mm x 1.7μm); Flow rate: 0.3mL/min; Mobile phase A and B are water and methnaol, respectively, both with 0.1% formic acid; Gradient elution: from A/B (95/5) to A/B (100/0) in 7min, kept for 4 min, then back to A/B (95/5) in 0.1 min, and maintained for additional 1.9 min (13min in total).; Injection volume: 10 μL
Num peaks: 25
60.08206 8397
69.07149 5906
71.08615 6369
71.09557 6370
83.08649 11849
85.10246 6298
97.10196 13190
111.11766 12320
125.13163 4393
125.13814 4396
135.06335 4778
135.08199 5490
149.09651 12674
153.09203 9301
165.0921 78021
166.09544 9305
189.12914 3976
195.1041 6102
207.10289 374117
208.10649 41406
209.10722 4869
431.38806 13074
432.38742 3856
511.35699 16799
512.35986 5341
Name: Tocopheryl acetate
PrecursorMZ: 473.4004
PrecursorType: [M+H]+
IonMode: Positive
Formula: C31H52O3
SMILES: CC1=C(C(=C(C2=C1OC(CC2)(C)CCCC(C)CCCC(C)CCCC(C)C)C)OC(=O)C)C
InChI: 
InChIKey: ZAKOWWREFLAJOT-CEFNRUSXSA-N
RetentionTime: 10.54245
CCS: 
CollisionEnergy: 20-40 eV
InstrumentType: UPLC-QTOF-MS
Comment: PI: Cristina Nerin; Data collector: QiZhi Su, GUIA, University of Zaragoza, Spain; Collision energy: 20-40 V; Instrument: Waters HPLC-QTOF-MS (Xevo G2 QTof); Ionization: ESI; Deconvoluted by MS-DIAL; Column: Waters AtlantisTM premier BEH C18 AX column (2.1 × 100mm x 1.7μm); Flow rate: 0.3mL/min; Mobile phase A and B are water and methnaol, respectively, both with 0.1% formic acid; Gradient elution: from A/B (95/5) to A/B (100/0) in 7min, kept for 4 min, then back to A/B (95/5) in 0.1 min, and maintained for additional 1.9 min (13min in total).; Injection volume: 10 μL
Num peaks: 25
60.08196 8397
69.07082 6382
71.08685 6370
83.08636 11849
85.10192 6308
97.10194 13353
111.11813 12320
111.13342 12326
125.13362 4395
125.1488 4410
135.08118 6796
147.08163 5368
149.0966 14771
153.09196 10419
165.09204 90859
166.09607 9633
166.11246 8245
189.12985 3817
195.10254 6098
207.10278 374188
208.10646 45219
209.10979 4869
431.38721 13076
432.39499 3901
473.39917 317123
Name: Tocopheryl acetate
PrecursorMZ: 962.8185
PrecursorType: [2M+NH4]+
IonMode: Positive
Formula: C31H52O3
SMILES: CC1=C(C(=C(C2=C1OC(CC2)(C)CCCC(C)CCCC(C)CCCC(C)C)C)OC(=O)C)C
InChI: 
InChIKey: ZAKOWWREFLAJOT-CEFNRUSXSA-N
RetentionTime: 10.54245
CCS: 
CollisionEnergy: 20-40 eV
InstrumentType: UPLC-QTOF-MS
Comment: PI: Cristina Nerin; Data collector: QiZhi Su, GUIA, University of Zaragoza, Spain; Collision energy: 20-40 V; Instrument: Waters HPLC-QTOF-MS (Xevo G2 QTof); Ionization: ESI; Deconvoluted by MS-DIAL; Column: Waters AtlantisTM premier BEH C18 AX column (2.1 × 100mm x 1.7μm); Flow rate: 0.3mL/min; Mobile phase A and B are water and methnaol, respectively, both with 0.1% formic acid; Gradient elution: from A/B (95/5) to A/B (100/0) in 7min, kept for 4 min, then back to A/B (95/5) in 0.1 min, and maintained for additional 1.9 min (13min in total).; Injection volume: 10 μL
Num peaks: 25
60.08196 8397
69.07082 5784
71.08685 6370
83.08636 11849
85.10192 6308
97.10194 13338
111.11813 12320
111.13342 12326
125.13362 4395
125.1488 4410
135.08118 5702
149.0966 12744
153.09196 9344
165.09204 78678
166.09607 9361
166.11246 7768
189.12985 3976
195.10254 6098
207.10278 374188
208.10646 41373
209.10979 4869
431.38721 13076
432.39499 3901
511.35556 16799
512.36005 5341
Name: Tocopheryl acetate
PrecursorMZ: 983.7482
PrecursorType: [2M+K]+
IonMode: Positive
Formula: C31H52O3
SMILES: CC1=C(C(=C(C2=C1OC(CC2)(C)CCCC(C)CCCC(C)CCCC(C)C)C)OC(=O)C)C
InChI: 
InChIKey: ZAKOWWREFLAJOT-CEFNRUSXSA-N
RetentionTime: 10.59193
CCS: 
CollisionEnergy: 20-40 eV
InstrumentType: UPLC-QTOF-MS
Comment: PI: Cristina Nerin; Data collector: QiZhi Su, GUIA, University of Zaragoza, Spain; Collision energy: 20-40 V; Instrument: Waters HPLC-QTOF-MS (Xevo G2 QTof); Ionization: ESI; Deconvoluted by MS-DIAL; Column: Waters AtlantisTM premier BEH C18 AX column (2.1 × 100mm x 1.7μm); Flow rate: 0.3mL/min; Mobile phase A and B are water and methnaol, respectively, both with 0.1% formic acid; Gradient elution: from A/B (95/5) to A/B (100/0) in 7min, kept for 4 min, then back to A/B (95/5) in 0.1 min, and maintained for additional 1.9 min (13min in total).; Injection volume: 10 μL
Num peaks: 917
50.36494 23
51.06458 41
51.0727 32
51.70042 28
51.87877 36
52.15966 22
52.54377 24
52.76545 27
53.36831 24
54.30614 21
54.32108 21
54.46347 31
54.47643 23
55.30907 28
55.36796 24
55.939 20
57.25869 25
57.90464 22
57.99522 26
58.02778 28
58.07238 36
58.08755 60
59.19798 43
59.30128 20
60.12646 41
60.4434 125
60.52324 21
60.73392 21
60.75426 26
61.64247 32
62.08018 49
62.36055 26
62.50863 31
63.84119 20
64.78864 25
64.79776 24
66.95033 40
66.96011 32
67.20828 26
68.50842 20
69.32471 21
70.97867 34
70.98721 44
71.01628 20
71.42183 27
72.52486 35
72.5423 34
72.59951 25
73.04817 73
73.14196 36
73.86817 20
74.69798 38
75.71532 23
75.73093 32
76.07201 54
78.63364 22
82.06611 102
82.08084 107
83.86591 21
84.07554 110
84.09029 83
84.09488 61
87.0386 46
87.04474 47
88.05215 55
88.93635 22
88.96306 26
89.05917 102
89.07753 131
90.05538 32
91.05394 138
91.05836 134
92.62119 25
93.01181 31
93.03085 30
95.08759 106
96.14026 23
96.59465 20
96.90628 26
97.06059 109
97.06738 131
97.07867 116
97.21213 23
99.00915 20
99.11539 34
100.11229 73
100.11879 75
101.05913 65
101.06792 66
101.94291 21
102.07185 23
102.0916 67
102.09772 58
102.12256 92
102.12795 67
103.99253 23
104.03957 56
104.04613 54
104.11188 31
105.25373 27
107.05421 34
108.06039 132
108.87635 26
109.06445 23
109.08338 164
111.08733 25
112.04121 21
112.04986 21
112.07272 25
112.41739 23
113.0765 21
113.51179 20
113.98219 23
114.04342 29
114.05448 34
114.06898 33
114.08858 94
114.12461 34
114.13621 37
114.94742 23
114.96095 26
117.14361 51
121.02654 53
121.15192 26
123.01853 24
124.13757 47
124.96687 26
126.94653 23
128.06494 34
131.08594 44
132.07353 26
132.08284 27
132.0984 55
132.10452 37
133.05251 28
133.06662 73
134.02457 34
134.11383 24
136.10751 22
136.11426 22
139.06157 40
139.0714 26
141.05849 82
141.07652 76
141.0889 38
141.12622 20
141.94051 30
143.07907 34
144.08241 29
144.34448 22
147.11676 30
149.12694 49
150.05528 23
150.08092 464
152.03091 40
152.04292 56
152.05644 27
153.06253 30
156.06734 40
156.99031 24
157.12013 102
157.13187 59
157.43535 23
157.44611 23
158.11282 32
159.10475 50
159.12077 116
160.12784 34
161.08189 191
162.03156 20
164.08324 23
164.98105 27
165.05661 39
165.06348 42
165.13013 47
165.97464 42
165.98869 32
166.07506 1951
166.82732 37
167.04825 48
167.07141 25
167.78981 20
167.8 30
168.98318 21
168.98975 23
169.00606 34
169.07004 23
173.11671 55
173.12871 91
176.13739 43
176.15205 25
178.25092 28
179.13991 37
180.0939 36
181.06075 42
181.18359 50
183.05476 20
183.11957 91
184.07147 58
184.07913 46
184.08936 24
184.7489 35
185.11261 48
185.12263 71
187.03842 46
187.09845 32
188.08755 23
190.02769 57
190.0392 26
191.12749 68
192.09813 27
192.11194 24
193.13792 70
193.14789 27
194.08899 24
194.71257 24
194.73235 24
195.14134 91
195.15073 76
195.16922 48
197.04138 22
197.06995 32
197.07959 48
197.09026 51
197.15982 22
199.03136 20
199.17267 53
202.06451 28
203.27406 24
203.28734 24
203.81772 20
204.66386 37
205.08485 37
205.14272 37
206.62172 21
206.8728 32
206.88441 34
207.20747 36
207.27043 54
207.52101 22
207.73035 41
207.74062 38
208.00789 27
208.01601 39
208.92909 27
208.95911 24
209.04227 38
209.05902 44
209.07661 130
209.21838 44
210.00104 33
210.13583 73
210.83737 29
210.85063 37
210.92345 24
211.09001 101
211.1942 30
212.06172 28
212.1209 37
212.61456 20
213.08687 45
213.104 80
213.11411 53
215.18185 34
218.06375 45
218.07556 55
221.07368 31
221.08876 25
221.18951 40
223.06071 22
224.89969 24
225.07138 63
227.12814 29
229.13065 56
231.18246 48
232.1665 20
232.17302 22
234.16762 47
234.17447 65
235.17941 59
236.08482 45
236.09758 25
237.13788 33
238.2179 32
239.12505 23
242.10182 22
242.6358 24
242.97672 22
243.11902 25
243.16508 28
245.1404 42
247.22289 26
248.16182 21
248.99007 32
249.00996 37
249.07736 21
251.23212 45
253.15018 22
253.18326 22
253.70305 23
254.25465 25
255.16461 58
255.66953 29
259.00787 32
259.60068 20
261.17661 44
264.16364 37
264.18906 44
264.98212 35
265.01215 23
265.22964 28
265.24438 24
266.27002 41
268.26257 41
269.11301 26
269.27817 33
272.25882 37
272.67834 28
273.19589 51
273.20462 22
273.21631 42
274.14493 20
275.04697 37
277.13525 31
278.16418 75
278.17554 85
279.10315 31
279.19363 45
280.13025 29
281.04605 41
281.05927 42
283.01572 37
283.02905 39
283.15594 31
283.27972 109
286.30453 24
286.35992 24
288.66513 21
289.19409 65
289.20776 61
290.03 24
293.2948 43
294.03683 21
294.18494 24
294.27255 27
295.16129 20
295.18851 27
296.21338 35
296.22476 26
299.11942 28
301.14243 40
301.1575 22
301.20306 23
302.19772 20
302.24277 32
303.23929 21
305.03287 38
305.46164 49
306.99319 21
307.20969 27
308.17737 22
309.15115 24
309.21664 52
309.25497 40
310.22952 25
313.10867 24
313.32324 23
315.06476 22
315.23355 31
317.12546 32
318.15573 26
319.15289 37
320.47528 20
322.14328 20
322.19754 33
322.21704 28
323.15421 41
323.16895 33
323.22012 20
323.33392 20
323.59512 26
324.20679 35
325.21448 51
325.22906 32
327.22061 31
327.23911 42
328.15488 39
331.16739 20
331.20309 31
332.13394 36
332.15668 29
332.22 32
335.20908 78
335.26102 28
339.28711 44
339.35114 36
340.16254 29
340.17963 34
340.3024 21
341.05658 26
341.21262 26
347.11145 24
347.15094 30
348.98062 47
349.77954 26
350.16385 23
350.67151 20
351.27228 39
353.32303 26
353.55887 20
355.25793 24
355.27399 28
357.21204 25
357.22903 58
358.19504 39
359.20169 59
359.23315 49
363.25183 21
364.22198 26
365.10022 66
367.17081 23
368.1976 23
368.21008 44
368.41425 39
369.19186 22
369.43567 29
373.09158 20
374.22562 31
375.15887 26
376.33203 39
377.03281 22
377.20956 28
377.22473 27
379.21918 58
379.25476 34
383.33304 21
383.88699 23
384.33768 34
385.33386 29
385.37665 38
387.26575 21
387.34552 24
387.35736 34
387.90793 24
389.14587 20
389.18903 29
389.27158 31
389.30344 32
395.1651 29
397.48593 28
407.4801 28
408.44205 22
412.96112 22
413.24435 111
413.3382 26
414.15701 27
414.19891 20
414.26599 43
414.33612 25
415.24298 40
415.31046 24
415.37222 21
416.3978 21
417.24402 66
417.2684 32
420.05774 37
422.05231 25
422.5386 22
423.19522 50
425.94049 21
426.33093 22
428.36008 23
429.33948 26
429.36392 51
429.38336 30
430.2251 33
431.08197 48
431.10147 22
431.32129 21
433.24673 61
433.40637 22
434.29984 20
434.33179 41
434.34601 56
435.22449 27
435.24139 40
438.26483 36
439.27979 28
441.95065 22
442.54697 26
443.21576 90
443.23199 37
443.35785 31
444.22293 50
444.24722 23
446.12402 20
446.21976 36
446.24228 53
447.26642 26
448.0936 20
448.26511 20
453.60934 22
456.29456 51
456.31351 50
457.33521 41
459.33414 37
461.24628 27
461.25742 29
462.3103 43
462.69345 22
464.5062 23
464.58746 32
464.7713 29
465.27252 59
465.29697 30
465.35764 24
467.82578 23
469.33105 47
469.38919 57
470.35205 38
470.36743 37
470.38565 34
471.16742 31
471.27719 29
473.12979 21
473.18671 22
473.4429 125
473.65283 33
473.79773 23
474.06131 27
474.15628 29
474.52295 22
475.31586 43
475.33508 65
476.14542 32
479.23779 26
479.30661 39
479.88196 28
481.34842 32
482.31583 26
482.80685 31
483.34528 32
484.32297 26
484.35907 71
485.36703 72
485.86755 70
485.88626 125
486.13483 36
487.01663 22
487.03528 26
487.10721 48
487.45029 37
487.58081 25
491.32697 55
492.00232 46
492.24258 20
493.37152 146
493.38852 231
493.42184 101
493.98111 26
494.15536 20
494.25616 22
494.29056 38
494.46674 29
494.48776 20
494.95007 24
495.02512 21
495.1889 56
495.2222 32
495.25275 53
495.2695 45
495.2897 26
495.31113 44
495.43085 96
495.47003 22
495.53745 28
495.98468 26
496.25687 35
496.27078 44
496.44717 32
496.5618 28
496.92517 30
497.116 47
497.94867 70
498.29544 24
498.40314 109
499.0372 24
499.51553 25
500.07721 21
501.27359 22
501.40826 26
502.34119 33
503.30338 39
503.40186 30
503.44232 34
504.43762 75
505.2648 20
505.27625 35
505.31256 32
505.45172 32
505.84866 26
507.14984 25
509.47354 29
514.46442 37
514.62756 38
515.27673 22
516.41077 34
517.48285 31
518.45135 43
519.36212 24
519.4491 35
520.81592 20
521.45734 27
523.34894 43
524.4317 25
524.44977 22
525.90686 26
527.35107 20
528.29523 42
528.4549 71
529.33563 54
529.51312 27
531.20874 21
531.37335 61
531.39636 27
532.49438 36
535.37885 30
537.53186 31
539.38556 35
540.85376 33
541.31171 36
542.38208 260
543.12347 22
543.33032 24
543.47601 42
544.37775 46
544.90125 26
545.43719 21
546.38586 33
548.41156 32
549.21094 38
549.4881 21
550.21167 24
551.36194 20
551.55804 71
553.29553 31
553.32019 20
553.38245 34
555.32166 22
555.40338 31
555.42249 28
557.15631 36
557.32538 155
558.3551 52
558.3714 125
558.39532 44
559.26166 33
559.50531 21
560.39496 63
560.40881 65
561.32196 28
567.73102 27
568.36169 29
569.29614 21
569.3548 35
570.28949 26
571.35492 76
573.28906 185
573.3269 36
573.46686 38
574.32977 124
574.54694 23
575.32599 71
575.49719 92
575.52179 28
576.30182 25
576.34656 29
576.93073 40
577.51801 24
578.51331 43
580.44104 27
582.35474 22
582.39941 33
585.72534 20
586.86621 25
587.42926 53
589.33997 27
593.61469 40
594.61945 45
596.38812 35
598.32312 20
598.42609 24
600.06012 22
600.52539 108
601.50177 59
604.31744 27
604.47504 31
605.28729 32
605.41797 36
607.43378 21
609.28516 24
616.48663 24
616.62244 21
619.43353 50
619.54956 20
621.48859 35
623.47748 35
623.49542 72
625.50891 48
626.08862 20
629.55774 21
633.36377 21
633.52496 22
635.33875 30
635.43762 34
637.31293 39
638.06287 31
639.44128 34
642.50336 22
643.72882 32
646.05206 31
650.51465 20
651.14697 21
655.33771 58
655.35712 77
658.42554 39
663.4823 35
665.46185 61
667.34344 47
669.42261 39
669.45477 21
669.53381 24
672.33691 22
672.47412 22
673.29974 22
674.51105 20
683.40924 25
683.45575 41
685.56927 26
689.08179 26
689.44287 28
689.49597 22
691.17706 28
691.58246 28
694.57343 24
695.42444 30
697.36987 32
697.45569 21
697.48248 73
697.52283 26
702.63007 21
703.51117 28
707.46558 35
709.40247 24
710.96539 23
715.37909 26
715.49359 23
717.47711 28
718.47992 22
720.54724 175
721.50244 21
721.55688 194
722.41974 22
722.61749 21
723.0426 28
723.07776 20
726.60773 33
726.92554 34
727.63446 20
728.07782 25
729.61047 55
730.46503 37
731.14551 36
732.48932 50
732.68799 24
735.38947 27
736.0238 28
737.52197 55
741.84436 21
742.44342 41
743.47253 41
743.5304 20
745.57977 35
747.43976 24
754.34576 32
754.39099 29
755.37903 20
756.0918 26
760.12482 23
760.49469 20
760.93909 27
769.53894 28
770.50043 39
770.51825 46
772.42468 20
772.65173 20
776.45941 21
778.54889 22
779.44171 47
781.72906 21
783.63214 21
785.47778 27
785.81677 36
786.74347 26
789.52753 38
789.54803 32
791.52576 26
795.02905 26
795.49017 22
795.57941 20
796.26575 38
798.05664 22
801.68353 27
805.98376 34
806.57538 21
811.59821 29
815.30457 20
815.51117 26
817.57355 35
820.87891 30
823.41479 24
824.57568 29
824.92035 21
825.48688 20
827.58234 20
829.46454 28
829.57178 21
830.54968 32
830.60211 22
832.43414 22
833.51581 29
834.93726 32
835.60883 27
839.54205 34
839.55908 44
841.5318 50
842.48993 22
849.52472 41
851.49939 55
854.68323 21
857.51379 51
857.53809 55
858.54297 48
859.5061 36
859.60272 25
860.88965 22
861.5658 26
865.51135 45
865.59283 21
865.88257 31
865.9082 22
869.74573 22
870.71857 28
871.26538 20
871.52435 21
873.45648 26
877.55408 46
877.58588 20
880.4975 44
883.49371 39
883.57568 32
885.54486 27
886.54443 38
886.57568 63
890.28876 21
894.75464 32
895.02399 21
895.52887 20
898.54987 24
898.64178 34
901.16077 70
901.21173 37
901.6712 46
902.70154 22
907.58618 62
908.50311 42
909.1958 27
911.3493 21
911.54529 21
911.6189 39
916.01801 34
917.06537 22
921.65198 21
922.48639 29
924.58136 28
929.16144 78
929.60724 36
933.19012 47
934.72931 32
937.63025 22
938.00378 20
941.57843 26
947.81592 25
950.61682 34
952.6272 25
953.20435 20
954.69122 26
956.19604 20
956.81683 74
957.7597 100
958.19324 24
958.23315 27
958.72534 24
962.51141 23
962.78918 42
963.6571 23
963.7663 27
966.46393 27
967.69873 80
968.6709 25
974.85236 22
977.84515 45
980.09833 65
981.61188 30
983.76276 27
983.83905 24
984.10583 34
Name: Tocopheryl acetate
PrecursorMZ: 511.3565
PrecursorType: [M+K]+
IonMode: Positive
Formula: C31H52O3
SMILES: CC1=C(C(=C(C2=C1OC(CC2)(C)CCCC(C)CCCC(C)CCCC(C)C)C)OC(=O)C)C
InChI: 
InChIKey: ZAKOWWREFLAJOT-CEFNRUSXSA-N
RetentionTime: 10.59573
CCS: 
CollisionEnergy: 20-40 eV
InstrumentType: UPLC-QTOF-MS
Comment: PI: Cristina Nerin; Data collector: QiZhi Su, GUIA, University of Zaragoza, Spain; Collision energy: 20-40 V; Instrument: Waters HPLC-QTOF-MS (Xevo G2 QTof); Ionization: ESI; Deconvoluted by MS-DIAL; Column: Waters AtlantisTM premier BEH C18 AX column (2.1 × 100mm x 1.7μm); Flow rate: 0.3mL/min; Mobile phase A and B are water and methnaol, respectively, both with 0.1% formic acid; Gradient elution: from A/B (95/5) to A/B (100/0) in 7min, kept for 4 min, then back to A/B (95/5) in 0.1 min, and maintained for additional 1.9 min (13min in total).; Injection volume: 10 μL
Num peaks: 3
148.06456 301
165.07198 22833
511.35504 15513
Name: Tocopheryl acetate
PrecursorMZ: 495.3816
PrecursorType: [M+Na]+
IonMode: Positive
Formula: C31H52O3
SMILES: CC1=C(C(=C(C2=C1OC(CC2)(C)CCCC(C)CCCC(C)CCCC(C)C)C)OC(=O)C)C
InChI: 
InChIKey: ZAKOWWREFLAJOT-CEFNRUSXSA-N
RetentionTime: 10.59955
CCS: 
CollisionEnergy: 20-40 eV
InstrumentType: UPLC-QTOF-MS
Comment: PI: Cristina Nerin; Data collector: QiZhi Su, GUIA, University of Zaragoza, Spain; Collision energy: 20-40 V; Instrument: Waters HPLC-QTOF-MS (Xevo G2 QTof); Ionization: ESI; Deconvoluted by MS-DIAL; Column: Waters AtlantisTM premier BEH C18 AX column (2.1 × 100mm x 1.7μm); Flow rate: 0.3mL/min; Mobile phase A and B are water and methnaol, respectively, both with 0.1% formic acid; Gradient elution: from A/B (95/5) to A/B (100/0) in 7min, kept for 4 min, then back to A/B (95/5) in 0.1 min, and maintained for additional 1.9 min (13min in total).; Injection volume: 10 μL
Num peaks: 25
60.08181 7446
69.07063 5426
71.08649 4435
83.08696 7223
85.1024 3864
97.10231 7225
111.11808 6635
135.0815 3584
147.08159 9420
149.09685 10591
153.09222 4800
165.092 59378
166.09602 5315
195.10165 3346
207.10269 214834
208.10652 27345
209.11058 2219
431.39035 6987
432.39435 2259
473.39902 209149
474.40262 66001
475.40564 10259
490.42645 35701
491.43057 10954
495.38092 198462
Name: Allantoin
PrecursorMZ: 159.0526
PrecursorType: [M+H]+
IonMode: Positive
Formula: C4H6N4O3
SMILES: C1(C(=O)NC(=O)N1)NC(=O)N
InChI: 
InChIKey: POJWUDADGALRAB-UHFFFAOYSA-N
RetentionTime: 0.8290333
CCS: 
CollisionEnergy: 20-40 eV
InstrumentType: UPLC-QTOF-MS
Comment: PI: Cristina Nerin; Data collector: QiZhi Su, GUIA, University of Zaragoza, Spain; Collision energy: 20-40 V; Instrument: Waters HPLC-QTOF-MS (Xevo G2 QTof); Ionization: ESI; Deconvoluted by MS-DIAL; Column: Waters AtlantisTM premier BEH C18 AX column (2.1 × 100mm x 1.7μm); Flow rate: 0.3mL/min; Mobile phase A and B are water and methnaol, respectively, both with 0.1% formic acid; Gradient elution: from A/B (95/5) to A/B (100/0) in 7min, kept for 4 min, then back to A/B (95/5) in 0.1 min, and maintained for additional 1.9 min (13min in total).; Injection volume: 10 μL
Num peaks: 60
55.02966 28
61.04188 361
67.05666 38
71.08316 35
73.04104 401
81.96173 33
87.01085 40
88.04084 42
88.05286 38
97.93509 38
97.94971 28
98.97354 575
98.98311 565
98.99139 548
99.02104 779
99.06967 25
110.98475 74
112.96168 24
112.96733 27
113.51519 36
114.96259 31
115.96507 99
116.01016 34
116.04816 946
116.05357 611
116.97324 26
117.00218 43
117.00894 51
124.03077 26
128.01501 52
129.01263 40
131.01524 63
131.05365 54
131.06346 54
131.98611 122
133.97968 42
133.98779 40
135.02419 86
135.0433 47
142.97685 28
143.03712 36
143.04718 44
145.01761 240
145.03122 325
146.0305 49
149.02667 26
153.98862 105
153.99501 85
155.95213 83
155.96384 84
156.51764 118
156.95976 72
156.97705 70
157.95808 118
157.966 130
157.98906 91
158.97777 25
159.01962 391
159.03404 46
159.05313 2360
Name: Allantoin
PrecursorMZ: 317.0959
PrecursorType: [2M+H]+
IonMode: Positive
Formula: C4H6N4O3
SMILES: C1(C(=O)NC(=O)N1)NC(=O)N
InChI: 
InChIKey: POJWUDADGALRAB-UHFFFAOYSA-N
RetentionTime: 0.8290333
CCS: 
CollisionEnergy: 20-40 eV
InstrumentType: UPLC-QTOF-MS
Comment: PI: Cristina Nerin; Data collector: QiZhi Su, GUIA, University of Zaragoza, Spain; Collision energy: 20-40 V; Instrument: Waters HPLC-QTOF-MS (Xevo G2 QTof); Ionization: ESI; Deconvoluted by MS-DIAL; Column: Waters AtlantisTM premier BEH C18 AX column (2.1 × 100mm x 1.7μm); Flow rate: 0.3mL/min; Mobile phase A and B are water and methnaol, respectively, both with 0.1% formic acid; Gradient elution: from A/B (95/5) to A/B (100/0) in 7min, kept for 4 min, then back to A/B (95/5) in 0.1 min, and maintained for additional 1.9 min (13min in total).; Injection volume: 10 μL
Num peaks: 153
55.02966 28
61.04188 361
67.05666 38
71.08316 35
73.04104 401
81.96173 33
87.01085 40
88.04084 42
88.05286 38
91.96919 21
92.98169 22
93.07011 23
95.01804 20
97.93509 38
97.94971 28
98.96342 23
98.97354 575
98.98311 565
98.99139 548
99.02104 779
99.06967 25
110.98475 74
112.96168 24
112.96733 27
113.51519 36
114.96259 31
115.96507 99
116.01016 34
116.04816 946
116.05357 611
116.97324 26
117.00218 43
117.00894 51
117.04243 23
124.01788 23
124.03077 26
126.00877 19
128.01501 52
129.01263 40
131.01524 63
131.02287 20
131.05365 54
131.06346 54
131.98611 122
133.97968 42
133.98779 40
135.02419 86
135.0433 47
142.97685 28
143.03712 36
143.04718 44
145.01761 240
145.03122 325
146.0305 49
149.02667 26
153.98862 105
153.99501 85
155.95213 83
155.96384 84
156.51764 118
156.95976 72
156.97705 70
157.95808 118
157.966 130
157.98906 91
158.97777 25
159.01962 391
159.03404 1646
159.05313 1779
159.95187 21
159.96141 36
159.97076 40
160.0128 39
160.05592 106
160.06567 51
165.03766 25
168.95741 30
169.99168 25
170.05515 21
171.97192 26
172.99994 21
173.99893 62
174.9877 305
175.98624 35
178.02542 494
178.52403 49
179.02757 22
180.99152 23
181.00757 19
189.03452 38
189.04797 38
191.00461 29
191.0139 42
191.02187 40
191.98698 22
195.97006 35
196.96916 27
196.98993 366
197.00642 353
198.0081 29
198.98628 20
209.9838 20
210.96577 94
211.94348 25
211.96573 40
212.9675 82
212.97925 83
213.97977 52
214.00032 42
217.97926 32
217.99158 29
224.97591 35
227.98495 63
228.99841 95
229.02184 31
229.98961 47
232.01736 25
236.07861 34
241.05565 22
242.05376 26
243.03473 271
243.04726 280
249.06241 27
254.97945 44
255.98096 42
257.013 67
257.0455 991
257.54568 163
257.55731 160
258.04016 58
266.96637 39
268.00586 25
268.9874 19
269.02451 32
270.9863 69
270.99689 63
272.00244 100
272.02386 28
272.99399 210
273.00668 225
274.00192 32
281.00748 26
282.00366 25
287.03296 19
287.04428 19
289.03625 33
294.99823 45
295.01718 50
310.99261 23
316.86609 23
317.08948 370
317.0994 697
317.12189 28
Name: Syringaldehyde
PrecursorMZ: 183.0663
PrecursorType: [M+H]+
IonMode: Positive
Formula: C9H10O4
SMILES: COC1=CC(=CC(=C1O)OC)C=O
InChI: 
InChIKey: KCDXJAYRVLXPFO-UHFFFAOYSA-N
RetentionTime: 4.300683
CCS: 
CollisionEnergy: 20-40 eV
InstrumentType: UPLC-QTOF-MS
Comment: PI: Cristina Nerin; Data collector: QiZhi Su, GUIA, University of Zaragoza, Spain; Collision energy: 20-40 V; Instrument: Waters HPLC-QTOF-MS (Xevo G2 QTof); Ionization: ESI; Deconvoluted by MS-DIAL; Column: Waters AtlantisTM premier BEH C18 AX column (2.1 × 100mm x 1.7μm); Flow rate: 0.3mL/min; Mobile phase A and B are water and methnaol, respectively, both with 0.1% formic acid; Gradient elution: from A/B (95/5) to A/B (100/0) in 7min, kept for 4 min, then back to A/B (95/5) in 0.1 min, and maintained for additional 1.9 min (13min in total).; Injection volume: 10 μL
Num peaks: 49
65.03746 758
65.04219 753
66.04199 106
67.03596 588
67.05672 712
77.03971 6461
78.03903 408
78.04413 410
78.05209 411
80.02529 145
81.02826 80
93.03246 480
93.03764 483
94.03381 128
95.04965 5002
96.05323 330
97.0284 513
97.03555 525
107.01797 104
107.02358 94
108.01852 81
110.02995 122
110.04004 121
123.04473 2074
124.04324 121
124.0499 113
124.05687 113
125.02348 1270
126.02762 114
126.03886 112
134.97446 70
139.03783 96
139.04622 98
140.0318 1711
140.04674 1831
141.05077 198
155.07011 539
162.96341 121
162.97552 111
167.03061 83
167.04108 82
175.09608 82
175.10829 85
181.04991 347
181.06793 315
182.04605 286
182.0556 349
182.06686 295
183.06216 530
Name: "2,4,6-Tris((dimethylamino)methyl)phenol"
PrecursorMZ: 266.2245
PrecursorType: [M+H]+
IonMode: Positive
Formula: C15H27N3O
SMILES: CN(C)CC1=CC(=C(C(=C1)CN(C)C)O)CN(C)C
InChI: 
InChIKey: AHDSRXYHVZECER-UHFFFAOYSA-N
RetentionTime: 0.5777667
CCS: 
CollisionEnergy: 20-40 eV
InstrumentType: UPLC-QTOF-MS
Comment: PI: Cristina Nerin; Data collector: QiZhi Su, GUIA, University of Zaragoza, Spain; Collision energy: 20-40 V; Instrument: Waters HPLC-QTOF-MS (Xevo G2 QTof); Ionization: ESI; Deconvoluted by MS-DIAL; Column: Waters AtlantisTM premier BEH C18 AX column (2.1 × 100mm x 1.7μm); Flow rate: 0.3mL/min; Mobile phase A and B are water and methnaol, respectively, both with 0.1% formic acid; Gradient elution: from A/B (95/5) to A/B (100/0) in 7min, kept for 4 min, then back to A/B (95/5) in 0.1 min, and maintained for additional 1.9 min (13min in total).; Injection volume: 10 μL
Num peaks: 41
77.04066 478
78.04297 1314
78.048 1314
78.05752 1324
79.0551 5516
80.05502 411
80.05999 411
91.05576 12675
92.0579 558
92.0658 557
93.06754 249
93.07514 240
103.05576 4938
103.0668 4834
104.06272 2013
105.07082 20279
106.07396 1589
111.08454 613
119.05048 6823
119.08565 258
120.05461 278
121.05869 476
121.06809 474
132.05881 415
133.06581 17627
134.06931 1597
135.07076 1267
135.08286 1416
148.11043 326
148.12109 326
161.08003 217
161.09097 232
164.10849 3132
165.11066 389
165.11794 387
176.10884 3420
177.11177 576
178.12448 7845
179.12761 1449
221.16612 6347
222.16846 991
Name: 4-hydroxy-3-methoxycinnamic aldehyde
PrecursorMZ: 179.0715
PrecursorType: [M+H]+
IonMode: Positive
Formula: C10H10O3
SMILES: COC1=C(C=CC(=C1)C=CC=O)O
InChI: 
InChIKey: DKZBBWMURDFHNE-NSCUHMNNSA-N
RetentionTime: 4.8532
CCS: 
CollisionEnergy: 20-40 eV
InstrumentType: UPLC-QTOF-MS
Comment: PI: Cristina Nerin; Data collector: QiZhi Su, GUIA, University of Zaragoza, Spain; Collision energy: 20-40 V; Instrument: Waters HPLC-QTOF-MS (Xevo G2 QTof); Ionization: ESI; Deconvoluted by MS-DIAL; Column: Waters AtlantisTM premier BEH C18 AX column (2.1 × 100mm x 1.7μm); Flow rate: 0.3mL/min; Mobile phase A and B are water and methnaol, respectively, both with 0.1% formic acid; Gradient elution: from A/B (95/5) to A/B (100/0) in 7min, kept for 4 min, then back to A/B (95/5) in 0.1 min, and maintained for additional 1.9 min (13min in total).; Injection volume: 10 μL
Num peaks: 79
65.03983 854
66.04279 100
77.03905 366
77.04473 356
79.0548 1431
79.06512 1475
80.0622 483
84.96104 165
89.0359 539
89.04278 628
89.05598 441
89.06094 379
90.03391 1067
90.04657 1082
90.05351 1095
90.06333 1066
91.05499 9261
92.05925 304
93.06389 122
93.07078 124
101.04242 94
102.04119 120
102.05156 139
102.06136 128
103.05552 846
103.07427 691
104.05638 154
105.07062 1174
106.06883 206
106.07912 194
107.04574 1797
107.05363 1789
108.05222 617
108.06002 619
109.06318 96
110.03376 140
110.04237 141
115.05624 219
116.05267 107
116.05795 107
117.03384 122
119.04896 5284
121.04443 152
121.06772 108
122.03274 270
122.04339 290
131.06734 280
131.07677 137
132.05664 94
133.06682 1058
133.08778 488
134.0424 103
134.06017 189
134.07352 157
135.04536 484
136.04996 1522
136.05685 1255
146.03683 1427
146.04417 1454
146.05942 278
147.04343 3947
148.05121 558
148.05869 529
149.02332 94
149.03178 98
151.06364 104
151.07455 110
161.06036 1893
161.07982 688
163.02777 244
163.0383 232
163.0468 239
173.00037 131
173.99754 432
174.02498 168
177.0509 132
177.05995 144
179.07057 1386
179.08353 336
Name: Rhodamine B base
PrecursorMZ: 443.2361
PrecursorType: [M+H]+
IonMode: Positive
Formula: C28H30N2O3
SMILES: CCN(CC)C1=CC2=C(C=C1)C3(C4=C(O2)C=C(C=C4)N(CC)CC)C5=CC=CC=C5C(=O)O3
InChI: 
InChIKey: DZNJMLVCIZGWSC-UHFFFAOYSA-N
RetentionTime: 5.611833
CCS: 
CollisionEnergy: 20-40 eV
InstrumentType: UPLC-QTOF-MS
Comment: PI: Cristina Nerin; Data collector: QiZhi Su, GUIA, University of Zaragoza, Spain; Collision energy: 20-40 V; Instrument: Waters HPLC-QTOF-MS (Xevo G2 QTof); Ionization: ESI; Deconvoluted by MS-DIAL; Column: Waters AtlantisTM premier BEH C18 AX column (2.1 × 100mm x 1.7μm); Flow rate: 0.3mL/min; Mobile phase A and B are water and methnaol, respectively, both with 0.1% formic acid; Gradient elution: from A/B (95/5) to A/B (100/0) in 7min, kept for 4 min, then back to A/B (95/5) in 0.1 min, and maintained for additional 1.9 min (13min in total).; Injection volume: 10 μL
Num peaks: 8
399.17084 210586
400.17386 54820
413.18579 25993
443.23483 2082538
443.34464 33861
443.44504 74729
443.57019 28230
443.62482 27742
Name: hexaoxyethylene glycol
PrecursorMZ: 300.2023
PrecursorType: [M+NH4]+
IonMode: Positive
Formula: C12H26O7
SMILES: C(COCCOCCOCCOCCOCCO)O
InChI: 
InChIKey: IIRDTKBZINWQAW-UHFFFAOYSA-N
RetentionTime: 0.9699
CCS: 
CollisionEnergy: 20-40 eV
InstrumentType: UPLC-QTOF-MS
Comment: PI: Cristina Nerin; Data collector: QiZhi Su, GUIA, University of Zaragoza, Spain; Collision energy: 20-40 V; Instrument: Waters HPLC-QTOF-MS (Xevo G2 QTof); Ionization: ESI; Deconvoluted by MS-DIAL; Column: Waters AtlantisTM premier BEH C18 AX column (2.1 × 100mm x 1.7μm); Flow rate: 0.3mL/min; Mobile phase A and B are water and methnaol, respectively, both with 0.1% formic acid; Gradient elution: from A/B (95/5) to A/B (100/0) in 7min, kept for 4 min, then back to A/B (95/5) in 0.1 min, and maintained for additional 1.9 min (13min in total).; Injection volume: 10 μL
Num peaks: 42
87.0305 3835
87.04534 3916
89.06075 30559
90.06153 1258
90.06701 1258
103.03998 5347
115.07487 314
121.08916 338
131.05196 782
131.07097 965
133.08636 8726
133.10605 8962
134.09004 695
134.09929 654
134.1058 639
139.05388 326
145.01562 475
145.02492 471
147.06549 875
147.08421 849
160.99274 402
161.04427 496
161.05992 863
161.06825 794
175.05177 439
175.06367 480
175.09702 559
177.11337 1551
189.04135 479
189.05196 472
191.09143 1024
191.10075 1046
205.02058 447
233.06657 553
233.07521 550
235.10902 374
235.11935 379
283.16925 761
283.18204 779
289.18951 352
293.05981 327
293.07449 333
Name: hexaoxyethylene glycol
PrecursorMZ: 305.1587
PrecursorType: [M+Na]+
IonMode: Positive
Formula: C12H26O7
SMILES: C(COCCOCCOCCOCCOCCO)O
InChI: 
InChIKey: IIRDTKBZINWQAW-UHFFFAOYSA-N
RetentionTime: 0.9699
CCS: 
CollisionEnergy: 20-40 eV
InstrumentType: UPLC-QTOF-MS
Comment: PI: Cristina Nerin; Data collector: QiZhi Su, GUIA, University of Zaragoza, Spain; Collision energy: 20-40 V; Instrument: Waters HPLC-QTOF-MS (Xevo G2 QTof); Ionization: ESI; Deconvoluted by MS-DIAL; Column: Waters AtlantisTM premier BEH C18 AX column (2.1 × 100mm x 1.7μm); Flow rate: 0.3mL/min; Mobile phase A and B are water and methnaol, respectively, both with 0.1% formic acid; Gradient elution: from A/B (95/5) to A/B (100/0) in 7min, kept for 4 min, then back to A/B (95/5) in 0.1 min, and maintained for additional 1.9 min (13min in total).; Injection volume: 10 μL
Num peaks: 45
87.0305 3908
87.04534 3989
89.06075 29740
90.06153 1229
90.06701 1228
103.03998 5248
115.05794 361
115.06319 353
115.07487 437
121.08916 327
131.05196 754
131.07097 940
133.08636 8549
133.10605 8734
134.09004 663
134.09929 619
134.1058 611
139.05388 324
145.01562 430
145.02492 433
147.06549 860
147.08421 838
160.99274 391
161.04427 480
161.05992 839
161.06825 771
175.05177 439
175.06367 478
175.09702 523
177.11337 1513
189.04135 415
189.05196 425
191.09143 1009
191.10075 1029
205.02058 431
233.06657 622
233.07521 618
235.10902 369
235.11935 374
283.16925 775
283.18204 793
289.18951 342
293.05981 317
293.07449 323
305.15921 2399
Name: hexaoxyethylene glycol
PrecursorMZ: 321.131
PrecursorType: [M+K]+
IonMode: Positive
Formula: C12H26O7
SMILES: C(COCCOCCOCCOCCOCCO)O
InChI: 
InChIKey: IIRDTKBZINWQAW-UHFFFAOYSA-N
RetentionTime: 0.9699
CCS: 
CollisionEnergy: 20-40 eV
InstrumentType: UPLC-QTOF-MS
Comment: PI: Cristina Nerin; Data collector: QiZhi Su, GUIA, University of Zaragoza, Spain; Collision energy: 20-40 V; Instrument: Waters HPLC-QTOF-MS (Xevo G2 QTof); Ionization: ESI; Deconvoluted by MS-DIAL; Column: Waters AtlantisTM premier BEH C18 AX column (2.1 × 100mm x 1.7μm); Flow rate: 0.3mL/min; Mobile phase A and B are water and methnaol, respectively, both with 0.1% formic acid; Gradient elution: from A/B (95/5) to A/B (100/0) in 7min, kept for 4 min, then back to A/B (95/5) in 0.1 min, and maintained for additional 1.9 min (13min in total).; Injection volume: 10 μL
Num peaks: 46
87.0305 3791
87.04534 3880
89.06075 30436
90.06153 1258
90.06701 1258
103.03998 5332
121.08916 340
131.05196 777
131.07097 965
133.08636 8691
133.10605 8963
134.09004 696
134.09929 650
134.1058 637
139.05388 324
145.01562 448
145.02492 444
147.06549 864
147.08421 849
160.99274 396
161.04427 489
161.05992 858
161.06825 793
175.05177 431
175.06367 472
175.09702 558
177.11337 1549
189.04135 463
189.05196 456
191.09143 1024
191.10075 1042
205.02058 445
233.06657 550
233.07521 548
235.10902 372
235.11935 377
283.16925 756
283.18204 773
289.18951 353
293.05981 326
293.07449 322
305.15921 1338
307.12344 367
307.14658 362
321.11041 453
321.12338 560
Name: hexaoxyethylene glycol
PrecursorMZ: 283.1766
PrecursorType: [M+H]+
IonMode: Positive
Formula: C12H26O7
SMILES: C(COCCOCCOCCOCCOCCO)O
InChI: 
InChIKey: IIRDTKBZINWQAW-UHFFFAOYSA-N
RetentionTime: 0.9737
CCS: 
CollisionEnergy: 20-40 eV
InstrumentType: UPLC-QTOF-MS
Comment: PI: Cristina Nerin; Data collector: QiZhi Su, GUIA, University of Zaragoza, Spain; Collision energy: 20-40 V; Instrument: Waters HPLC-QTOF-MS (Xevo G2 QTof); Ionization: ESI; Deconvoluted by MS-DIAL; Column: Waters AtlantisTM premier BEH C18 AX column (2.1 × 100mm x 1.7μm); Flow rate: 0.3mL/min; Mobile phase A and B are water and methnaol, respectively, both with 0.1% formic acid; Gradient elution: from A/B (95/5) to A/B (100/0) in 7min, kept for 4 min, then back to A/B (95/5) in 0.1 min, and maintained for additional 1.9 min (13min in total).; Injection volume: 10 μL
Num peaks: 39
87.04486 3921
89.06081 30558
90.06327 1256
103.03953 5357
121.08293 328
121.09044 337
131.06706 968
131.07748 961
133.0872 8722
134.09157 676
134.09979 656
139.05411 324
145.01416 462
145.0222 453
147.06673 878
160.98169 403
160.98795 399
161.0014 392
161.06378 849
161.07953 770
175.04958 440
175.05731 464
175.0721 361
175.09665 559
177.11377 1553
189.03244 432
189.04726 444
189.06049 431
191.08621 1031
191.09407 1034
205.00726 425
205.01907 448
205.03363 306
233.05763 526
233.06799 541
233.08319 522
235.11177 385
235.12299 379
283.17773 829
Name: 4-hydroxy-3-methoxycinnamic aldehyde
PrecursorMZ: 179.0718
PrecursorType: [M+H]+
IonMode: Positive
Formula: C10H10O3
SMILES: COC1=C(C=CC(=C1)C=CC=O)O
InChI: 
InChIKey: DKZBBWMURDFHNE-NSCUHMNNSA-N
RetentionTime: 4.754217
CCS: 
CollisionEnergy: 20-40 eV
InstrumentType: UPLC-QTOF-MS
Comment: PI: Cristina Nerin; Data collector: QiZhi Su, GUIA, University of Zaragoza, Spain; Collision energy: 20-40 V; Instrument: Waters HPLC-QTOF-MS (Xevo G2 QTof); Ionization: ESI; Deconvoluted by MS-DIAL; Column: Waters AtlantisTM premier BEH C18 AX column (2.1 × 100mm x 1.7μm); Flow rate: 0.3mL/min; Mobile phase A and B are water and methnaol, respectively, both with 0.1% formic acid; Gradient elution: from A/B (95/5) to A/B (100/0) in 7min, kept for 4 min, then back to A/B (95/5) in 0.1 min, and maintained for additional 1.9 min (13min in total).; Injection volume: 10 μL
Num peaks: 81
55.01743 201
55.03069 201
65.03922 341
67.05345 53
69.03666 62
73.0282 428
73.03252 444
73.06329 67
77.03896 436
77.04613 436
79.05556 311
80.05667 285
80.06347 284
80.06866 288
87.04554 557
89.04287 927
89.06126 738
90.06911 189
91.05524 898
93.03134 56
101.03687 110
101.0538 143
103.08488 52
105.06216 756
105.07067 802
105.07789 807
105.08545 714
106.06984 154
106.07837 130
107.05037 346
108.05957 165
115.05492 225
117.08813 198
118.02332 1547
118.04219 613
119.05033 468
122.04355 67
131.05188 280
132.0482 79
132.05734 72
132.07538 61
132.08061 80
133.06325 575
133.08606 1470
133.1104 642
135.02975 545
135.04556 352
135.06551 866
137.05688 265
137.06395 313
137.07695 373
141.03188 54
144.99213 91
145.02003 212
145.03151 182
146.03815 379
147.04477 1338
147.99294 55
148.04875 62
148.06897 205
151.0312 55
151.03824 88
151.04439 82
151.0692 91
151.07675 108
151.08429 95
151.09445 113
157.08817 78
160.04189 59
160.05783 72
161.06053 543
161.07858 668
164.04739 58
172.96869 101
172.9879 99
172.9978 86
174.06241 58
174.07703 69
176.09428 110
176.10522 99
179.07207 5140
Name: 4-hydroxy-3-methoxycinnamic aldehyde
PrecursorMZ: 179.0715
PrecursorType: [M+H]+
IonMode: Positive
Formula: C10H10O3
SMILES: COC1=C(C=CC(=C1)C=CC=O)O
InChI: 
InChIKey: DKZBBWMURDFHNE-NSCUHMNNSA-N
RetentionTime: 4.9027
CCS: 
CollisionEnergy: 20-40 eV
InstrumentType: UPLC-QTOF-MS
Comment: PI: Cristina Nerin; Data collector: QiZhi Su, GUIA, University of Zaragoza, Spain; Collision energy: 20-40 V; Instrument: Waters HPLC-QTOF-MS (Xevo G2 QTof); Ionization: ESI; Deconvoluted by MS-DIAL; Column: Waters AtlantisTM premier BEH C18 AX column (2.1 × 100mm x 1.7μm); Flow rate: 0.3mL/min; Mobile phase A and B are water and methnaol, respectively, both with 0.1% formic acid; Gradient elution: from A/B (95/5) to A/B (100/0) in 7min, kept for 4 min, then back to A/B (95/5) in 0.1 min, and maintained for additional 1.9 min (13min in total).; Injection volume: 10 μL
Num peaks: 74
55.01878 952
65.04005 2481
77.02641 2658
77.03908 2523
77.05808 2888
79.05506 3886
80.06155 1636
80.06721 1623
80.07492 1823
90.04646 2595
90.06337 2614
91.05473 27100
92.05916 1807
93.03502 284
94.03665 527
94.04208 530
95.04987 738
102.06477 337
103.04023 2003
103.05516 2689
104.05891 302
104.07011 306
104.07587 295
105.07062 3523
107.03098 6462
107.04994 6111
108.05679 544
110.02621 433
110.03719 426
115.05467 1820
117.02642 388
117.03496 369
117.05286 368
118.04219 7701
119.05018 18089
120.05283 1585
121.01458 273
122.03517 607
122.04333 611
123.04513 451
131.03424 451
131.04523 535
131.05571 827
131.07275 309
131.08635 354
133.0656 1182
134.06999 459
134.0865 322
135.045 3107
136.05232 5409
137.05766 880
145.02446 271
146.03696 8044
147.04443 9749
148.04915 745
149.04379 305
150.06322 536
150.07091 532
150.07942 509
151.0703 281
161.0605 4325
162.05789 517
162.06581 556
163.02893 573
163.03894 651
163.04994 680
164.03783 516
164.04742 368
164.05911 414
172.97539 338
172.99242 404
173.99596 475
174.00551 384
179.07143 5988
Name: Rhodamine B base
PrecursorMZ: 443.2339
PrecursorType: [M+H]+
IonMode: Positive
Formula: C28H30N2O3
SMILES: CCN(CC)C1=CC2=C(C=C1)C3(C4=C(O2)C=C(C=C4)N(CC)CC)C5=CC=CC=C5C(=O)O3
InChI: 
InChIKey: DZNJMLVCIZGWSC-UHFFFAOYSA-N
RetentionTime: 0.9889333
CCS: 
CollisionEnergy: 20-40 eV
InstrumentType: UPLC-QTOF-MS
Comment: PI: Cristina Nerin; Data collector: QiZhi Su, GUIA, University of Zaragoza, Spain; Collision energy: 20-40 V; Instrument: Waters HPLC-QTOF-MS (Xevo G2 QTof); Ionization: ESI; Deconvoluted by MS-DIAL; Column: Waters AtlantisTM premier BEH C18 AX column (2.1 × 100mm x 1.7μm); Flow rate: 0.3mL/min; Mobile phase A and B are water and methnaol, respectively, both with 0.1% formic acid; Gradient elution: from A/B (95/5) to A/B (100/0) in 7min, kept for 4 min, then back to A/B (95/5) in 0.1 min, and maintained for additional 1.9 min (13min in total).; Injection volume: 10 μL
Num peaks: 5
399.17099 115920
400.17407 30397
413.18701 13596
443.23318 1068139
443.44382 16733
Name: Rhodamine B base
PrecursorMZ: 443.2339
PrecursorType: [M+H]+
IonMode: Positive
Formula: C28H30N2O3
SMILES: CCN(CC)C1=CC2=C(C=C1)C3(C4=C(O2)C=C(C=C4)N(CC)CC)C5=CC=CC=C5C(=O)O3
InChI: 
InChIKey: DZNJMLVCIZGWSC-UHFFFAOYSA-N
RetentionTime: 0.9889333
CCS: 
CollisionEnergy: 20-40 eV
InstrumentType: UPLC-QTOF-MS
Comment: PI: Cristina Nerin; Data collector: QiZhi Su, GUIA, University of Zaragoza, Spain; Collision energy: 20-40 V; Instrument: Waters HPLC-QTOF-MS (Xevo G2 QTof); Ionization: ESI; Deconvoluted by MS-DIAL; Column: Waters AtlantisTM premier BEH C18 AX column (2.1 × 100mm x 1.7μm); Flow rate: 0.3mL/min; Mobile phase A and B are water and methnaol, respectively, both with 0.1% formic acid; Gradient elution: from A/B (95/5) to A/B (100/0) in 7min, kept for 4 min, then back to A/B (95/5) in 0.1 min, and maintained for additional 1.9 min (13min in total).; Injection volume: 10 μL
Num peaks: 5
399.17099 115920
400.17407 30397
413.18701 13596
443.23318 1068139
443.44382 16733
Name: Rhodamine B base
PrecursorMZ: 443.2332
PrecursorType: [M+H]+
IonMode: Positive
Formula: C28H30N2O3
SMILES: CCN(CC)C1=CC2=C(C=C1)C3(C4=C(O2)C=C(C=C4)N(CC)CC)C5=CC=CC=C5C(=O)O3
InChI: 
InChIKey: DZNJMLVCIZGWSC-UHFFFAOYSA-N
RetentionTime: 5.920166
CCS: 
CollisionEnergy: 20-40 eV
InstrumentType: UPLC-QTOF-MS
Comment: PI: Cristina Nerin; Data collector: QiZhi Su, GUIA, University of Zaragoza, Spain; Collision energy: 20-40 V; Instrument: Waters HPLC-QTOF-MS (Xevo G2 QTof); Ionization: ESI; Deconvoluted by MS-DIAL; Column: Waters AtlantisTM premier BEH C18 AX column (2.1 × 100mm x 1.7μm); Flow rate: 0.3mL/min; Mobile phase A and B are water and methnaol, respectively, both with 0.1% formic acid; Gradient elution: from A/B (95/5) to A/B (100/0) in 7min, kept for 4 min, then back to A/B (95/5) in 0.1 min, and maintained for additional 1.9 min (13min in total).; Injection volume: 10 μL
Num peaks: 3
399.1712 29417
400.17419 7378
443.23334 343540
Name: Tetradecanamide
PrecursorMZ: 455.4586
PrecursorType: [2M+H]+
IonMode: Positive
Formula: C14H29NO
SMILES: CCCCCCCCCCCCCC(=O)N
InChI: 
InChIKey: QEALYLRSRQDCRA-UHFFFAOYSA-N
RetentionTime: 7.825716
CCS: 
CollisionEnergy: 20-40 eV
InstrumentType: UPLC-QTOF-MS
Comment: PI: Cristina Nerin; Data collector: QiZhi Su, GUIA, University of Zaragoza, Spain; Collision energy: 20-40 V; Instrument: Waters HPLC-QTOF-MS (Xevo G2 QTof); Ionization: ESI; Deconvoluted by MS-DIAL; Column: Waters AtlantisTM premier BEH C18 AX column (2.1 × 100mm x 1.7μm); Flow rate: 0.3mL/min; Mobile phase A and B are water and methnaol, respectively, both with 0.1% formic acid; Gradient elution: from A/B (95/5) to A/B (100/0) in 7min, kept for 4 min, then back to A/B (95/5) in 0.1 min, and maintained for additional 1.9 min (13min in total).; Injection volume: 10 μL
Num peaks: 10
88.07652 30820
102.0919 20532
228.23326 1044877
228.3119 11768
228.32927 11769
228.36848 17446
228.38332 20409
228.39865 16351
229.23596 165088
230.23849 15484
Name: Tetradecanamide
PrecursorMZ: 228.2347
PrecursorType: [M+H]+
IonMode: Positive
Formula: C14H29NO
SMILES: CCCCCCCCCCCCCC(=O)N
InChI: 
InChIKey: QEALYLRSRQDCRA-UHFFFAOYSA-N
RetentionTime: 7.829517
CCS: 
CollisionEnergy: 20-40 eV
InstrumentType: UPLC-QTOF-MS
Comment: PI: Cristina Nerin; Data collector: QiZhi Su, GUIA, University of Zaragoza, Spain; Collision energy: 20-40 V; Instrument: Waters HPLC-QTOF-MS (Xevo G2 QTof); Ionization: ESI; Deconvoluted by MS-DIAL; Column: Waters AtlantisTM premier BEH C18 AX column (2.1 × 100mm x 1.7μm); Flow rate: 0.3mL/min; Mobile phase A and B are water and methnaol, respectively, both with 0.1% formic acid; Gradient elution: from A/B (95/5) to A/B (100/0) in 7min, kept for 4 min, then back to A/B (95/5) in 0.1 min, and maintained for additional 1.9 min (13min in total).; Injection volume: 10 μL
Num peaks: 6
88.07636 22898
102.07418 19807
102.09182 18081
228.23349 1038590
228.31226 11369
228.38329 13173
Name: Tetradecanamide
PrecursorMZ: 250.2163
PrecursorType: [M+Na]+
IonMode: Positive
Formula: C14H29NO
SMILES: CCCCCCCCCCCCCC(=O)N
InChI: 
InChIKey: QEALYLRSRQDCRA-UHFFFAOYSA-N
RetentionTime: 7.829517
CCS: 
CollisionEnergy: 20-40 eV
InstrumentType: UPLC-QTOF-MS
Comment: PI: Cristina Nerin; Data collector: QiZhi Su, GUIA, University of Zaragoza, Spain; Collision energy: 20-40 V; Instrument: Waters HPLC-QTOF-MS (Xevo G2 QTof); Ionization: ESI; Deconvoluted by MS-DIAL; Column: Waters AtlantisTM premier BEH C18 AX column (2.1 × 100mm x 1.7μm); Flow rate: 0.3mL/min; Mobile phase A and B are water and methnaol, respectively, both with 0.1% formic acid; Gradient elution: from A/B (95/5) to A/B (100/0) in 7min, kept for 4 min, then back to A/B (95/5) in 0.1 min, and maintained for additional 1.9 min (13min in total).; Injection volume: 10 μL
Num peaks: 11
88.07636 29052
102.07418 21365
102.09182 20305
228.23349 1044877
228.31226 11768
228.36908 17446
228.38329 20409
228.39854 16351
229.23637 165088
230.23785 15484
250.21552 15224
Name: Tetradecanamide
PrecursorMZ: 477.4406
PrecursorType: [2M+Na]+
IonMode: Positive
Formula: C14H29NO
SMILES: CCCCCCCCCCCCCC(=O)N
InChI: 
InChIKey: QEALYLRSRQDCRA-UHFFFAOYSA-N
RetentionTime: 7.829517
CCS: 
CollisionEnergy: 20-40 eV
InstrumentType: UPLC-QTOF-MS
Comment: PI: Cristina Nerin; Data collector: QiZhi Su, GUIA, University of Zaragoza, Spain; Collision energy: 20-40 V; Instrument: Waters HPLC-QTOF-MS (Xevo G2 QTof); Ionization: ESI; Deconvoluted by MS-DIAL; Column: Waters AtlantisTM premier BEH C18 AX column (2.1 × 100mm x 1.7μm); Flow rate: 0.3mL/min; Mobile phase A and B are water and methnaol, respectively, both with 0.1% formic acid; Gradient elution: from A/B (95/5) to A/B (100/0) in 7min, kept for 4 min, then back to A/B (95/5) in 0.1 min, and maintained for additional 1.9 min (13min in total).; Injection volume: 10 μL
Num peaks: 10
88.07636 28081
102.07418 19827
102.09182 19642
228.23349 1044877
228.31226 11768
228.36908 17446
228.38329 20409
228.39854 16351
229.23637 165088
230.23785 15484
Name: Tetradecanamide
PrecursorMZ: 266.1906
PrecursorType: [M+K]+
IonMode: Positive
Formula: C14H29NO
SMILES: CCCCCCCCCCCCCC(=O)N
InChI: 
InChIKey: QEALYLRSRQDCRA-UHFFFAOYSA-N
RetentionTime: 7.840933
CCS: 
CollisionEnergy: 20-40 eV
InstrumentType: UPLC-QTOF-MS
Comment: PI: Cristina Nerin; Data collector: QiZhi Su, GUIA, University of Zaragoza, Spain; Collision energy: 20-40 V; Instrument: Waters HPLC-QTOF-MS (Xevo G2 QTof); Ionization: ESI; Deconvoluted by MS-DIAL; Column: Waters AtlantisTM premier BEH C18 AX column (2.1 × 100mm x 1.7μm); Flow rate: 0.3mL/min; Mobile phase A and B are water and methnaol, respectively, both with 0.1% formic acid; Gradient elution: from A/B (95/5) to A/B (100/0) in 7min, kept for 4 min, then back to A/B (95/5) in 0.1 min, and maintained for additional 1.9 min (13min in total).; Injection volume: 10 μL
Num peaks: 106
55.05588 782
56.04669 199
56.05203 207
56.06167 203
56.06585 229
57.03514 191
57.07084 916
57.08862 720
67.05535 384
69.07077 3625
69.08102 3652
70.06035 728
70.06749 770
70.07468 691
71.05006 716
72.04442 305
72.04956 313
72.05834 458
72.09336 202
74.06099 1723
75.05743 218
75.06448 244
79.05329 196
79.05719 199
81.07135 1861
81.08629 1803
83.04888 842
83.05468 867
83.07299 1689
83.08685 1377
84.09335 211
85.05637 554
85.06649 542
86.06163 831
88.07661 18493
93.05486 796
93.07021 844
93.08262 845
95.08738 1095
97.06008 567
97.06632 551
97.10278 407
98.09801 301
98.10352 304
98.10915 302
100.07385 873
100.0794 894
102.09213 7716
103.08534 1081
103.09533 1036
103.10075 1136
107.08875 782
109.10287 1018
109.111 1004
111.06682 858
111.08069 871
111.10061 1626
111.11855 863
111.12959 865
116.10731 1698
121.08483 848
121.10108 866
121.10966 854
123.11349 329
123.12061 335
123.12956 351
125.08909 612
125.09827 619
128.10416 200
128.11121 205
130.12282 472
139.10008 239
139.10666 234
139.11598 245
144.1396 487
149.11594 266
153.11769 222
153.12529 214
153.13481 201
158.15517 325
167.99957 194
168.01003 198
200.19376 293
200.20518 297
209.19016 235
210.22391 356
210.23582 325
217.10555 257
223.20552 1374
224.2021 254
224.217 246
228.15137 209
228.16322 238
231.22847 306
231.24281 361
231.26216 251
231.51952 242
234.24171 594
239.71031 208
239.72289 228
247.20619 732
247.72774 272
248.20665 267
250.21562 2659
251.23938 1272
266.17422 228
Name: Tergitol TMN-6
PrecursorMZ: 319.2861
PrecursorType: [M+H]+
IonMode: Positive
Formula: C18H38O4
SMILES: CC(C)CC(C)CC(CC(C)C)OCCOCCOCCO
InChI: 
InChIKey: PLFJWWUZKJKIPZ-UHFFFAOYSA-N
RetentionTime: 7.989417
CCS: 
CollisionEnergy: 20-40 eV
InstrumentType: UPLC-QTOF-MS
Comment: PI: Cristina Nerin; Data collector: QiZhi Su, GUIA, University of Zaragoza, Spain; Collision energy: 20-40 V; Instrument: Waters HPLC-QTOF-MS (Xevo G2 QTof); Ionization: ESI; Deconvoluted by MS-DIAL; Column: Waters AtlantisTM premier BEH C18 AX column (2.1 × 100mm x 1.7μm); Flow rate: 0.3mL/min; Mobile phase A and B are water and methnaol, respectively, both with 0.1% formic acid; Gradient elution: from A/B (95/5) to A/B (100/0) in 7min, kept for 4 min, then back to A/B (95/5) in 0.1 min, and maintained for additional 1.9 min (13min in total).; Injection volume: 10 μL
Num peaks: 30
71.0859 938
73.03076 135
73.06569 242
85.10299 667
95.08611 191
95.10413 214
107.04891 242
107.05696 877
107.07036 780
107.08245 806
107.09002 414
115.05533 114
119.07327 108
127.1442 121
151.09883 811
151.13161 130
151.14073 114
175.13692 117
175.1508 138
199.09959 127
225.14891 177
225.16243 173
281.27081 122
297.24176 10759
298.23102 1274
298.24884 1524
299.24957 210
299.26871 144
313.20285 176
319.28302 182
Name: Tergitol TMN-6
PrecursorMZ: 357.2413
PrecursorType: [M+K]+
IonMode: Positive
Formula: C18H38O4
SMILES: CC(C)CC(C)CC(CC(C)C)OCCOCCOCCO
InChI: 
InChIKey: PLFJWWUZKJKIPZ-UHFFFAOYSA-N
RetentionTime: 7.989417
CCS: 
CollisionEnergy: 20-40 eV
InstrumentType: UPLC-QTOF-MS
Comment: PI: Cristina Nerin; Data collector: QiZhi Su, GUIA, University of Zaragoza, Spain; Collision energy: 20-40 V; Instrument: Waters HPLC-QTOF-MS (Xevo G2 QTof); Ionization: ESI; Deconvoluted by MS-DIAL; Column: Waters AtlantisTM premier BEH C18 AX column (2.1 × 100mm x 1.7μm); Flow rate: 0.3mL/min; Mobile phase A and B are water and methnaol, respectively, both with 0.1% formic acid; Gradient elution: from A/B (95/5) to A/B (100/0) in 7min, kept for 4 min, then back to A/B (95/5) in 0.1 min, and maintained for additional 1.9 min (13min in total).; Injection volume: 10 μL
Num peaks: 33
71.0859 1565
85.10299 727
87.04385 300
87.04988 299
90.06599 682
95.08611 307
95.10413 287
107.04891 228
107.05696 343
107.07036 663
107.08245 516
111.11804 215
151.09883 1233
177.10986 225
177.11964 230
257.24686 213
285.14243 188
297.24176 10808
298.23102 1293
298.24884 1504
299.24957 237
319.28302 327
324.32748 2151
325.29007 289
325.32855 280
325.34479 214
329.17285 704
329.18515 688
341.26822 17885
342.26852 3218
343.27469 522
343.29379 429
357.23328 208
Name: Tergitol TMN-6
PrecursorMZ: 336.312
PrecursorType: [M+NH4]+
IonMode: Positive
Formula: C18H38O4
SMILES: CC(C)CC(C)CC(CC(C)C)OCCOCCOCCO
InChI: 
InChIKey: PLFJWWUZKJKIPZ-UHFFFAOYSA-N
RetentionTime: 7.993217
CCS: 
CollisionEnergy: 20-40 eV
InstrumentType: UPLC-QTOF-MS
Comment: PI: Cristina Nerin; Data collector: QiZhi Su, GUIA, University of Zaragoza, Spain; Collision energy: 20-40 V; Instrument: Waters HPLC-QTOF-MS (Xevo G2 QTof); Ionization: ESI; Deconvoluted by MS-DIAL; Column: Waters AtlantisTM premier BEH C18 AX column (2.1 × 100mm x 1.7μm); Flow rate: 0.3mL/min; Mobile phase A and B are water and methnaol, respectively, both with 0.1% formic acid; Gradient elution: from A/B (95/5) to A/B (100/0) in 7min, kept for 4 min, then back to A/B (95/5) in 0.1 min, and maintained for additional 1.9 min (13min in total).; Injection volume: 10 μL
Num peaks: 49
57.07185 265
67.05514 296
71.08691 1263
74.0951 126
74.09933 118
85.10198 380
87.04517 128
89.061 592
90.05701 551
90.06397 544
90.07021 554
91.07688 198
95.08638 329
107.07026 416
109.09626 122
111.11327 152
111.12187 164
116.96226 164
116.96882 158
119.08418 112
119.09152 113
127.14263 120
135.02942 113
135.08751 111
151.09789 806
151.10664 866
160.97745 179
160.98689 164
160.99666 165
225.14417 282
225.15639 246
227.10344 125
253.20988 143
269.18015 148
285.14844 134
294.23462 123
297.24112 10780
298.24072 1405
298.25415 1270
299.23691 220
299.2515 211
313.1944 114
319.28577 124
324.3284 1387
325.28198 297
325.29642 293
325.32275 112
325.33536 161
329.1806 659
Name: Tergitol TMN-6
PrecursorMZ: 341.2672
PrecursorType: [M+Na]+
IonMode: Positive
Formula: C18H38O4
SMILES: CC(C)CC(C)CC(CC(C)C)OCCOCCOCCO
InChI: 
InChIKey: PLFJWWUZKJKIPZ-UHFFFAOYSA-N
RetentionTime: 7.993217
CCS: 
CollisionEnergy: 20-40 eV
InstrumentType: UPLC-QTOF-MS
Comment: PI: Cristina Nerin; Data collector: QiZhi Su, GUIA, University of Zaragoza, Spain; Collision energy: 20-40 V; Instrument: Waters HPLC-QTOF-MS (Xevo G2 QTof); Ionization: ESI; Deconvoluted by MS-DIAL; Column: Waters AtlantisTM premier BEH C18 AX column (2.1 × 100mm x 1.7μm); Flow rate: 0.3mL/min; Mobile phase A and B are water and methnaol, respectively, both with 0.1% formic acid; Gradient elution: from A/B (95/5) to A/B (100/0) in 7min, kept for 4 min, then back to A/B (95/5) in 0.1 min, and maintained for additional 1.9 min (13min in total).; Injection volume: 10 μL
Num peaks: 27
57.07185 317
71.08691 1725
85.10198 729
87.04517 219
89.061 669
90.05701 663
90.06397 654
90.07021 671
91.07688 198
95.08638 307
107.07026 607
151.09789 1107
151.10664 1174
225.14417 292
225.15639 283
297.24112 10808
298.24072 1551
298.25415 1393
299.23691 217
299.2515 233
319.28577 227
324.3284 1993
325.28198 297
325.29642 291
325.33536 252
329.1806 692
341.26657 18934
Name: Hexylresorcinol
PrecursorMZ: 195.1397
PrecursorType: [M+H]+
IonMode: Positive
Formula: C12H18O2
SMILES: CCCCCCC1=C(C=C(C=C1)O)O
InChI: 
InChIKey: WFJIVOKAWHGMBH-UHFFFAOYSA-N
RetentionTime: 7.059484
CCS: 
CollisionEnergy: 20-40 eV
InstrumentType: UPLC-QTOF-MS
Comment: PI: Cristina Nerin; Data collector: QiZhi Su, GUIA, University of Zaragoza, Spain; Collision energy: 20-40 V; Instrument: Waters HPLC-QTOF-MS (Xevo G2 QTof); Ionization: ESI; Deconvoluted by MS-DIAL; Column: Waters AtlantisTM premier BEH C18 AX column (2.1 × 100mm x 1.7μm); Flow rate: 0.3mL/min; Mobile phase A and B are water and methnaol, respectively, both with 0.1% formic acid; Gradient elution: from A/B (95/5) to A/B (100/0) in 7min, kept for 4 min, then back to A/B (95/5) in 0.1 min, and maintained for additional 1.9 min (13min in total).; Injection volume: 10 μL
Num peaks: 160
57.07184 621
60.07883 206
60.08484 206
65.03822 187
65.0424 187
65.04917 187
67.0545 88
69.02494 56
69.03234 58
69.03638 58
69.98957 44
69.99913 43
74.05637 217
74.06208 218
75.04928 68
77.04015 187
77.05058 199
78.98689 43
80.0237 46
81.01829 49
81.0293 82
81.03576 86
85.10202 464
87.07187 41
88.07589 489
89.07589 41
92.04884 70
92.05669 55
93.02229 755
93.03497 831
96.01901 41
96.08279 57
96.09 57
97.06264 51
97.07118 49
98.10482 62
98.11745 64
98.96987 99
98.98315 57
98.98982 76
99.08443 42
100.06253 278
100.07142 313
100.07728 306
100.08391 302
102.0758 269
102.08286 349
102.09237 343
107.02354 56
107.05041 189
107.07158 191
107.08315 97
107.09025 91
107.96336 107
108.06295 66
108.07082 53
110.97047 49
111.04638 3974
112.04951 316
112.05879 304
113.02624 56
113.0575 45
115.03887 55
116.05032 47
116.10228 111
116.10937 103
117.06628 58
117.0748 92
117.08974 63
118.0675 55
118.08666 41
119.08565 72
125.03934 118
125.05728 121
125.06339 101
126.03465 105
128.06006 64
128.07182 67
134.06363 102
134.08101 88
135.08345 53
137.01703 40
139.08698 85
139.14291 47
140.04613 133
140.06564 217
140.07747 180
141.06381 42
141.07249 43
141.93106 54
142.07954 46
142.0853 48
144.09532 40
147.05011 103
147.06831 71
147.07877 52
149.02121 463
149.04167 150
149.06061 289
150.05 44
150.06375 70
150.07112 66
150.10553 45
151.07527 78
151.13722 40
153.0172 54
153.0898 66
155.10144 97
155.10814 66
156.04716 46
161.13013 52
163.11252 153
165.09383 80
165.10315 75
166.00464 48
166.02342 40
166.06009 87
167.07121 47
169.03468 52
169.04767 76
169.0634 78
169.12186 71
169.13155 40
171.06886 89
171.11826 45
172.17033 805
173.09932 81
173.16896 78
174.07289 54
175.05988 45
176.02161 104
177.05013 280
177.05589 289
177.09032 43
177.10384 43
178.17824 46
179.05887 41
179.07137 67
179.13426 49
179.1467 45
181.08304 141
181.1183 50
182.05112 79
182.15158 45
185.08929 63
190.16174 51
191.08965 114
191.11205 209
191.12138 171
192.09273 46
193.09062 97
193.10199 69
193.1095 101
193.11996 72
194.15233 64
195.03049 58
195.04051 85
195.11465 83
195.13783 259
195.14986 45
Name: "2,4,6-Tris((dimethylamino)methyl)phenol"
PrecursorMZ: 266.2249
PrecursorType: [M+H]+
IonMode: Positive
Formula: C15H27N3O
SMILES: CN(C)CC1=CC(=C(C(=C1)CN(C)C)O)CN(C)C
InChI: 
InChIKey: AHDSRXYHVZECER-UHFFFAOYSA-N
RetentionTime: 0.5815833
CCS: 
CollisionEnergy: 20-40 eV
InstrumentType: UPLC-QTOF-MS
Comment: PI: Cristina Nerin; Data collector: QiZhi Su, GUIA, University of Zaragoza, Spain; Collision energy: 20-40 V; Instrument: Waters HPLC-QTOF-MS (Xevo G2 QTof); Ionization: ESI; Deconvoluted by MS-DIAL; Column: Waters AtlantisTM premier BEH C18 AX column (2.1 × 100mm x 1.7μm); Flow rate: 0.3mL/min; Mobile phase A and B are water and methnaol, respectively, both with 0.1% formic acid; Gradient elution: from A/B (95/5) to A/B (100/0) in 7min, kept for 4 min, then back to A/B (95/5) in 0.1 min, and maintained for additional 1.9 min (13min in total).; Injection volume: 10 μL
Num peaks: 178
52.79288 25
56.50901 25
60.98957 59
61.44398 20
65.0391 34
65.0431 34
66.01869 185
68.58384 30
68.9352 48
70.06408 58
70.93929 31
71.94254 31
71.95472 47
72.04028 35
72.04559 70
72.94125 93
73.04639 25
73.95303 76
74.94647 39
74.95033 45
77.03873 69
78.04482 58
78.94274 20
78.9845 28
79.05157 127
79.05617 247
81.03049 33
81.07287 21
82.0724 24
82.94009 27
82.97823 25
83.03117 109
83.08101 25
84.96229 294
84.96941 22
85.06206 52
85.94523 106
85.95753 33
86.952 49
88.97714 55
89.03681 31
89.77202 20
91.04954 99
91.05717 501
93.06746 20
96.95789 19
96.96363 56
96.97041 20
97.93486 21
97.96912 73
98.96069 41
98.97072 61
98.9769 72
99.93103 20
99.94408 60
99.96941 63
100.92735 23
100.93811 116
100.96916 24
101.87209 43
101.93665 21
101.94431 103
101.96564 32
103.05446 261
103.06252 421
104.06153 42
104.10333 73
105.06875 704
105.07608 391
105.08373 57
105.94974 27
106.07117 79
106.07706 108
106.95317 30
106.96898 31
107.07664 24
107.08392 49
108.06094 33
110.98904 21
111.08122 20
111.9269 25
112.08282 29
113.93825 23
113.96904 57
114.94352 23
114.97401 38
115.94731 59
116.09415 20
117.07468 70
118.08737 20
118.09406 57
119.05004 336
119.08077 29
119.0868 26
120.04937 89
120.05981 24
122.03167 57
124.96964 36
124.98095 21
125.97665 21
126.09592 46
126.9669 25
127.97576 20
128.88712 25
128.96492 25
129.8813 31
130.94667 31
130.99629 22
131.07278 47
132.05563 21
133.06174 818
133.0715 648
133.07739 180
134.07068 93
135.06708 31
135.07677 33
135.08408 39
135.95369 20
137.84517 22
138.05972 33
141.96117 30
143.08795 34
145.97807 59
149.0246 37
149.13121 23
149.98932 20
150.96696 46
151.90746 28
152.01573 36
152.97597 27
152.98882 43
155.1461 25
163.04384 70
164.10451 134
164.11836 63
165.11185 29
166.08067 29
166.96526 42
167.06841 38
170.013 20
171.14262 20
172.80537 92
172.86507 35
173.05132 38
176.10741 675
177.07233 32
177.11729 21
177.92538 25
178.00916 24
178.10796 102
178.11824 222
178.12463 562
179.12181 63
179.133 21
188.95453 20
189.02242 57
191.01006 26
191.17137 28
192.88187 30
193.09442 29
194.12299 36
195.12537 23
196.08531 25
197.09331 20
199.8716 27
201.86072 32
203.17767 25
213.01872 45
213.11162 58
219.1801 23
221.16547 421
221.17949 28
222.14214 32
222.1595 25
228.88483 26
238.8602 42
266.14642 103
266.21317 65
Name: 4-Aminophenyl sulfone
PrecursorMZ: 497.1302
PrecursorType: [2M+H]+
IonMode: Positive
Formula: C12H12N2O2S
SMILES: C1=CC(=CC=C1N)S(=O)(=O)C2=CC=C(C=C2)N
InChI: 
InChIKey: MQJKPEGWNLWLTK-UHFFFAOYSA-N
RetentionTime: 1.007967
CCS: 
CollisionEnergy: 20-40 eV
InstrumentType: UPLC-QTOF-MS
Comment: PI: Cristina Nerin; Data collector: QiZhi Su, GUIA, University of Zaragoza, Spain; Collision energy: 20-40 V; Instrument: Waters HPLC-QTOF-MS (Xevo G2 QTof); Ionization: ESI; Deconvoluted by MS-DIAL; Column: Waters AtlantisTM premier BEH C18 AX column (2.1 × 100mm x 1.7μm); Flow rate: 0.3mL/min; Mobile phase A and B are water and methnaol, respectively, both with 0.1% formic acid; Gradient elution: from A/B (95/5) to A/B (100/0) in 7min, kept for 4 min, then back to A/B (95/5) in 0.1 min, and maintained for additional 1.9 min (13min in total).; Injection volume: 10 μL
Num peaks: 18
80.0507 1466
92.05014 7014
93.05749 2343
108.02582 2971
108.04525 6425
109.02852 1068
109.0468 2300
156.01218 8361
157.0112 1448
157.02005 1477
158.01256 629
204.08855 489
249.07013 43624
250.07283 6160
251.06841 1825
469.15332 506
469.16751 542
497.13028 645
Name: 4-Aminophenyl sulfone
PrecursorMZ: 249.0703
PrecursorType: [M+H]+
IonMode: Positive
Formula: C12H12N2O2S
SMILES: C1=CC(=CC=C1N)S(=O)(=O)C2=CC=C(C=C2)N
InChI: 
InChIKey: MQJKPEGWNLWLTK-UHFFFAOYSA-N
RetentionTime: 1.011767
CCS: 
CollisionEnergy: 20-40 eV
InstrumentType: UPLC-QTOF-MS
Comment: PI: Cristina Nerin; Data collector: QiZhi Su, GUIA, University of Zaragoza, Spain; Collision energy: 20-40 V; Instrument: Waters HPLC-QTOF-MS (Xevo G2 QTof); Ionization: ESI; Deconvoluted by MS-DIAL; Column: Waters AtlantisTM premier BEH C18 AX column (2.1 × 100mm x 1.7μm); Flow rate: 0.3mL/min; Mobile phase A and B are water and methnaol, respectively, both with 0.1% formic acid; Gradient elution: from A/B (95/5) to A/B (100/0) in 7min, kept for 4 min, then back to A/B (95/5) in 0.1 min, and maintained for additional 1.9 min (13min in total).; Injection volume: 10 μL
Num peaks: 26
65.03922 3329
80.03895 1403
80.05089 1464
92.05031 35780
93.05676 7500
93.07298 7541
94.063 373
108.04504 31857
108.06353 31874
109.03007 2246
109.04782 2282
109.06297 2135
136.07584 1913
136.09151 1904
147.03685 482
147.04678 474
156.01163 19014
157.00703 1500
157.01793 1537
157.0275 1483
158.00049 977
158.01154 1001
158.02299 978
165.05641 1743
165.06717 1708
249.07011 36055
Name: Docosahexaenoic acid methyl ester
PrecursorMZ: 360.2902
PrecursorType: [M+NH4]+
IonMode: Positive
Formula: C23H34O2
SMILES: CCC=CCC=CCC=CCC=CCC=CCC=CCCC(=O)OC
InChI: 
InChIKey: VCDLWFYODNTQOT-JDPCYWKWSA-N
RetentionTime: 8.526716
CCS: 
CollisionEnergy: 20-40 eV
InstrumentType: UPLC-QTOF-MS
Comment: PI: Cristina Nerin; Data collector: QiZhi Su, GUIA, University of Zaragoza, Spain; Collision energy: 20-40 V; Instrument: Waters HPLC-QTOF-MS (Xevo G2 QTof); Ionization: ESI; Deconvoluted by MS-DIAL; Column: Waters AtlantisTM premier BEH C18 AX column (2.1 × 100mm x 1.7μm); Flow rate: 0.3mL/min; Mobile phase A and B are water and methnaol, respectively, both with 0.1% formic acid; Gradient elution: from A/B (95/5) to A/B (100/0) in 7min, kept for 4 min, then back to A/B (95/5) in 0.1 min, and maintained for additional 1.9 min (13min in total).; Injection volume: 10 μL
Num peaks: 436
55.05539 195
59.3729 90
60.08104 231
60.09035 214
65.03481 97
65.03971 97
67.05518 1592
67.06956 1585
69.06928 447
69.07338 435
69.0817 449
73.04525 297
73.06601 618
74.09591 89
74.11219 88
75.04399 102
75.051 112
75.05639 112
77.03868 404
77.04371 411
79.05252 2052
79.05699 2073
80.05147 248
80.05844 246
81.07079 2497
83.04856 98
83.08598 421
83.09186 392
85.06596 201
85.07658 217
89.06102 95
91.0353 3436
91.05427 3462
92.05907 251
92.06342 247
93.0361 136
93.07183 3293
94.07198 221
94.08407 220
95.08619 1756
97.06616 210
97.10239 178
100.93637 159
101.06192 91
102.09104 137
105.05515 2954
105.07073 2967
106.07411 154
107.0674 2277
107.08553 2015
108.08871 129
109.06275 272
109.06931 250
109.1024 1172
109.11151 1154
111.00738 85
111.04652 524
111.11082 86
113.06035 159
115.03914 162
115.04532 185
115.05029 205
115.05733 139
115.0765 119
116.0479 100
117.05386 2775
117.06525 2680
117.07161 2923
117.09174 93
118.06834 291
118.07632 258
118.09208 105
119.08776 3678
120.0819 507
120.08999 541
120.10197 497
121.03104 626
121.06319 373
121.07272 360
121.10134 1648
121.12466 90
122.06402 115
122.07079 97
122.07998 118
122.10773 100
123.07321 209
123.08424 196
123.11731 675
123.12511 694
125.0313 95
125.04786 98
125.06272 99
127.03465 87
127.05161 145
127.06982 208
127.0815 118
128.06104 392
128.0722 356
129.05629 2240
129.07256 1618
129.09087 1212
130.05954 339
130.06961 444
130.0755 404
130.08327 418
131.08652 3991
132.0865 490
132.09818 512
132.11256 144
133.05688 109
133.08742 2892
133.10242 2933
134.08206 98
134.08881 103
134.09892 135
134.10973 164
135.0656 797
135.07861 828
135.08455 868
135.10289 1289
135.11795 1133
135.12935 1070
136.08614 91
136.12271 88
137.09668 125
137.11198 232
141.05663 619
141.06891 658
141.07718 739
143.08679 1678
144.07446 152
144.08562 289
144.09366 278
144.10992 174
145.10191 2838
146.09508 455
146.10689 403
147.06523 744
147.07581 879
147.08945 466
147.11749 1777
148.07079 107
148.0802 118
148.11601 253
148.12358 253
148.1322 225
149.09157 557
149.09842 570
149.12868 522
149.13588 434
149.15019 335
150.02803 496
150.09656 84
150.13484 137
150.14288 135
151.02895 132
151.0603 126
151.07672 100
153.05507 203
153.07162 231
153.08179 287
153.09154 268
155.03253 158
155.05168 100
155.06303 131
155.07681 631
155.08241 744
155.10054 775
156.08383 122
156.09621 195
157.07835 98
157.10406 1005
157.12463 112
158.09363 139
158.10675 146
159.06339 391
159.07396 429
159.08368 427
159.10825 1463
159.1176 1554
159.13815 972
160.09715 129
161.09695 147
161.11743 1328
161.13544 1351
162.08269 90
162.09366 99
162.10709 115
162.12608 242
162.13802 213
163.0473 161
163.05856 257
163.07118 198
163.14989 432
165.05913 227
166.06801 142
166.0972 109
167.06334 200
167.08386 519
167.09164 491
168.08382 154
168.0919 171
169.08598 1135
169.10278 1181
169.1217 1085
170.10895 159
171.0049 180
171.11609 1406
171.125 1532
172.1037 203
172.11827 274
172.12802 265
173.09425 128
173.11293 552
173.13371 1712
173.1532 162
174.12599 343
174.13385 318
174.14479 307
175.1058 194
175.12924 138
175.1454 118
175.16534 116
176.00424 87
176.16753 107
177.09227 203
178.10027 96
179.14516 96
179.15672 104
181.09706 404
181.10918 245
181.11987 674
182.09846 169
182.10789 121
182.12167 92
183.11618 619
183.13689 368
184.02112 88
184.11192 146
185.09697 350
185.112 568
185.12602 895
185.1353 977
185.14249 961
186.13197 186
186.14915 189
187.0997 307
187.11223 319
187.12392 217
187.147 946
187.15759 972
188.13399 150
188.14769 202
188.15903 180
189.01128 185
189.02217 107
189.03339 222
189.09337 105
189.11885 248
189.13239 357
189.15794 329
189.16679 241
191.10747 821
191.13631 148
191.14699 88
191.60472 304
191.61922 304
193.09073 153
193.10265 166
194.11823 89
195.10175 492
195.11452 495
195.12384 537
195.14685 113
196.11641 120
196.12883 126
197.12164 378
197.13538 421
199.10968 287
199.11914 249
199.14699 825
200.1339 141
201.12376 126
201.13733 446
201.161 444
201.17267 468
202.1683 127
203.14502 94
204.97144 86
205.1219 163
207.06921 118
207.13744 235
209.12866 453
209.14079 442
210.1275 138
210.1403 161
211.0921 97
211.10379 116
211.11786 157
211.14839 443
212.17657 86
213.1205 218
213.1344 300
213.15353 710
213.17096 583
214.15936 130
215.131 193
215.14195 150
215.174 298
215.18443 343
215.19394 385
217.15172 98
219.12477 97
219.1326 139
219.14308 142
221.08365 163
221.12961 167
221.14688 171
221.15808 206
222.08559 134
222.10107 261
223.05502 640
223.06691 621
223.14096 427
223.15219 442
224.07587 180
224.08904 164
224.16031 101
224.16936 86
225.03233 145
225.04662 166
225.16521 158
226.0658 99
227.04649 101
227.14557 119
227.18263 377
228.12848 92
228.14314 98
228.18297 87
228.19603 111
229.15015 251
229.16205 276
229.19849 89
230.16786 93
231.1245 140
233.1498 97
235.16896 85
237.07988 889
237.12827 131
237.14648 439
237.16487 176
238.06041 88
238.07697 190
238.08858 199
239.10741 86
239.14244 160
239.17683 178
239.18613 138
240.14816 89
241.14366 113
241.16307 167
241.18878 153
249.17117 115
249.18399 174
251.17599 322
255.17252 238
256.19861 89
261.16797 104
265.17365 188
265.19559 195
265.21088 175
266.98026 211
267.00046 489
267.01849 455
267.21057 225
269.10086 201
269.11865 266
269.18973 96
269.22308 779
269.23608 734
271.13553 84
273.19342 115
277.16382 96
277.18555 119
277.19879 151
279.21442 88
281.05194 2240
282.05566 165
282.27118 137
282.28116 147
283.04715 303
283.07239 164
283.19714 249
283.2215 180
283.23694 239
283.25 97
283.28375 151
285.18762 84
293.22818 547
295.23373 112
296.20319 90
296.23062 108
297.06537 139
297.08063 253
297.09424 94
298.08713 99
301.1424 322
302.12003 111
303.13495 84
303.15091 115
311.23593 577
311.28271 178
311.29501 151
312.22821 120
312.2511 171
313.08337 94
313.28439 95
321.24854 100
335.20258 104
335.22021 163
341.01913 1136
342.01443 394
343.00967 328
343.02478 351
343.26443 1416
344.00638 103
344.26047 382
344.27518 511
355.07019 8343
356.06226 2788
356.0737 2935
357.05792 269
357.0726 176
358.05127 297
359.06766 150
360.33069 122
Name: Docosahexaenoic acid methyl ester
PrecursorMZ: 365.2456
PrecursorType: [M+Na]+
IonMode: Positive
Formula: C23H34O2
SMILES: CCC=CCC=CCC=CCC=CCC=CCC=CCCC(=O)OC
InChI: 
InChIKey: VCDLWFYODNTQOT-JDPCYWKWSA-N
RetentionTime: 8.526716
CCS: 
CollisionEnergy: 20-40 eV
InstrumentType: UPLC-QTOF-MS
Comment: PI: Cristina Nerin; Data collector: QiZhi Su, GUIA, University of Zaragoza, Spain; Collision energy: 20-40 V; Instrument: Waters HPLC-QTOF-MS (Xevo G2 QTof); Ionization: ESI; Deconvoluted by MS-DIAL; Column: Waters AtlantisTM premier BEH C18 AX column (2.1 × 100mm x 1.7μm); Flow rate: 0.3mL/min; Mobile phase A and B are water and methnaol, respectively, both with 0.1% formic acid; Gradient elution: from A/B (95/5) to A/B (100/0) in 7min, kept for 4 min, then back to A/B (95/5) in 0.1 min, and maintained for additional 1.9 min (13min in total).; Injection volume: 10 μL
Num peaks: 425
67.05518 1581
67.06956 1586
69.06928 364
69.07338 352
69.0817 364
73.04525 227
73.05074 720
73.06601 622
75.04399 102
75.051 112
75.05639 112
77.03868 405
77.04371 411
79.05252 1874
79.05699 1895
80.05147 250
80.05844 248
81.02824 87
81.07079 2497
83.04856 110
83.08598 418
83.09186 390
85.06596 294
85.07658 306
89.06102 91
91.0353 2802
91.05427 3257
92.05907 274
92.06342 271
93.0361 90
93.07183 3327
94.07198 231
94.08407 230
95.08619 1869
96.08934 168
97.06616 220
97.10239 276
100.93637 112
101.08499 91
102.09104 137
105.05515 2887
105.07073 2907
106.07411 127
107.04276 93
107.0674 2215
107.08553 2112
108.08871 139
109.06275 275
109.06931 253
109.1024 1217
109.11151 1202
111.00738 85
111.01628 91
111.04652 332
113.06035 170
115.03914 148
115.04532 157
115.05029 214
115.05733 110
115.0765 142
116.0479 86
117.05386 2385
117.06525 2322
117.07161 2911
117.09174 93
117.09863 222
118.06834 288
118.07632 257
119.08776 3617
120.0819 505
120.08999 536
120.10197 494
121.03104 638
121.06319 373
121.07272 360
121.10134 1508
121.12466 89
122.06402 115
122.07079 97
122.07998 121
123.07321 209
123.08424 196
123.11731 494
123.12511 509
125.0313 93
125.04786 98
125.06272 104
127.03465 87
127.05161 148
127.06982 147
127.0815 121
128.06104 389
128.0722 372
129.05629 2036
129.07256 1609
129.09087 1220
130.05954 293
130.06961 389
130.0755 381
130.08327 412
131.08652 3959
132.0865 486
132.09818 501
132.11256 140
133.05688 117
133.08742 3031
133.10242 2945
134.09892 104
134.10973 125
135.0656 782
135.07861 829
135.08455 869
135.10289 1259
135.11795 1142
135.12935 1079
136.08614 91
136.12271 125
141.05663 800
141.06891 760
141.07718 826
142.06689 118
142.08144 144
143.08679 1425
144.07446 95
144.08562 199
144.09366 198
144.10992 188
145.10191 2844
146.09508 359
146.10689 319
147.06523 611
147.07581 764
147.08945 466
147.11749 1565
148.11601 239
148.12358 239
148.1322 211
149.09157 469
149.09842 461
149.12868 497
149.13588 426
149.15019 251
150.02803 578
150.09656 86
150.13484 111
150.14288 104
151.02895 143
151.0603 126
153.05507 205
153.07162 236
153.08179 274
153.09154 259
155.03253 158
155.05168 100
155.07681 595
155.08241 712
155.10054 719
156.08383 173
156.09621 192
157.07835 98
157.10406 929
157.12463 112
158.09363 138
158.10675 149
159.06339 361
159.07396 305
159.08368 301
159.10825 1314
159.1176 1393
159.13815 1235
161.09695 218
161.11743 1405
161.13544 1364
162.08269 91
162.09366 100
162.10709 117
162.12608 242
162.13802 213
163.0473 394
163.05856 557
163.07118 481
163.14989 405
164.06029 96
164.07312 87
166.06801 142
166.0972 110
167.06334 171
167.08386 479
167.09164 516
167.11166 98
168.08382 153
168.0919 184
169.08598 1091
169.10278 1165
169.1217 791
170.10895 126
171.0049 167
171.02341 90
171.11609 1211
171.125 1319
172.1037 172
172.11827 268
172.12802 257
173.08305 91
173.09425 250
173.11293 502
173.13371 1632
173.1532 1107
174.12599 265
174.13385 273
174.14479 275
175.09654 119
175.1058 299
175.12924 127
175.1454 170
175.16534 262
177.09227 221
177.14897 112
178.10027 96
179.14516 96
179.15672 104
180.08604 117
180.10153 128
181.09706 279
181.10918 148
181.11987 599
182.09846 199
182.10789 174
182.12167 149
183.11618 611
183.13689 377
184.02112 92
184.11192 104
185.09697 344
185.112 546
185.12602 952
185.1353 1072
185.14249 1109
186.13197 173
186.14915 182
187.0997 313
187.11223 340
187.12392 361
187.147 963
187.15759 971
188.14769 138
188.15903 123
189.01128 156
189.02217 115
189.03339 216
189.09337 110
189.11885 196
189.13239 331
189.15794 336
189.16679 259
191.10747 949
191.13631 139
191.14699 91
191.60472 304
191.61922 301
193.09073 119
193.10265 169
194.11823 90
195.10175 492
195.11452 495
195.12384 537
195.14685 113
196.11641 122
196.12883 130
197.12164 333
197.13538 384
199.10968 292
199.11914 236
199.14699 813
201.1069 305
201.12376 352
201.13733 445
201.161 465
201.17267 466
202.1683 118
204.97144 89
205.1219 149
207.06921 118
207.11862 128
207.13744 229
207.15134 173
208.05347 89
209.12866 490
209.14079 556
210.1275 144
210.14925 100
211.0921 98
211.10379 116
211.11786 157
211.14839 451
212.15685 102
212.17657 86
213.1205 212
213.1344 273
213.15353 712
213.17096 594
214.15936 133
214.1702 134
215.131 188
215.14195 126
215.174 297
215.18443 367
215.19394 438
217.15172 93
219.12477 104
219.1326 139
219.14308 142
221.08365 186
221.12961 168
221.14688 143
221.15808 131
222.08559 169
222.10107 199
223.05502 651
223.06691 628
223.14096 416
223.15219 369
224.07587 185
224.08904 164
224.16031 106
224.16936 89
225.03233 145
225.04662 166
225.16521 131
225.18501 152
226.0658 98
227.04649 102
227.0612 90
227.18263 311
228.19603 112
229.15015 150
229.16205 232
230.16786 95
231.1245 140
237.07988 445
237.12827 131
237.16487 192
238.06041 93
239.12466 158
239.14244 116
239.17683 177
239.18613 171
240.16533 94
241.14366 142
241.16307 240
241.18878 169
243.162 85
247.16177 214
249.18399 152
251.17599 239
253.14944 181
253.16095 186
255.17252 239
256.19861 89
261.16797 184
265.17365 192
265.19559 219
265.21088 179
266.98026 221
267.00046 259
267.01849 348
267.21057 168
268.99884 192
269.00928 165
269.10086 192
269.11865 257
269.22308 797
269.23608 748
273.19342 98
277.18555 112
277.19879 146
279.21442 88
281.05194 2185
282.28116 106
283.04715 319
283.07239 165
283.19714 254
283.2215 197
283.23694 256
283.25 91
283.26141 130
283.28375 151
293.22818 528
295.12698 168
295.20148 96
295.21283 315
296.23062 108
297.08063 225
297.11215 140
298.08713 95
302.12003 105
303.15091 116
311.23593 558
311.28271 184
311.29501 148
312.09988 106
312.22821 128
312.2511 169
313.28439 91
326.96774 139
335.20258 109
335.22021 163
341.01913 436
342.01443 218
343.02478 139
343.26443 1397
344.00638 165
344.01965 156
344.26047 258
344.27518 388
355.07019 8464
356.06226 2733
356.0737 2876
357.05792 171
357.0726 154
357.08594 245
358.05127 294
359.06766 152
365.24817 113
365.26541 145
Name: Docosahexaenoic acid methyl ester
PrecursorMZ: 381.2191
PrecursorType: [M+K]+
IonMode: Positive
Formula: C23H34O2
SMILES: CCC=CCC=CCC=CCC=CCC=CCC=CCCC(=O)OC
InChI: 
InChIKey: VCDLWFYODNTQOT-JDPCYWKWSA-N
RetentionTime: 8.526716
CCS: 
CollisionEnergy: 20-40 eV
InstrumentType: UPLC-QTOF-MS
Comment: PI: Cristina Nerin; Data collector: QiZhi Su, GUIA, University of Zaragoza, Spain; Collision energy: 20-40 V; Instrument: Waters HPLC-QTOF-MS (Xevo G2 QTof); Ionization: ESI; Deconvoluted by MS-DIAL; Column: Waters AtlantisTM premier BEH C18 AX column (2.1 × 100mm x 1.7μm); Flow rate: 0.3mL/min; Mobile phase A and B are water and methnaol, respectively, both with 0.1% formic acid; Gradient elution: from A/B (95/5) to A/B (100/0) in 7min, kept for 4 min, then back to A/B (95/5) in 0.1 min, and maintained for additional 1.9 min (13min in total).; Injection volume: 10 μL
Num peaks: 483
55.05539 219
59.3729 90
67.05518 1626
67.06956 1608
69.06928 167
69.07338 157
69.0817 150
73.04525 117
75.04399 116
75.051 127
75.05639 131
77.03868 307
77.04371 293
79.05252 1717
79.05699 1730
80.05147 257
80.05844 255
81.02824 123
81.03541 108
81.07079 2701
82.06041 307
82.06461 308
82.07554 307
83.08598 418
83.09186 390
85.06596 214
85.07658 163
88.07642 105
88.08348 104
89.06102 142
91.0353 2100
91.05427 2575
92.05907 162
92.06342 158
92.99899 91
93.0066 103
93.0361 179
93.07183 3436
94.07198 242
94.08407 205
95.08619 1405
96.08934 89
97.06616 244
97.10239 393
102.09104 182
105.05515 2088
105.07073 2106
106.07411 137
107.04276 137
107.0496 104
107.0555 86
107.0674 2268
107.08553 1261
108.0733 148
108.08871 101
109.06275 272
109.06931 250
109.1024 1180
109.11151 1210
111.04652 135
113.06035 141
115.03914 387
115.04532 379
115.05029 383
115.0765 160
116.0479 91
116.06599 117
117.05386 2630
117.06525 2437
117.07161 2837
117.09174 203
118.06834 313
118.07632 346
118.09208 120
119.08776 2838
120.0819 447
120.08999 406
120.10197 497
121.03104 639
121.06319 390
121.07272 376
121.10134 2053
122.06402 115
122.07079 107
122.07998 134
122.09986 107
122.10773 151
123.07321 207
123.08424 190
123.11731 423
123.12511 440
125.0313 104
125.04786 95
125.09798 110
127.03465 94
127.05161 148
127.06982 233
127.0815 154
128.06104 412
128.0722 411
129.05629 1717
129.07256 1020
129.09087 1254
130.05954 225
130.06961 404
130.0755 341
130.08327 400
131.08652 2765
132.0865 520
132.09818 478
133.05688 150
133.06966 281
133.08742 2555
133.10242 2805
134.09892 96
134.10973 133
135.0656 801
135.07861 828
135.08455 868
135.10289 1302
135.11795 1134
135.12935 996
136.08614 108
136.12271 144
137.11198 108
139.05623 90
141.05663 319
141.06891 231
141.07718 343
142.08144 92
143.08679 1002
144.07446 207
144.08562 312
144.09366 329
144.10992 202
145.06128 86
145.10191 2821
146.09508 355
146.10689 290
147.06523 789
147.07581 900
147.08945 563
147.11749 1571
148.061 103
148.07079 98
148.0802 115
148.11601 251
148.12358 241
148.1322 219
149.09157 488
149.09842 455
149.12868 464
149.13588 426
149.15019 302
150.02803 633
150.13484 145
150.14288 146
151.02895 144
151.04411 97
151.0603 131
151.07672 107
153.0459 96
153.05507 214
153.07162 231
153.08179 273
153.09154 263
155.03253 179
155.05168 111
155.06303 176
155.07681 619
155.08241 564
155.10054 617
157.10406 988
157.12463 171
158.09363 162
158.10675 169
159.06339 405
159.07396 235
159.08368 294
159.10825 1228
159.1176 1367
159.13815 730
160.08595 97
160.09715 158
161.09695 90
161.11743 1171
161.13544 1273
162.08269 104
162.09366 116
162.10709 125
162.12608 202
162.13802 154
163.0473 480
163.07118 217
163.0981 203
163.10664 91
163.11563 149
163.14989 428
164.06029 90
164.07312 122
165.08577 103
165.13625 86
166.06801 136
166.08739 196
166.0972 141
167.05394 173
167.06334 213
167.08386 622
167.09164 521
168.08382 109
168.0919 109
169.08598 871
169.10278 1226
169.1217 750
171.0049 230
171.02341 91
171.11609 1187
171.125 1242
172.1037 133
172.11827 246
172.12802 272
173.09425 88
173.11293 564
173.13371 1359
173.1532 109
174.12599 280
174.13385 228
174.14479 214
175.09654 168
175.1058 422
175.12924 230
175.1454 262
175.16534 225
176.00424 86
176.14957 126
176.16753 133
177.14897 93
178.08786 88
178.10027 105
179.11823 102
179.14516 96
179.15672 104
180.08604 145
181.09706 287
181.10918 345
181.11987 682
182.09846 126
182.10789 170
182.12167 170
183.11618 665
183.13689 482
184.03203 98
184.11192 140
185.112 519
185.12602 720
185.1353 762
185.14249 792
186.11644 117
186.13197 197
186.14915 148
187.0997 380
187.11223 351
187.12392 316
187.147 725
187.15759 747
188.13399 219
188.14769 254
188.15903 244
189.01128 108
189.03339 89
189.09337 143
189.11885 144
189.13239 177
189.15794 143
191.10747 358
191.13631 109
191.14699 92
191.60472 304
191.61922 304
193.09073 111
193.10265 99
194.11823 94
195.10175 507
195.11452 543
195.12384 595
196.11641 120
197.12164 228
197.13538 256
199.10968 257
199.11914 230
199.14699 789
199.17636 99
200.1339 163
200.15306 204
201.1069 311
201.12376 336
201.13733 326
201.161 163
201.17267 228
202.1683 140
204.97144 90
205.1219 163
207.03355 473
207.06921 118
207.13744 228
207.15134 96
208.11517 91
208.12166 96
209.12866 425
209.14079 284
210.1275 118
210.1403 201
211.0921 124
211.10379 110
211.14839 456
213.02328 112
213.1205 231
213.1344 351
213.15353 747
213.17096 577
214.13681 103
214.15936 93
214.1702 118
215.131 193
215.14195 164
215.174 275
215.18443 439
215.19394 391
219.12477 120
219.1326 146
219.14308 168
221.08365 337
221.12961 212
221.14688 311
221.15808 206
222.08559 115
222.10107 274
223.05502 189
223.14096 411
223.15219 546
224.07587 196
224.08904 168
224.14363 102
224.16031 105
225.03233 145
225.04662 166
225.16521 189
226.03322 107
227.0612 91
227.12343 138
227.13376 205
227.14557 241
227.18263 183
228.19603 127
229.15015 262
229.16205 279
229.19849 134
230.16786 101
231.10507 95
231.1245 140
233.1498 178
233.16367 118
237.07988 411
237.12827 131
237.14648 467
237.16487 459
238.06041 88
238.07697 231
238.08858 234
239.08319 129
239.14244 153
239.17683 210
239.18613 129
241.09299 165
241.14366 246
241.16307 159
242.15897 92
242.17609 87
243.18048 91
245.12912 88
247.16177 128
249.17117 96
249.18399 137
249.19528 195
251.09656 97
251.17599 319
253.14944 181
253.16095 186
256.19861 91
259.1644 120
259.1748 156
259.18799 125
261.19736 120
263.21387 87
265.17365 115
265.21088 205
266.98026 211
267.00046 428
267.01849 192
267.21057 277
269.00928 203
269.10086 203
269.11865 257
269.22308 766
269.23608 668
270.22232 118
270.24255 124
273.19342 113
277.18555 115
277.19879 146
279.21442 88
281.05194 2649
282.05566 366
282.27118 156
282.28116 157
283.04715 153
283.19714 119
283.23694 208
283.25 86
283.28375 151
284.30026 161
285.18762 93
293.22818 560
295.12698 220
295.21283 293
295.23373 144
296.21393 112
296.23062 123
296.24503 87
297.06537 87
297.08063 111
297.09424 123
298.06601 103
298.08713 156
298.10455 136
301.1424 409
302.12003 111
303.15091 118
311.23593 894
312.09988 113
312.22821 131
312.2511 172
313.08337 113
313.10077 102
319.21982 91
335.15106 112
335.16995 86
335.20258 105
335.22021 163
341.01913 486
342.01443 314
343.00967 277
343.02478 230
343.03955 133
343.26443 1425
344.01965 160
344.26047 495
344.27518 510
355.07019 8589
356.06226 2858
356.0737 2966
357.05792 830
357.0726 578
357.08594 412
358.05127 353
358.07083 181
358.09476 105
360.33069 104
363.24432 105
365.24817 100
370.13391 131
371.10254 3106
371.21973 125
371.24506 103
372.1037 373
373.07709 145
373.09842 869
373.11502 900
374.0918 113
374.10391 94
375.09802 123
377.31302 87
381.26492 90
Name: Docosahexaenoic acid methyl ester
PrecursorMZ: 343.264
PrecursorType: [M+H]+
IonMode: Positive
Formula: C23H34O2
SMILES: CCC=CCC=CCC=CCC=CCC=CCC=CCCC(=O)OC
InChI: 
InChIKey: VCDLWFYODNTQOT-JDPCYWKWSA-N
RetentionTime: 8.534333
CCS: 
CollisionEnergy: 20-40 eV
InstrumentType: UPLC-QTOF-MS
Comment: PI: Cristina Nerin; Data collector: QiZhi Su, GUIA, University of Zaragoza, Spain; Collision energy: 20-40 V; Instrument: Waters HPLC-QTOF-MS (Xevo G2 QTof); Ionization: ESI; Deconvoluted by MS-DIAL; Column: Waters AtlantisTM premier BEH C18 AX column (2.1 × 100mm x 1.7μm); Flow rate: 0.3mL/min; Mobile phase A and B are water and methnaol, respectively, both with 0.1% formic acid; Gradient elution: from A/B (95/5) to A/B (100/0) in 7min, kept for 4 min, then back to A/B (95/5) in 0.1 min, and maintained for additional 1.9 min (13min in total).; Injection volume: 10 μL
Num peaks: 657
52.08049 45
52.48318 50
55.0203 82
55.02602 81
55.02991 75
57.03509 50
57.07201 216
61.06172 46
61.08407 85
65.03876 321
65.04487 327
65.04822 328
66.91948 51
66.9246 54
67.04559 1590
67.05493 1592
67.06973 1579
68.03851 100
68.05473 188
68.06428 169
69.03575 57
69.06084 929
69.07011 940
72.08395 62
72.09126 64
73.0284 392
73.04889 248
73.06513 849
73.08802 74
75.04218 126
75.04765 130
77.04007 245
79.05458 2386
80.05441 75
80.06348 62
81.03671 85
81.05696 912
81.07027 607
82.06277 209
82.07245 221
83.0667 689
83.0867 244
84.0759 54
84.95526 45
84.95988 45
85.06599 409
85.10112 218
86.18623 46
86.95808 45
87.04736 187
87.06541 233
88.07626 98
89.04188 413
89.06017 179
90.05409 58
91.03776 4338
91.0548 4170
92.99956 71
93.0129 119
93.04367 63
93.0499 339
93.0708 3524
95.07461 1212
95.0864 1171
96.00687 55
96.07622 271
96.09027 278
96.09836 291
97.06543 274
97.07606 282
97.09225 387
97.10003 379
97.10457 385
97.12308 105
97.96404 50
97.96869 46
97.97524 83
98.09262 72
98.10374 63
98.99542 89
99.07861 47
100.11305 72
101.09485 59
101.10212 54
101.11514 47
102.09109 196
103.03944 115
103.04865 105
103.05804 163
103.06529 57
104.04927 55
105.07063 283
106.07166 242
106.07664 244
107.04494 138
107.04974 153
107.0685 1145
107.08279 1386
107.08807 1314
107.09797 1288
108.09994 90
109.06635 253
109.10241 1236
110.09492 111
110.10286 110
110.10787 109
111.07593 238
111.08339 207
113.12616 95
113.13458 84
115.06676 146
116.06071 120
116.08429 50
117.05382 324
117.07039 1109
117.08852 2941
117.09554 208
117.13001 50
117.13883 47
118.08289 75
119.0515 63
119.08633 291
120.09023 322
121.02359 347
121.03194 368
121.05378 194
121.06657 387
121.10115 643
122.03059 65
122.06468 97
122.07153 83
122.07641 108
122.09615 258
122.10473 73
123.04002 65
123.04577 64
123.0817 85
123.09019 213
123.11745 687
124.12675 55
125.02153 65
125.02875 85
125.06251 84
125.09774 109
125.13175 125
125.14182 119
127.04941 67
127.05795 136
127.07863 138
127.96142 46
128.06203 297
128.07764 225
129.05315 2530
129.06299 2617
129.07191 2647
129.08965 1584
130.05727 354
130.15869 72
131.05032 80
131.06709 4449
131.08664 538
131.10321 696
131.1223 56
132.08876 509
133.06819 584
133.08549 646
133.10162 253
134.06667 62
134.10202 298
134.11554 382
135.01755 57
135.0428 60
135.08278 808
135.08882 841
135.11795 1098
136.08536 73
136.12363 117
136.99074 48
137.13251 241
137.14525 264
139.05132 47
139.06566 66
140.05687 48
140.0704 70
140.07777 55
141.05347 450
141.07082 177
141.08046 234
142.07784 360
143.05138 51
143.07407 1671
143.08554 1735
143.09488 1766
144.06816 138
144.0804 276
144.09274 218
144.11166 215
145.06471 84
145.07495 96
145.10246 2959
145.12851 458
146.10072 464
146.1078 461
147.02779 74
147.06685 806
147.07999 134
147.08844 424
147.11688 214
149.02417 239
149.06061 73
149.0873 360
149.09888 155
149.11143 413
150.02682 233
150.03822 181
150.04865 103
150.09514 51
150.10417 79
151.04892 145
153.0229 55
153.03816 97
153.0499 80
153.05865 126
154.06946 193
154.07829 200
154.08617 220
154.10152 114
155.01389 87
155.02942 74
155.03796 116
155.06743 568
155.084 726
155.097 732
155.12175 57
155.13098 53
157.06076 101
157.07307 107
157.09048 194
157.10312 482
157.13129 95
158.10159 101
158.10986 99
159.06471 305
159.08038 70
159.11856 237
160.07808 107
160.09293 129
160.12411 346
160.13724 354
161.09064 403
161.10425 356
161.15163 1033
162.08345 82
162.09406 97
162.10411 72
162.13651 104
163.03667 134
163.06282 169
163.07729 347
163.13512 55
164.0463 82
164.0591 118
164.11563 45
165.04514 185
165.05852 172
165.08554 192
165.1003 92
165.12482 63
165.13663 78
165.17114 79
166.05554 89
166.07401 171
166.08644 205
166.10049 143
167.06747 579
167.08507 390
167.14381 56
168.03175 84
169.07585 94
169.10179 1243
169.19901 45
171.09703 100
171.11667 96
172.009 62
173.08443 268
173.09926 168
173.133 819
174.10886 51
174.13924 295
174.15489 280
175.06122 61
175.07639 116
175.09122 207
175.13554 720
175.14723 940
176.01431 75
176.0219 70
176.02881 68
176.14445 78
176.15582 141
176.16606 146
177.05084 63
177.05695 68
177.09531 96
177.10902 286
177.12192 315
177.13542 246
177.1696 84
178.07814 94
178.09474 108
179.06454 72
179.08475 100
179.13672 86
179.14598 69
179.15494 81
179.17917 81
179.19102 83
180.06851 73
181.07716 229
181.09511 717
181.10408 804
181.11588 792
182.07825 55
182.09421 65
182.11087 212
183.09007 74
183.10355 46
183.11171 56
184.02992 94
184.04031 91
185.08902 330
185.09834 297
185.13193 326
185.14064 350
187.06577 45
187.10701 83
187.11858 435
187.14917 974
188.11462 61
188.12364 150
188.14197 205
189.01947 125
189.03752 205
189.07314 79
189.09306 140
189.12917 407
189.13919 429
189.1564 400
189.16637 359
191.10811 1180
191.11629 1194
192.10939 77
193.01176 49
193.02705 49
193.07176 93
193.09367 155
193.1077 198
193.12625 98
193.16997 50
195.11937 63
195.13507 60
197.13026 104
197.1382 110
199.11101 539
199.12668 422
200.1106 124
200.12843 125
201.11592 215
201.13007 150
201.16322 834
201.17085 836
203.09947 68
205.09642 67
205.1472 53
207.03369 388
207.06776 118
207.09679 102
207.11984 278
207.13164 208
207.1427 192
207.16925 124
207.18489 114
207.58968 49
208.04126 130
208.05238 158
208.06635 84
208.11497 91
208.1248 95
209.03455 73
209.11023 132
209.13234 666
210.12973 189
210.144 207
211.08931 91
211.09946 119
211.11134 123
211.13397 56
211.16676 65
212.12718 61
212.14679 135
212.1606 103
213.03883 208
213.06137 111
213.16628 110
214.03932 53
214.13875 94
214.16711 121
214.18767 52
215.1264 146
215.14471 160
215.18448 529
216.12286 48
216.13187 48
216.15341 61
217.11253 47
218.07237 67
218.10631 53
219.10265 154
219.11978 136
219.1312 139
219.1418 128
219.16344 51
219.1747 45
221.08337 1146
221.09373 1158
221.1338 134
221.14659 259
221.16077 201
221.17462 87
222.07433 332
222.08604 305
222.09586 314
223.03758 51
223.06566 715
223.20535 54
224.04474 47
224.06474 186
224.07735 243
224.09587 105
224.10686 94
225.04048 183
225.0542 250
225.07155 116
225.16357 274
225.18266 310
226.04843 119
226.06001 140
226.07796 48
226.17003 48
227.04349 91
227.08047 98
227.09866 48
227.10823 57
227.18306 444
228.11717 61
229.1971 112
230.16121 85
231.11124 82
231.13004 70
231.13931 178
231.16014 101
231.17235 121
232.07347 50
232.13855 53
235.15048 133
236.07382 60
237.12695 102
237.15935 226
237.17145 222
238.17477 96
239.13245 70
239.18797 66
241.06221 230
241.07094 249
241.16444 260
242.17163 75
242.18318 61
244.17426 47
245.1263 64
247.15833 206
247.1801 186
247.2 68
249.12111 58
249.13846 95
249.1666 144
249.18663 169
250.07645 53
250.09009 67
251.09845 68
251.15828 84
251.1855 206
252.16704 69
253.05705 56
253.14223 173
253.15956 150
255.17595 178
256.1918 66
256.21118 46
257.13916 45
259.1748 113
260.20026 60
261.13751 69
261.14807 64
261.1749 209
261.18695 189
261.22183 69
263.09393 68
263.16876 75
263.23636 58
264.13858 51
264.19992 50
265.10992 72
265.13589 47
265.15976 88
265.18988 303
265.2052 286
266.15106 45
266.16824 55
266.19101 85
266.98349 100
267.00372 262
267.2106 101
267.22046 155
268.09259 60
268.21524 105
268.97968 47
269.00806 51
269.08585 188
269.09982 180
269.11948 136
269.17249 105
269.18689 173
269.19684 126
269.22232 234
269.23212 168
270.1488 46
270.24261 109
271.11624 55
271.13699 62
271.14993 57
271.24091 62
275.12103 51
275.19025 61
275.20334 78
276.1554 47
277.2095 98
277.22327 70
278.20651 47
279.14145 144
279.16211 286
279.17883 221
279.19693 162
279.2215 63
279.26166 47
281.05273 2857
281.15448 57
282.05444 488
282.17807 50
282.2099 62
282.28427 162
282.30826 52
283.05316 432
283.12833 55
283.14429 69
283.16245 80
283.1795 133
283.21231 71
283.23447 300
283.25208 235
283.267 198
284.04187 111
284.06088 64
284.29907 189
284.33771 60
285.05444 71
285.17789 87
285.25085 46
287.20129 70
289.18881 66
289.21735 74
291.16541 53
291.19119 86
292.20947 46
293.20157 168
293.21643 676
293.23346 730
294.237 268
295.17325 55
295.19534 375
295.21307 312
296.09549 154
296.11258 185
296.20084 111
296.21347 110
297.0806 609
297.09583 551
298.08786 206
298.32053 103
299.08353 55
301.21194 54
301.2778 53
302.13538 298
302.14813 249
307.13638 47
307.17621 74
309.13431 49
309.17789 53
309.18985 108
311.09683 211
311.11166 193
311.16568 66
311.23065 867
311.24301 931
312.08521 99
312.09921 98
313.30048 110
313.32162 81
313.33575 62
314.28433 55
317.22458 73
319.20673 98
319.2269 63
320.26801 51
321.24167 89
321.25598 107
324.33481 54
325.19553 76
325.24619 59
326.34283 74
326.95898 81
326.9736 122
327.21066 48
327.33572 75
327.35049 46
329.17239 77
329.19748 45
331.18771 56
331.2117 97
331.24667 60
331.26025 77
333.15332 71
333.18423 51
335.12921 47
335.16983 73
335.28842 58
337.16815 71
337.18484 69
337.25159 96
337.27609 108
337.29401 85
339.19595 116
339.21356 104
339.33878 61
341.01874 2175
342.02219 738
343.17557 58
343.26294 1512
Name: 4-Aminophenyl sulfone
PrecursorMZ: 266.0974
PrecursorType: [M+NH4]+
IonMode: Positive
Formula: C12H12N2O2S
SMILES: C1=CC(=CC=C1N)S(=O)(=O)C2=CC=C(C=C2)N
InChI: 
InChIKey: MQJKPEGWNLWLTK-UHFFFAOYSA-N
RetentionTime: 1.011767
CCS: 
CollisionEnergy: 20-40 eV
InstrumentType: UPLC-QTOF-MS
Comment: PI: Cristina Nerin; Data collector: QiZhi Su, GUIA, University of Zaragoza, Spain; Collision energy: 20-40 V; Instrument: Waters HPLC-QTOF-MS (Xevo G2 QTof); Ionization: ESI; Deconvoluted by MS-DIAL; Column: Waters AtlantisTM premier BEH C18 AX column (2.1 × 100mm x 1.7μm); Flow rate: 0.3mL/min; Mobile phase A and B are water and methnaol, respectively, both with 0.1% formic acid; Gradient elution: from A/B (95/5) to A/B (100/0) in 7min, kept for 4 min, then back to A/B (95/5) in 0.1 min, and maintained for additional 1.9 min (13min in total).; Injection volume: 10 μL
Num peaks: 28
65.03922 3229
80.03895 1366
80.05089 1429
92.05031 35080
93.05676 7299
93.07298 7336
108.04504 31049
108.06353 31050
109.03007 2193
109.04782 2208
109.06297 2065
136.07584 2011
136.09151 2047
147.03685 482
147.04678 474
156.01163 18690
157.00703 1490
157.01793 1526
157.0275 1472
158.00049 967
158.01154 985
158.02299 961
165.05641 1742
165.06717 1699
249.07011 43285
250.07431 6030
251.06616 2310
251.07506 2398
Name: 4-Aminophenyl sulfone
PrecursorMZ: 249.071
PrecursorType: [M+H]+
IonMode: Positive
Formula: C12H12N2O2S
SMILES: C1=CC(=CC=C1N)S(=O)(=O)C2=CC=C(C=C2)N
InChI: 
InChIKey: MQJKPEGWNLWLTK-UHFFFAOYSA-N
RetentionTime: 3.70635
CCS: 
CollisionEnergy: 20-40 eV
InstrumentType: UPLC-QTOF-MS
Comment: PI: Cristina Nerin; Data collector: QiZhi Su, GUIA, University of Zaragoza, Spain; Collision energy: 20-40 V; Instrument: Waters HPLC-QTOF-MS (Xevo G2 QTof); Ionization: ESI; Deconvoluted by MS-DIAL; Column: Waters AtlantisTM premier BEH C18 AX column (2.1 × 100mm x 1.7μm); Flow rate: 0.3mL/min; Mobile phase A and B are water and methnaol, respectively, both with 0.1% formic acid; Gradient elution: from A/B (95/5) to A/B (100/0) in 7min, kept for 4 min, then back to A/B (95/5) in 0.1 min, and maintained for additional 1.9 min (13min in total).; Injection volume: 10 μL
Num peaks: 17
65.03938 14173
80.03036 3563
80.05024 5435
80.06332 5440
92.05025 143682
92.06564 143700
93.05711 28311
94.05383 1451
94.06214 1439
108.04529 131416
109.03112 8899
109.04888 8687
156.01242 70322
157.01575 4272
158.00858 3085
158.02699 2911
249.07031 94857
Name: 4-Aminophenyl sulfone
PrecursorMZ: 497.1316
PrecursorType: [2M+H]+
IonMode: Positive
Formula: C12H12N2O2S
SMILES: C1=CC(=CC=C1N)S(=O)(=O)C2=CC=C(C=C2)N
InChI: 
InChIKey: MQJKPEGWNLWLTK-UHFFFAOYSA-N
RetentionTime: 3.70635
CCS: 
CollisionEnergy: 20-40 eV
InstrumentType: UPLC-QTOF-MS
Comment: PI: Cristina Nerin; Data collector: QiZhi Su, GUIA, University of Zaragoza, Spain; Collision energy: 20-40 V; Instrument: Waters HPLC-QTOF-MS (Xevo G2 QTof); Ionization: ESI; Deconvoluted by MS-DIAL; Column: Waters AtlantisTM premier BEH C18 AX column (2.1 × 100mm x 1.7μm); Flow rate: 0.3mL/min; Mobile phase A and B are water and methnaol, respectively, both with 0.1% formic acid; Gradient elution: from A/B (95/5) to A/B (100/0) in 7min, kept for 4 min, then back to A/B (95/5) in 0.1 min, and maintained for additional 1.9 min (13min in total).; Injection volume: 10 μL
Num peaks: 19
65.03938 14189
80.03036 2572
80.05024 5427
80.06332 5427
92.05025 143237
92.06564 143262
93.05711 28135
108.04529 130652
109.03112 8517
109.04888 8370
156.01242 77044
157.01575 4996
158.00858 3312
158.02699 3381
249.07031 87018
250.07297 11499
251.06911 4228
268.04269 1476
497.13458 1747
Name: 4-Aminophenyl sulfone
PrecursorMZ: 266.0989
PrecursorType: [M+NH4]+
IonMode: Positive
Formula: C12H12N2O2S
SMILES: C1=CC(=CC=C1N)S(=O)(=O)C2=CC=C(C=C2)N
InChI: 
InChIKey: MQJKPEGWNLWLTK-UHFFFAOYSA-N
RetentionTime: 3.713967
CCS: 
CollisionEnergy: 20-40 eV
InstrumentType: UPLC-QTOF-MS
Comment: PI: Cristina Nerin; Data collector: QiZhi Su, GUIA, University of Zaragoza, Spain; Collision energy: 20-40 V; Instrument: Waters HPLC-QTOF-MS (Xevo G2 QTof); Ionization: ESI; Deconvoluted by MS-DIAL; Column: Waters AtlantisTM premier BEH C18 AX column (2.1 × 100mm x 1.7μm); Flow rate: 0.3mL/min; Mobile phase A and B are water and methnaol, respectively, both with 0.1% formic acid; Gradient elution: from A/B (95/5) to A/B (100/0) in 7min, kept for 4 min, then back to A/B (95/5) in 0.1 min, and maintained for additional 1.9 min (13min in total).; Injection volume: 10 μL
Num peaks: 52
59.05317 75
80.05038 909
81.05148 337
81.05812 283
90.34959 57
92.02222 63
92.05028 5228
92.07275 69
92.07971 79
93.05682 1117
93.35746 64
93.36736 71
93.37312 64
108.04525 1974
108.07074 81
108.71239 54
109.53399 67
109.55222 82
110.05134 278
110.06102 278
112.02145 66
113.01334 62
117.07922 58
117.09064 58
124.07932 54
127.03717 106
127.04749 112
140.01842 439
141.01823 72
141.02455 76
145.07047 94
154.05251 64
154.06622 56
156.01241 373
156.04718 57
156.06998 65
156.07895 58
157.0148 534
158.02783 172
181.07417 346
181.08481 361
182.08359 1195
182.09825 1209
183.09352 198
183.10559 126
236.077 60
239.03331 67
248.05032 161
248.06505 125
249.26041 57
263.04395 54
266.26392 59
Name: 4-Hydroxybenzaldehyde
PrecursorMZ: 123.0451
PrecursorType: [M+H]+
IonMode: Positive
Formula: C7H6O2
SMILES: C1=CC(=CC=C1C=O)O
InChI: 
InChIKey: RGHHSNMVTDWUBI-UHFFFAOYSA-N
RetentionTime: 4.079933
CCS: 
CollisionEnergy: 20-40 eV
InstrumentType: UPLC-QTOF-MS
Comment: PI: Cristina Nerin; Data collector: QiZhi Su, GUIA, University of Zaragoza, Spain; Collision energy: 20-40 V; Instrument: Waters HPLC-QTOF-MS (Xevo G2 QTof); Ionization: ESI; Deconvoluted by MS-DIAL; Column: Waters AtlantisTM premier BEH C18 AX column (2.1 × 100mm x 1.7μm); Flow rate: 0.3mL/min; Mobile phase A and B are water and methnaol, respectively, both with 0.1% formic acid; Gradient elution: from A/B (95/5) to A/B (100/0) in 7min, kept for 4 min, then back to A/B (95/5) in 0.1 min, and maintained for additional 1.9 min (13min in total).; Injection volume: 10 μL
Num peaks: 175
51.8298 45
55.05721 30
56.0577 29
57.03357 63
58.94373 39
59.03159 75
59.05041 86
59.239 76
60.19913 31
60.29655 22
61.16275 23
63.79062 34
65.04021 206
65.20401 25
65.51414 41
66.04652 42
66.58138 28
67.05775 99
68.9841 44
69.03221 43
69.03833 172
70.563 24
71.0455 64
71.09045 27
72.50641 40
72.9337 25
73.02663 20
73.03214 29
73.94614 32
74.01524 31
74.04502 26
74.2887 25
75.02266 20
75.04688 35
75.30363 22
75.91851 63
76.16936 49
77.03999 468
78.03024 27
79.05316 77
80.04651 303
80.05775 72
80.99575 89
81.00723 95
81.03258 99
81.07587 31
81.14615 21
82.97914 25
83.00074 27
83.01666 69
83.04609 43
83.08114 24
84.92529 21
84.95981 489
84.96843 185
85.02571 83
85.03484 381
86.93878 20
86.94984 97
87.03745 39
87.0415 107
87.04565 193
88.96741 58
88.97041 30
89.05551 38
89.06176 70
90.00446 181
90.08578 43
90.50601 72
90.98073 22
91.01754 22
91.05264 44
92.05141 1874
92.53131 25
93.01259 20
93.03316 25
93.04044 45
93.05437 240
93.06185 303
93.07007 53
94.00431 20
94.0346 23
95.04877 237
95.06583 85
95.08363 24
95.96761 21
96.05328 29
96.05873 27
96.22921 28
96.99729 21
97.00439 52
97.02692 357
97.03519 251
97.93892 22
97.96748 66
97.97334 55
98.02999 30
98.08022 41
98.5428 43
98.90443 24
98.96076 20
98.97443 27
99.00654 251
99.01185 316
99.03756 21
99.07485 21
99.51036 33
100.22577 24
100.93015 70
100.93559 57
100.95581 40
100.96034 39
101.05761 74
102.06333 23
102.92667 28
103.02187 29
103.04179 31
105.00613 35
105.05565 46
105.0677 90
106.01408 44
106.06457 31
106.9755 55
107.04365 25
107.08426 57
108.00428 33
108.01196 285
108.01831 336
108.02374 108
108.04536 1715
108.08109 21
108.17158 58
108.41824 28
108.52292 50
109.04832 113
109.05545 32
109.13295 58
110.05203 55
110.0603 86
110.51783 85
110.91428 20
110.97456 40
111.04162 20
111.04886 135
111.12718 32
111.96236 21
112.98923 205
113.06293 277
114.09098 104
114.94301 27
114.9687 26
115.00504 60
115.01488 25
115.07004 44
116.04911 25
116.65302 59
116.75963 21
116.97453 33
117.01888 94
117.05993 24
117.07645 25
118.5171 21
118.94963 22
119.00573 127
121.03085 713
121.04547 63
121.06232 66
122.02568 58
122.035 119
122.07626 22
122.45943 26
123.03197 33
123.03757 66
123.04917 445
123.38053 34
Name: 5-Dodecanolide
PrecursorMZ: 199.1707
PrecursorType: [M+H]+
IonMode: Positive
Formula: C12H22O2
SMILES: CCCCCCCC1CCCC(=O)O1
InChI: 
InChIKey: QRPLZGZHJABGRS-UHFFFAOYSA-N
RetentionTime: 8.157367
CCS: 
CollisionEnergy: 20-40 eV
InstrumentType: UPLC-QTOF-MS
Comment: PI: Cristina Nerin; Data collector: QiZhi Su, GUIA, University of Zaragoza, Spain; Collision energy: 20-40 V; Instrument: Waters HPLC-QTOF-MS (Xevo G2 QTof); Ionization: ESI; Deconvoluted by MS-DIAL; Column: Waters AtlantisTM premier BEH C18 AX column (2.1 × 100mm x 1.7μm); Flow rate: 0.3mL/min; Mobile phase A and B are water and methnaol, respectively, both with 0.1% formic acid; Gradient elution: from A/B (95/5) to A/B (100/0) in 7min, kept for 4 min, then back to A/B (95/5) in 0.1 min, and maintained for additional 1.9 min (13min in total).; Injection volume: 10 μL
Num peaks: 38
67.04353 971
67.0557 966
67.06095 980
69.07079 1765
71.08627 970
79.05589 903
81.07069 3834
83.08647 4986
93.07074 1412
95.08653 2899
97.06721 2230
97.07732 2196
97.10178 5368
107.08659 6000
109.1032 935
111.08237 1504
115.07405 939
121.10261 4545
123.11829 1137
125.09653 2266
125.10327 2214
129.09245 1055
129.1093 1123
135.09943 1387
135.11568 1695
139.11322 882
139.14377 929
139.14893 879
139.15926 900
143.10719 1233
163.14922 26478
164.15067 3020
164.15715 3023
167.08966 1180
181.15979 28420
182.14856 3263
182.16454 3305
199.1705 85062
Name: 5-Dodecanolide
PrecursorMZ: 397.3324
PrecursorType: [2M+H]+
IonMode: Positive
Formula: C12H22O2
SMILES: CCCCCCCC1CCCC(=O)O1
InChI: 
InChIKey: QRPLZGZHJABGRS-UHFFFAOYSA-N
RetentionTime: 8.157367
CCS: 
CollisionEnergy: 20-40 eV
InstrumentType: UPLC-QTOF-MS
Comment: PI: Cristina Nerin; Data collector: QiZhi Su, GUIA, University of Zaragoza, Spain; Collision energy: 20-40 V; Instrument: Waters HPLC-QTOF-MS (Xevo G2 QTof); Ionization: ESI; Deconvoluted by MS-DIAL; Column: Waters AtlantisTM premier BEH C18 AX column (2.1 × 100mm x 1.7μm); Flow rate: 0.3mL/min; Mobile phase A and B are water and methnaol, respectively, both with 0.1% formic acid; Gradient elution: from A/B (95/5) to A/B (100/0) in 7min, kept for 4 min, then back to A/B (95/5) in 0.1 min, and maintained for additional 1.9 min (13min in total).; Injection volume: 10 μL
Num peaks: 75
69.07079 2660
81.07069 4531
83.08647 6257
93.07074 1816
95.08653 2008
97.06721 2409
97.07732 2475
97.10178 6550
107.08659 5410
109.1032 931
111.08237 1986
115.08577 849
121.10261 3551
123.11829 1057
125.09653 2590
125.10327 2608
129.09245 1399
129.1093 1157
135.03854 870
135.09943 1728
135.11568 1890
137.00615 1185
139.11322 869
139.14377 908
139.14893 868
139.15926 886
163.14922 27051
164.15067 3380
164.15715 3352
181.15979 27643
182.14856 3271
182.16454 3346
184.03551 5334
185.04039 2003
185.05338 2024
197.04344 3749
198.04257 1515
198.05157 1551
199.1705 83038
200.17444 9952
211.05986 1124
212.02837 4223
212.03957 3816
213.03798 26277
214.04137 3497
215.03015 1857
215.0435 1831
217.18181 5137
223.04984 1398
223.06453 1378
224.03218 869
224.04797 919
225.0383 7717
226.0457 6708
227.04057 2187
227.05095 1968
238.04619 928
238.06332 1340
239.05344 3423
239.06303 3124
239.16324 1113
240.062 4696
241.06967 28487
242.07256 4230
243.06641 1383
253.07312 1261
254.07671 1413
269.10034 19752
270.10486 3793
271.09695 1450
271.11298 1509
291.08243 13372
292.07126 2500
292.0867 2529
397.33151 3241
Name: "2,4-Diethyl-thioxanthen-9-one"
PrecursorMZ: 269.1016
PrecursorType: [M+H]+
IonMode: Positive
Formula: C17H16OS
SMILES: CCC1=CC(=C2C(=C1)C(=O)C3=CC=CC=C3S2)CC
InChI: 
InChIKey: BTJPUDCSZVCXFQ-UHFFFAOYSA-N
RetentionTime: 8.203033
CCS: 
CollisionEnergy: 20-40 eV
InstrumentType: UPLC-QTOF-MS
Comment: PI: Cristina Nerin; Data collector: QiZhi Su, GUIA, University of Zaragoza, Spain; Collision energy: 20-40 V; Instrument: Waters HPLC-QTOF-MS (Xevo G2 QTof); Ionization: ESI; Deconvoluted by MS-DIAL; Column: Waters AtlantisTM premier BEH C18 AX column (2.1 × 100mm x 1.7μm); Flow rate: 0.3mL/min; Mobile phase A and B are water and methnaol, respectively, both with 0.1% formic acid; Gradient elution: from A/B (95/5) to A/B (100/0) in 7min, kept for 4 min, then back to A/B (95/5) in 0.1 min, and maintained for additional 1.9 min (13min in total).; Injection volume: 10 μL
Num peaks: 29
105.03453 3797
135.02789 3865
137.00694 9620
184.03496 51921
185.04166 14202
193.06566 5088
197.04317 36890
198.04759 7260
211.05894 8516
212.03043 34403
213.03807 276208
214.04059 39778
215.03601 8791
215.04559 9307
223.05911 6280
225.03799 85094
226.0446 58058
227.03528 12361
227.04813 11207
238.04639 9000
239.05397 32109
239.09094 4439
240.06146 51916
241.06934 372809
242.0723 63577
243.06825 19514
253.0695 28648
254.0762 16012
269.10077 311418
Name: "2,4-Diethyl-thioxanthen-9-one"
PrecursorMZ: 291.0827
PrecursorType: [M+Na]+
IonMode: Positive
Formula: C17H16OS
SMILES: CCC1=CC(=C2C(=C1)C(=O)C3=CC=CC=C3S2)CC
InChI: 
InChIKey: BTJPUDCSZVCXFQ-UHFFFAOYSA-N
RetentionTime: 8.20685
CCS: 
CollisionEnergy: 20-40 eV
InstrumentType: UPLC-QTOF-MS
Comment: PI: Cristina Nerin; Data collector: QiZhi Su, GUIA, University of Zaragoza, Spain; Collision energy: 20-40 V; Instrument: Waters HPLC-QTOF-MS (Xevo G2 QTof); Ionization: ESI; Deconvoluted by MS-DIAL; Column: Waters AtlantisTM premier BEH C18 AX column (2.1 × 100mm x 1.7μm); Flow rate: 0.3mL/min; Mobile phase A and B are water and methnaol, respectively, both with 0.1% formic acid; Gradient elution: from A/B (95/5) to A/B (100/0) in 7min, kept for 4 min, then back to A/B (95/5) in 0.1 min, and maintained for additional 1.9 min (13min in total).; Injection volume: 10 μL
Num peaks: 31
105.03459 3802
135.02725 3865
137.00548 9617
137.01245 9685
184.03487 51949
185.04073 14209
193.06488 5107
197.04303 36893
198.04779 8191
211.05855 8520
212.03006 34419
213.03792 276241
214.04059 39820
215.03525 15034
223.0591 7103
224.03091 3812
225.03793 85097
226.04514 58077
227.04622 12507
238.04659 9006
239.05321 32128
240.06073 51924
241.06926 374184
242.07213 63601
243.06796 18369
253.06966 28647
254.07593 16053
269.10074 294048
270.10327 56277
271.099 18192
291.08203 93020
Name: "2,4-Diethyl-thioxanthen-9-one"
PrecursorMZ: 307.0573
PrecursorType: [M+K]+
IonMode: Positive
Formula: C17H16OS
SMILES: CCC1=CC(=C2C(=C1)C(=O)C3=CC=CC=C3S2)CC
InChI: 
InChIKey: BTJPUDCSZVCXFQ-UHFFFAOYSA-N
RetentionTime: 8.20685
CCS: 
CollisionEnergy: 20-40 eV
InstrumentType: UPLC-QTOF-MS
Comment: PI: Cristina Nerin; Data collector: QiZhi Su, GUIA, University of Zaragoza, Spain; Collision energy: 20-40 V; Instrument: Waters HPLC-QTOF-MS (Xevo G2 QTof); Ionization: ESI; Deconvoluted by MS-DIAL; Column: Waters AtlantisTM premier BEH C18 AX column (2.1 × 100mm x 1.7μm); Flow rate: 0.3mL/min; Mobile phase A and B are water and methnaol, respectively, both with 0.1% formic acid; Gradient elution: from A/B (95/5) to A/B (100/0) in 7min, kept for 4 min, then back to A/B (95/5) in 0.1 min, and maintained for additional 1.9 min (13min in total).; Injection volume: 10 μL
Num peaks: 69
91.05495 973
105.07175 647
105.08002 642
109.01291 3383
109.02844 3375
117.06971 686
135.02725 3939
153.06856 903
153.08484 900
155.0751 1002
155.08861 1111
165.07126 2536
178.07849 1849
179.08417 789
179.09587 735
184.12279 898
185.04073 14277
191.05333 772
194.07056 831
198.04779 8091
199.05688 2156
210.05194 2565
212.08115 1637
216.04001 1552
217.11391 1063
221.09102 1101
221.1028 1347
222.14345 693
224.06271 2057
225.0784 2445
228.04385 676
228.05882 2502
235.09781 3272
236.06468 750
236.07681 719
237.03923 1533
241.21001 1000
241.22166 1114
243.06796 4397
244.05708 2648
255.09033 2858
256.07047 766
269.10074 17818
269.26215 1551
269.28226 1600
269.36499 663
269.38251 1508
269.39987 702
270.10327 1776
275.12 2118
280.07474 1931
280.08878 1939
280.58313 959
280.60098 821
281.08218 661
288.57574 723
291.08203 60097
292.08569 10251
293.08298 4929
294.08221 763
294.09875 715
295.56152 655
295.57227 620
296.05978 9441
296.55106 3460
296.56076 3956
296.57867 2392
297.05533 908
297.06906 619
Name: "2,4-Diethyl-thioxanthen-9-one"
PrecursorMZ: 559.1745
PrecursorType: [2M+Na]+
IonMode: Positive
Formula: C17H16OS
SMILES: CCC1=CC(=C2C(=C1)C(=O)C3=CC=CC=C3S2)CC
InChI: 
InChIKey: BTJPUDCSZVCXFQ-UHFFFAOYSA-N
RetentionTime: 8.21065
CCS: 
CollisionEnergy: 20-40 eV
InstrumentType: UPLC-QTOF-MS
Comment: PI: Cristina Nerin; Data collector: QiZhi Su, GUIA, University of Zaragoza, Spain; Collision energy: 20-40 V; Instrument: Waters HPLC-QTOF-MS (Xevo G2 QTof); Ionization: ESI; Deconvoluted by MS-DIAL; Column: Waters AtlantisTM premier BEH C18 AX column (2.1 × 100mm x 1.7μm); Flow rate: 0.3mL/min; Mobile phase A and B are water and methnaol, respectively, both with 0.1% formic acid; Gradient elution: from A/B (95/5) to A/B (100/0) in 7min, kept for 4 min, then back to A/B (95/5) in 0.1 min, and maintained for additional 1.9 min (13min in total).; Injection volume: 10 μL
Num peaks: 179
83.04683 251
91.05494 973
95.07828 1325
95.08666 1530
95.09718 1500
103.04607 217
103.05482 201
105.06956 647
105.08263 642
106.0369 318
106.04823 303
109.01262 444
109.02805 911
115.0415 236
115.05109 215
117.05354 662
117.07029 691
117.0879 659
131.06686 226
134.0177 465
136.04794 380
138.02495 820
138.99931 231
139.01947 249
141.05891 241
141.06985 297
141.07828 277
141.08777 254
148.99586 716
149.00443 649
149.01404 551
152.05568 331
153.05104 994
153.0695 898
153.08501 900
155.06502 778
155.09227 2679
164.0631 222
165.07143 2588
166.07144 476
166.07959 445
171.0274 412
172.12636 464
177.11302 258
178.07808 1845
179.06973 713
179.08632 773
180.04698 276
180.06035 272
180.07716 283
181.04504 372
181.0631 581
181.07368 583
182.12386 3632
183.01117 448
183.02519 453
185.04076 14274
187.05632 493
191.0625 778
193.06447 883
194.05173 707
194.06886 831
194.08725 909
195.14191 219
198.04808 206
199.04388 2277
206.05722 303
206.07585 353
206.08401 352
207.07623 551
207.08531 506
210.0611 2526
212.08226 1146
213.07132 336
213.08755 528
215.0356 385
216.03224 1569
216.04192 1554
217.04178 223
217.05283 220
221.09579 1173
221.10834 1290
222.13824 2422
222.14935 2562
224.0639 2058
225.075 362
225.08881 2483
228.03818 1009
228.06062 1159
236.05513 267
237.03996 1533
239.05334 1657
241.15144 658
241.20847 1008
241.22157 1114
241.23851 870
241.30354 216
241.32071 213
241.33795 309
243.06723 4224
251.09006 510
252.09828 259
253.15469 320
255.06432 3330
255.07957 3357
256.05591 246
256.06729 778
256.0824 726
268.09201 1268
269.10065 16862
269.18628 1735
269.23196 533
269.2485 2637
269.26367 3048
269.28073 2562
269.36545 826
269.38284 1508
269.40112 803
271.09894 3651
274.11319 298
275.1102 2163
276.11322 463
280.08298 906
280.09369 771
280.59634 297
281.08594 598
281.586 196
282.29092 243
288.10019 288
288.55353 414
288.57593 1169
289.07318 685
290.07089 223
291.08237 19401
292.08508 3830
295.06284 633
295.08267 504
295.18225 269
295.56235 603
296.05951 9455
296.55984 3956
297.0643 1663
297.55038 420
297.561 443
304.25394 250
304.26743 379
307.16486 639
309.22116 480
310.22989 528
323.01675 1935
323.0285 2001
324.00528 420
325.01941 1204
337.07257 225
343.24335 263
381.2319 4831
414.13095 2601
414.63055 2531
415.12918 1247
415.63092 602
416.12228 255
422.11951 3246
422.61948 2641
423.11636 756
423.61743 228
424.10715 277
429.59598 591
429.61511 666
430.10367 3306
430.604 4123
430.6221 3709
431.09915 1946
431.11639 2156
431.59576 444
431.60968 640
553.3316 218
556.1687 366
557.16351 236
559.17261 549
Name: L-Tyrosine
PrecursorMZ: 182.0824
PrecursorType: [M+H]+
IonMode: Positive
Formula: C9H11NO3
SMILES: C1=CC(=CC=C1CC(C(=O)O)N)O
InChI: 
InChIKey: OUYCCCASQSFEME-QMMMGPOBSA-N
RetentionTime: 0.8480667
CCS: 
CollisionEnergy: 20-40 eV
InstrumentType: UPLC-QTOF-MS
Comment: PI: Cristina Nerin; Data collector: QiZhi Su, GUIA, University of Zaragoza, Spain; Collision energy: 20-40 V; Instrument: Waters HPLC-QTOF-MS (Xevo G2 QTof); Ionization: ESI; Deconvoluted by MS-DIAL; Column: Waters AtlantisTM premier BEH C18 AX column (2.1 × 100mm x 1.7μm); Flow rate: 0.3mL/min; Mobile phase A and B are water and methnaol, respectively, both with 0.1% formic acid; Gradient elution: from A/B (95/5) to A/B (100/0) in 7min, kept for 4 min, then back to A/B (95/5) in 0.1 min, and maintained for additional 1.9 min (13min in total).; Injection volume: 10 μL
Num peaks: 42
65.03909 2128
65.04683 2128
77.03962 14589
78.03834 1296
78.04472 1297
78.05614 1309
91.05489 66670
92.05913 4716
93.05585 883
93.06895 894
93.0794 722
94.03248 726
94.0432 757
94.06255 726
95.03157 29758
95.04963 29521
96.053 2017
96.05858 2020
98.06241 958
103.0551 2022
107.05065 6443
109.05071 1246
109.06471 1416
109.0761 1390
118.06573 1747
118.08399 1748
119.04993 32490
120.05398 3094
120.06345 3146
121.05782 717
121.06434 702
123.04497 28690
124.04948 2180
124.06927 716
136.07649 30086
137.0623 2430
137.08026 2709
147.04422 3714
147.05563 3733
165.05539 4147
165.07405 4096
182.08296 8068
Name: Diethanolamine
PrecursorMZ: 128.0697
PrecursorType: [M+Na]+
IonMode: Positive
Formula: C4H11NO2
SMILES: C(CO)NCCO
InChI: 
InChIKey: ZBCBWPMODOFKDW-UHFFFAOYSA-N
RetentionTime: 0.5359
CCS: 
CollisionEnergy: 20-40 eV
InstrumentType: UPLC-QTOF-MS
Comment: PI: Cristina Nerin; Data collector: QiZhi Su, GUIA, University of Zaragoza, Spain; Collision energy: 20-40 V; Instrument: Waters HPLC-QTOF-MS (Xevo G2 QTof); Ionization: ESI; Deconvoluted by MS-DIAL; Column: Waters AtlantisTM premier BEH C18 AX column (2.1 × 100mm x 1.7μm); Flow rate: 0.3mL/min; Mobile phase A and B are water and methnaol, respectively, both with 0.1% formic acid; Gradient elution: from A/B (95/5) to A/B (100/0) in 7min, kept for 4 min, then back to A/B (95/5) in 0.1 min, and maintained for additional 1.9 min (13min in total).; Injection volume: 10 μL
Num peaks: 87
56.94447 48
57.93677 61
66.02191 20
67.00369 28
67.05213 44
68.04683 51
68.06058 91
68.981 60
70.06474 178
70.07018 170
71.06989 34
72.03976 21
72.94324 95
72.9828 28
73.0478 25
74.06245 27
74.93654 47
78.98358 40
79.58518 22
79.96429 26
82.44305 26
84.94653 20
84.96355 258
85.94467 49
85.95139 22
85.9608 31
86.95638 34
86.97952 48
88.07445 174
88.46846 21
88.97025 29
88.9784 22
89.00355 56
90.05787 29
90.9734 26
90.97781 64
91.01002 30
93.96496 21
96.92187 40
96.93095 43
96.93887 21
96.96526 38
97.09016 31
97.93703 26
97.96987 83
97.97641 79
97.98385 21
98.95561 61
98.9641 425
99.51597 25
99.93671 33
99.96038 52
99.97772 41
100.93333 168
100.95394 29
100.95892 29
100.97894 22
101.07184 41
101.93791 162
101.95845 25
101.96798 29
102.96598 22
103.94482 25
104.93442 46
104.95782 35
104.96638 63
105.05387 21
105.96133 23
106.08253 189
106.08952 335
106.54441 27
107.09194 25
107.43953 25
107.51459 25
109.10267 23
110.94367 24
110.95905 47
113.0723 20
113.09651 20
114.0741 21
114.95325 46
116.89846 40
117.96603 27
118.08027 74
122.03854 35
125.09496 33
127.97866 30
Name: L-Tyrosine
PrecursorMZ: 363.1548
PrecursorType: [2M+H]+
IonMode: Positive
Formula: C9H11NO3
SMILES: C1=CC(=CC=C1CC(C(=O)O)N)O
InChI: 
InChIKey: OUYCCCASQSFEME-QMMMGPOBSA-N
RetentionTime: 0.8480667
CCS: 
CollisionEnergy: 20-40 eV
InstrumentType: UPLC-QTOF-MS
Comment: PI: Cristina Nerin; Data collector: QiZhi Su, GUIA, University of Zaragoza, Spain; Collision energy: 20-40 V; Instrument: Waters HPLC-QTOF-MS (Xevo G2 QTof); Ionization: ESI; Deconvoluted by MS-DIAL; Column: Waters AtlantisTM premier BEH C18 AX column (2.1 × 100mm x 1.7μm); Flow rate: 0.3mL/min; Mobile phase A and B are water and methnaol, respectively, both with 0.1% formic acid; Gradient elution: from A/B (95/5) to A/B (100/0) in 7min, kept for 4 min, then back to A/B (95/5) in 0.1 min, and maintained for additional 1.9 min (13min in total).; Injection volume: 10 μL
Num peaks: 43
65.03909 2128
65.04683 2128
77.03962 14473
78.03834 1410
78.04472 1410
78.05614 1421
91.05489 64970
92.05913 4257
93.05585 823
93.06895 875
93.0794 722
94.03248 732
94.0432 744
94.06255 792
95.03157 28944
95.04963 29081
96.053 1979
96.05858 1981
98.06241 1156
103.0551 2041
107.05065 6275
109.05071 1346
109.06471 1445
109.0761 1414
118.06573 1595
118.08399 1650
119.04993 31771
120.05398 2993
120.06345 3027
123.04497 27813
124.04948 2146
124.06927 794
129.0652 740
129.07703 749
136.07649 29326
137.0623 2040
137.08026 2468
147.04422 3633
147.05563 3640
165.05539 3956
165.07405 3782
182.08296 5636
363.15771 4116
Name: Diethanolamine
PrecursorMZ: 106.0873
PrecursorType: [M+H]+
IonMode: Positive
Formula: C4H11NO2
SMILES: C(CO)NCCO
InChI: 
InChIKey: ZBCBWPMODOFKDW-UHFFFAOYSA-N
RetentionTime: 0.5397167
CCS: 
CollisionEnergy: 20-40 eV
InstrumentType: UPLC-QTOF-MS
Comment: PI: Cristina Nerin; Data collector: QiZhi Su, GUIA, University of Zaragoza, Spain; Collision energy: 20-40 V; Instrument: Waters HPLC-QTOF-MS (Xevo G2 QTof); Ionization: ESI; Deconvoluted by MS-DIAL; Column: Waters AtlantisTM premier BEH C18 AX column (2.1 × 100mm x 1.7μm); Flow rate: 0.3mL/min; Mobile phase A and B are water and methnaol, respectively, both with 0.1% formic acid; Gradient elution: from A/B (95/5) to A/B (100/0) in 7min, kept for 4 min, then back to A/B (95/5) in 0.1 min, and maintained for additional 1.9 min (13min in total).; Injection volume: 10 μL
Num peaks: 67
56.94329 78
57.93986 30
58.94709 20
59.50597 36
59.94336 31
65.06127 51
67.05437 36
68.98775 24
69.05257 30
69.98809 90
70.06042 55
70.0659 168
70.98142 33
71.06908 24
71.98185 47
72.03976 45
72.98663 20
73.42104 33
73.94209 24
74.95151 23
75.00243 24
77.4897 27
78.99893 27
81.04664 38
82.97655 30
83.05622 218
83.98006 20
84.93892 22
84.95942 251
84.97192 24
85.01441 26
85.94751 39
85.96647 20
86.95327 109
86.96048 33
87.04478 30
88.07864 394
88.94552 23
88.95197 29
88.96896 34
89.07395 26
89.93855 30
89.95058 39
89.95486 21
90.97493 28
92.05618 25
92.07644 20
93.0131 31
93.03504 30
93.06281 41
96.9573 25
97.96169 65
97.9707 157
98.95609 94
98.96249 226
98.96729 111
99.9511 59
99.96784 105
100.9267 41
100.93483 107
100.95856 25
101.95217 32
101.96459 144
101.96998 52
102.95062 86
103.95678 20
106.08838 203
Name: Ebecryl 53
PrecursorMZ: 429.2126
PrecursorType: [M+H]+
IonMode: Positive
Formula: C21H32O9
SMILES: C=CC(=O)OCCCOCC(COCCCOC(=O)C=C)OCCCOC(=O)C=C
InChI: 
InChIKey: DMQYPVOQAARSNF-UHFFFAOYSA-N
RetentionTime: 6.9643
CCS: 
CollisionEnergy: 20-40 eV
InstrumentType: UPLC-QTOF-MS
Comment: PI: Cristina Nerin; Data collector: QiZhi Su, GUIA, University of Zaragoza, Spain; Collision energy: 20-40 V; Instrument: Waters HPLC-QTOF-MS (Xevo G2 QTof); Ionization: ESI; Deconvoluted by MS-DIAL; Column: Waters AtlantisTM premier BEH C18 AX column (2.1 × 100mm x 1.7μm); Flow rate: 0.3mL/min; Mobile phase A and B are water and methnaol, respectively, both with 0.1% formic acid; Gradient elution: from A/B (95/5) to A/B (100/0) in 7min, kept for 4 min, then back to A/B (95/5) in 0.1 min, and maintained for additional 1.9 min (13min in total).; Injection volume: 10 μL
Num peaks: 487
53.66218 29
53.88563 11
54.02755 22
55.69875 21
55.70222 19
56.02036 29
56.02641 30
56.96481 35
57.05989 15
57.07223 32
57.54434 36
57.93103 18
58.06995 14
60.0813 73
62.88325 12
67.13203 12
68.96721 16
69.03402 82
70.97977 13
71.04959 1083
71.39407 20
72.051 25
73.57391 14
73.67773 14
74.08897 27
74.09725 45
74.10208 44
75.10261 37
79.46062 11
80.99764 33
81.18697 25
81.32936 14
82.20818 15
82.95308 40
82.95975 52
82.98087 65
83.05048 17
83.06353 52
83.15691 11
85.95333 19
87.03481 356
87.07949 33
94.83591 12
95.02733 13
96.05465 21
96.1414 20
96.47722 13
96.72955 27
97.04409 35
99.0138 51
100.10854 22
100.11904 48
100.95633 27
100.96829 17
101.12807 16
102.08483 21
102.12621 24
103.03933 11
103.05233 23
104.02386 37
105.17733 12
106.10062 15
108.99375 28
109.00019 13
109.54259 14
109.78417 14
111.02427 93
111.07424 53
111.95341 40
112.0808 22
112.97427 699
113.00024 572
113.01192 423
113.03595 11
113.09844 124
113.11902 34
113.16586 16
113.17263 41
113.23474 39
113.24186 29
113.4044 44
113.43903 30
113.4892 20
113.50492 15
113.53419 12
113.55388 18
113.83018 19
114.03081 12
114.03988 137
114.09094 15
114.17816 77
114.19731 18
114.20296 27
114.21134 33
114.22412 30
114.4155 50
114.43308 60
114.6311 32
114.66634 38
114.74986 41
114.75942 41
115.04903 75
115.1878 12
115.62102 26
115.62746 27
115.72343 14
117.03547 13
117.13279 48
117.13842 48
117.77732 19
119.0537 83
119.07845 105
119.08601 112
119.1958 20
120.07401 42
120.08313 42
121.0702 36
122.06885 48
122.08023 135
122.51653 11
124.98271 30
126.05237 38
126.54533 44
126.56003 30
127.53939 15
129.98347 34
130.04604 86
130.05238 39
130.14952 23
130.15927 26
130.96181 12
131.05267 913
131.16754 11
132.36328 12
133.0666 280
133.08542 286
133.96303 11
134.077 81
134.09654 203
134.10931 209
134.97754 17
134.985 24
135.08394 29
135.55722 49
137.97736 16
138.02139 24
141.04916 188
141.09424 23
143.04907 59
143.05872 86
143.07602 107
144.55818 23
146.06291 37
146.97829 26
147.04547 44
147.05995 104
147.84297 12
150.02109 33
153.0235 36
154.0098 19
155.04947 255
156.04552 68
156.15962 12
156.95296 13
157.04478 150
157.3877 16
160.04192 25
160.11502 36
161.05734 31
161.065 39
161.1002 29
161.11636 30
162.56635 115
162.62848 12
164.06964 253
164.07666 212
164.08562 204
164.55232 11
164.58479 65
165.00235 11
165.5948 23
166.04135 33
166.10429 18
167.0304 13
167.06488 13
172.06058 66
172.07346 15
172.13034 13
172.17725 13
172.56618 17
173.05179 305
173.08748 43
174.0554 20
175.07455 68
175.08572 51
176.10188 296
176.1096 282
177.05801 32
177.08386 51
177.09639 87
177.11058 106
177.12167 31
178.08609 30
179.09743 112
179.10974 59
179.5441 18
179.56081 27
180.54807 20
180.57214 44
181.08366 53
182.03102 12
183.97615 24
188.06192 28
188.07106 32
189.08281 36
191.98322 20
192.99176 11
193.05481 27
193.08377 161
193.16135 26
193.17841 12
194.08281 46
194.09193 63
194.10889 46
195.06403 20
195.07848 79
195.09021 59
195.10655 15
195.1176 62
195.12633 65
197.16061 32
197.96614 17
197.97714 20
197.98453 28
198.12038 20
198.57472 505
198.58145 500
199.17915 26
199.18686 21
199.97148 36
200.07256 101
200.09106 170
200.11182 113
200.59319 35
200.61661 34
201.12646 46
201.16812 12
202.04706 17
203.02037 35
203.17831 20
205.01176 66
206.06749 95
206.56546 29
207.07408 30
207.09122 19
207.56889 19
208.57869 22
208.58923 15
209.07866 31
209.09161 27
209.10646 61
210.57458 15
212.98926 12
213.07272 77
213.14186 23
214.16214 17
216.97108 16
217.0166 29
218.05695 21
221.6217 24
222.15968 33
222.1707 41
222.18642 30
226.09122 42
226.10822 93
226.16118 18
226.26675 11
228.20038 38
228.62158 11
229.10782 217
229.12157 209
229.19466 18
229.24951 12
229.60762 64
229.61577 69
230.12068 62
230.13654 55
232.10504 25
235.58385 65
236.07117 14
236.08049 43
236.5789 36
237.08772 89
237.59808 31
238.07928 12
239.09413 31
240.13196 13
241.01067 19
241.20103 20
242.0213 57
242.03313 57
243.05049 13
243.06654 41
244.15492 15
245.56192 12
245.61551 14
246.02214 33
247.05714 46
247.95737 17
248.2124 13
250.13982 21
250.17674 33
251.12862 440
252.13089 61
252.14102 74
253.22632 64
253.69394 11
254.88553 13
257.62735 12
258.05832 39
258.62192 17
259.01715 35
259.04099 71
259.1431 19
259.45947 11
263.00879 14
263.17087 41
263.21188 14
265.07108 29
265.11063 986
265.1221 919
265.62335 233
266.10583 17
266.11618 83
266.12936 48
266.61264 17
267.61191 13
268.11588 12
268.64658 20
269.26025 12
272.28293 11
273.07156 25
273.09982 157
273.11298 158
273.60248 29
273.61496 31
274.10782 63
275.10437 14
279.17706 26
283.10605 13
284.08551 82
285.18356 43
288.11047 44
290.07535 23
290.9953 16
291.04706 11
291.1651 55
292.19107 49
295.04108 20
295.04922 19
295.14807 20
296.27261 17
296.74606 15
297.10553 14
298.11514 12
299.02536 20
299.05048 95
299.06448 65
299.12177 17
301.04425 18
301.1373 72
301.22357 24
301.23566 23
302.13315 22
303.74213 11
304.18436 38
306.6048 15
308.15686 75
309.12473 40
310.08133 17
310.16574 70
310.27618 11
311.08957 16
311.21527 39
312.71994 12
313.09778 12
313.29773 12
315.04532 18
316.30823 15
316.70718 12
317.11285 16
317.2139 11
321.15826 50
321.18369 86
323.13535 37
323.15079 60
323.19009 13
324.11288 15
324.16476 21
325.09616 14
325.18832 59
325.19998 42
327.07758 14
328.13226 12
330.20303 13
331.16086 26
331.65302 31
332.18536 13
336.63608 23
337.11597 196
337.13165 186
337.15579 34
340.1792 27
340.39911 19
341.91342 25
342.96387 16
343.13995 97
343.15286 94
343.17172 91
344.15601 23
345.16455 59
345.23209 11
346.1716 21
348.17831 11
351.08981 12
353.24716 20
355.23245 60
357.06281 19
359.16724 107
360.14948 17
361.12558 26
361.14545 53
365.19943 11
366.16254 13
366.69064 11
367.1402 83
367.15894 302
367.1738 278
367.67114 31
368.17014 29
369.17065 15
369.27979 17
370.10181 27
370.116 19
372.1311 31
372.34906 11
372.63617 23
374.23871 16
375.06027 32
375.99869 13
377.121 72
378.12653 11
379.38376 12
380.05362 16
381.17578 98
381.6423 12
382.16788 18
382.18835 25
384.08994 13
384.42438 23
386.20267 11
387.44495 13
389.10223 13
390.00098 15
391.21191 21
394.21744 15
396.20825 28
399.10086 16
399.21429 617
401.04395 16
401.23282 68
402.19211 31
402.21097 21
404.21594 12
407.16 13
407.18265 21
415.14465 42
415.15894 41
416.15042 14
419.27118 21
420.97852 14
421.19772 11
421.23889 36
426.26007 20
426.28604 16
429.13611 68
429.2265 59
Name: Ebecryl 53
PrecursorMZ: 446.2395
PrecursorType: [M+NH4]+
IonMode: Positive
Formula: C21H32O9
SMILES: C=CC(=O)OCCCOCC(COCCCOC(=O)C=C)OCCCOC(=O)C=C
InChI: 
InChIKey: DMQYPVOQAARSNF-UHFFFAOYSA-N
RetentionTime: 6.983333
CCS: 
CollisionEnergy: 20-40 eV
InstrumentType: UPLC-QTOF-MS
Comment: PI: Cristina Nerin; Data collector: QiZhi Su, GUIA, University of Zaragoza, Spain; Collision energy: 20-40 V; Instrument: Waters HPLC-QTOF-MS (Xevo G2 QTof); Ionization: ESI; Deconvoluted by MS-DIAL; Column: Waters AtlantisTM premier BEH C18 AX column (2.1 × 100mm x 1.7μm); Flow rate: 0.3mL/min; Mobile phase A and B are water and methnaol, respectively, both with 0.1% formic acid; Gradient elution: from A/B (95/5) to A/B (100/0) in 7min, kept for 4 min, then back to A/B (95/5) in 0.1 min, and maintained for additional 1.9 min (13min in total).; Injection volume: 10 μL
Num peaks: 64
76.04018 2053
76.05052 2053
79.05511 307
81.07105 1648
95.08688 3556
96.08993 340
109.09312 393
109.10261 377
109.10981 391
110.97674 484
111.98215 278
117.09386 368
117.10408 375
121.10112 1013
121.11755 1014
135.04951 950
135.0571 948
135.1015 510
135.11783 646
135.13062 640
162.06169 941
162.07768 1284
173.11781 1310
177.15689 686
177.16362 722
177.17506 742
193.0854 834
194.09061 298
200.0703 374
211.05562 917
211.07146 921
234.58093 791
234.59149 855
242.11002 282
251.12488 394
251.1389 314
252.18272 522
252.19644 563
252.20799 578
263.19763 575
283.0834 306
307.15198 7426
308.14917 1185
308.16064 885
309.1636 326
311.18484 1082
321.1261 361
321.14349 265
327.17798 277
369.224 3987
370.22812 814
370.23926 835
379.17282 26474
380.17719 4150
381.17322 883
381.19012 983
383.20288 853
399.20245 295
435.22076 295
441.24545 16197
442.23914 3093
442.25757 3181
443.24405 625
443.25961 670
Name: Ebecryl 53
PrecursorMZ: 451.1944
PrecursorType: [M+Na]+
IonMode: Positive
Formula: C21H32O9
SMILES: C=CC(=O)OCCCOCC(COCCCOC(=O)C=C)OCCCOC(=O)C=C
InChI: 
InChIKey: DMQYPVOQAARSNF-UHFFFAOYSA-N
RetentionTime: 6.987134
CCS: 
CollisionEnergy: 20-40 eV
InstrumentType: UPLC-QTOF-MS
Comment: PI: Cristina Nerin; Data collector: QiZhi Su, GUIA, University of Zaragoza, Spain; Collision energy: 20-40 V; Instrument: Waters HPLC-QTOF-MS (Xevo G2 QTof); Ionization: ESI; Deconvoluted by MS-DIAL; Column: Waters AtlantisTM premier BEH C18 AX column (2.1 × 100mm x 1.7μm); Flow rate: 0.3mL/min; Mobile phase A and B are water and methnaol, respectively, both with 0.1% formic acid; Gradient elution: from A/B (95/5) to A/B (100/0) in 7min, kept for 4 min, then back to A/B (95/5) in 0.1 min, and maintained for additional 1.9 min (13min in total).; Injection volume: 10 μL
Num peaks: 30
76.03828 2046
76.0422 2046
81.07053 1667
95.08656 3524
110.97586 1747
121.10273 1016
134.08208 578
135.05046 950
135.05887 909
135.08012 672
135.1176 647
147.08144 1390
170.1219 821
177.16673 715
177.17818 698
181.08501 1413
193.08179 2186
193.09084 2106
211.06586 917
220.16777 834
220.18007 858
307.15286 7820
308.15466 1164
379.17218 26474
380.17563 4085
381.18668 988
442.27664 732
443.24368 641
443.26151 710
451.19409 57043
Name: Ebecryl 53
PrecursorMZ: 467.1684
PrecursorType: [M+K]+
IonMode: Positive
Formula: C21H32O9
SMILES: C=CC(=O)OCCCOCC(COCCCOC(=O)C=C)OCCCOC(=O)C=C
InChI: 
InChIKey: DMQYPVOQAARSNF-UHFFFAOYSA-N
RetentionTime: 6.987134
CCS: 
CollisionEnergy: 20-40 eV
InstrumentType: UPLC-QTOF-MS
Comment: PI: Cristina Nerin; Data collector: QiZhi Su, GUIA, University of Zaragoza, Spain; Collision energy: 20-40 V; Instrument: Waters HPLC-QTOF-MS (Xevo G2 QTof); Ionization: ESI; Deconvoluted by MS-DIAL; Column: Waters AtlantisTM premier BEH C18 AX column (2.1 × 100mm x 1.7μm); Flow rate: 0.3mL/min; Mobile phase A and B are water and methnaol, respectively, both with 0.1% formic acid; Gradient elution: from A/B (95/5) to A/B (100/0) in 7min, kept for 4 min, then back to A/B (95/5) in 0.1 min, and maintained for additional 1.9 min (13min in total).; Injection volume: 10 μL
Num peaks: 34
76.03828 2046
76.0422 2046
81.07053 1667
95.08656 3524
110.97586 1747
121.10273 1016
134.08208 578
135.05046 950
135.05887 909
135.08012 672
135.1176 647
147.08144 1390
170.1219 821
177.16673 715
177.17818 698
181.08501 1413
193.08179 2186
193.09084 2106
211.06586 917
220.16777 834
220.18007 858
307.15286 7820
308.15466 1164
379.17218 26474
380.17563 4085
381.18668 988
401.23291 569
442.27664 732
443.24368 641
443.26151 710
451.19409 56718
452.19754 9922
453.18576 1929
453.20026 2065
Name: Diethanolamine
PrecursorMZ: 106.0872
PrecursorType: [M+H]+
IonMode: Positive
Formula: C4H11NO2
SMILES: C(CO)NCCO
InChI: 
InChIKey: ZBCBWPMODOFKDW-UHFFFAOYSA-N
RetentionTime: 0.5397
CCS: 
CollisionEnergy: 20-40 eV
InstrumentType: UPLC-QTOF-MS
Comment: PI: Cristina Nerin; Data collector: QiZhi Su, GUIA, University of Zaragoza, Spain; Collision energy: 20-40 V; Instrument: Waters HPLC-QTOF-MS (Xevo G2 QTof); Ionization: ESI; Deconvoluted by MS-DIAL; Column: Waters AtlantisTM premier BEH C18 AX column (2.1 × 100mm x 1.7μm); Flow rate: 0.3mL/min; Mobile phase A and B are water and methnaol, respectively, both with 0.1% formic acid; Gradient elution: from A/B (95/5) to A/B (100/0) in 7min, kept for 4 min, then back to A/B (95/5) in 0.1 min, and maintained for additional 1.9 min (13min in total).; Injection volume: 10 μL
Num peaks: 16
68.04689 93
68.05269 93
70.0656 1595
71.06301 150
71.07211 152
74.05618 74
74.06456 74
83.97569 22
84.95915 292
84.96753 287
88.07687 1423
88.95301 21
90.96928 317
90.98047 317
106.08863 2019
106.10628 21
Name: "4,4'-Dichlorodiphenyl sulfone"
PrecursorMZ: 308.9529
PrecursorType: [M+Na]+
IonMode: Positive
Formula: C12H8Cl2O2S
SMILES: C1=CC(=CC=C1S(=O)(=O)C2=CC=C(C=C2)Cl)Cl
InChI: 
InChIKey: GPAPPPVRLPGFEQ-UHFFFAOYSA-N
RetentionTime: 7.063367
CCS: 
CollisionEnergy: 20-40 eV
InstrumentType: UPLC-QTOF-MS
Comment: PI: Cristina Nerin; Data collector: QiZhi Su, GUIA, University of Zaragoza, Spain; Collision energy: 20-40 V; Instrument: Waters HPLC-QTOF-MS (Xevo G2 QTof); Ionization: ESI; Deconvoluted by MS-DIAL; Column: Waters AtlantisTM premier BEH C18 AX column (2.1 × 100mm x 1.7μm); Flow rate: 0.3mL/min; Mobile phase A and B are water and methnaol, respectively, both with 0.1% formic acid; Gradient elution: from A/B (95/5) to A/B (100/0) in 7min, kept for 4 min, then back to A/B (95/5) in 0.1 min, and maintained for additional 1.9 min (13min in total).; Injection volume: 10 μL
Num peaks: 243
73.02807 654
73.03945 656
75.03075 345
75.03864 337
76.03992 1508
77.03844 829
77.04385 829
79.05363 911
79.05801 921
81.03387 518
81.04832 520
81.07136 2283
83.0431 307
83.05012 311
83.08118 498
83.08763 537
85.06396 364
85.06844 369
91.0539 1966
93.03647 324
93.05383 1870
93.07044 1328
95.07519 2372
95.08714 2674
96.09131 413
96.09966 412
105.01725 373
105.0342 434
105.07029 1274
105.07912 1259
107.05051 788
107.08578 400
109.06548 739
109.10036 691
109.10824 697
111.00076 8840
112.00522 541
112.99304 2663
112.9993 2683
114.08643 352
115.04061 518
117.0528 1583
117.07226 1430
117.08881 1770
119.07376 1307
119.08558 1237
119.09858 1245
121.01514 400
121.02509 408
121.0337 376
121.06422 767
121.07166 777
121.10176 910
123.08085 427
123.08979 428
127.05888 442
127.07262 403
128.06531 501
128.07663 548
129.05557 1831
129.0636 1866
129.0719 1840
130.05663 336
130.07561 443
131.07042 3217
131.07852 2709
131.08713 2439
132.07193 378
132.08968 362
133.04851 702
133.06512 754
133.09096 939
133.10262 1071
135.07968 391
135.08641 614
137.08325 358
141.07002 527
141.09229 326
142.06815 390
143.06921 1116
143.08864 1292
143.10847 378
145.06392 433
145.07808 628
145.10199 867
147.06941 815
147.07942 831
147.08795 777
147.11633 472
147.1225 461
149.07782 513
149.09343 388
149.09935 381
153.05215 384
153.06157 465
153.07054 597
153.07962 630
153.09045 526
155.08588 422
155.10001 1045
157.0854 851
157.1019 616
157.11281 757
158.96472 398
158.97365 405
159.06097 357
159.07965 731
159.0955 712
159.11807 509
161.07701 438
161.12234 333
161.13405 345
165.06049 336
167.08005 939
167.09286 881
169.1022 853
171.10382 664
171.12308 648
173.11899 3006
174.10565 349
174.11987 330
174.95612 1876
174.96494 1865
175.11955 409
175.13414 408
176.95338 671
176.9606 684
176.97469 568
177.14111 403
177.16357 653
181.10316 802
183.12059 613
185.04614 372
185.07623 462
185.08727 818
185.10071 824
185.13263 384
187.09787 3172
189.10765 1969
189.11783 1908
190.11029 343
190.12512 360
191.10651 423
191.12018 677
191.13138 615
192.08945 328
193.09152 307
195.11765 298
195.1279 337
197.04332 658
197.05576 646
199.11047 326
199.12759 388
203.08571 418
203.09837 473
203.10928 431
205.08852 436
205.10663 431
207.10553 636
207.11679 705
207.12923 670
209.0377 308
209.05325 358
209.11708 827
209.14134 405
210.04312 575
210.05365 608
211.10431 300
217.10368 349
221.08583 395
221.10002 429
224.02896 590
224.03819 647
224.06703 397
225.0257 640
225.0406 680
225.07495 584
225.11987 416
229.02655 370
229.03703 315
231.16483 451
231.1804 468
237.03134 333
237.04156 335
237.11626 440
237.13251 476
238.04524 1416
239.05165 2653
240.06244 1078
241.10931 2909
242.1109 510
243.12555 594
245.13977 2177
246.13446 348
246.14757 358
247.13675 384
247.14926 359
249.17197 299
251.08583 327
252.04802 330
252.07071 389
252.18088 549
252.19832 581
253.06938 29729
254.07375 5131
255.04362 514
255.06337 1629
255.0778 1584
256.06482 430
257.05884 615
257.07346 638
261.16782 356
267.08606 5459
268.09274 23633
269.09348 4646
269.1058 4331
269.12564 502
270.09119 961
285.0954 11266
286.09961 1774
286.96698 593
286.98297 533
287.08295 411
287.09872 866
287.11041 890
287.12204 468
288.96677 350
297.94858 346
297.96176 345
298.94568 525
298.95917 487
299.9473 358
303.17596 905
303.18796 825
305.9447 1530
306.43326 564
306.4491 563
306.94232 3290
307.44354 770
307.9285 1883
307.9444 1861
308.44833 303
308.94943 574
Name: "4,4'-Dichlorodiphenyl sulfone"
PrecursorMZ: 286.9705
PrecursorType: [M+H]+
IonMode: Positive
Formula: C12H8Cl2O2S
SMILES: C1=CC(=CC=C1S(=O)(=O)C2=CC=C(C=C2)Cl)Cl
InChI: 
InChIKey: GPAPPPVRLPGFEQ-UHFFFAOYSA-N
RetentionTime: 7.067167
CCS: 
CollisionEnergy: 20-40 eV
InstrumentType: UPLC-QTOF-MS
Comment: PI: Cristina Nerin; Data collector: QiZhi Su, GUIA, University of Zaragoza, Spain; Collision energy: 20-40 V; Instrument: Waters HPLC-QTOF-MS (Xevo G2 QTof); Ionization: ESI; Deconvoluted by MS-DIAL; Column: Waters AtlantisTM premier BEH C18 AX column (2.1 × 100mm x 1.7μm); Flow rate: 0.3mL/min; Mobile phase A and B are water and methnaol, respectively, both with 0.1% formic acid; Gradient elution: from A/B (95/5) to A/B (100/0) in 7min, kept for 4 min, then back to A/B (95/5) in 0.1 min, and maintained for additional 1.9 min (13min in total).; Injection volume: 10 μL
Num peaks: 67
91.05465 718
91.06467 699
95.04912 1014
105.07063 682
109.04762 493
111.00036 4597
112.99734 1403
119.0695 493
131.08728 536
155.08447 560
155.09129 665
173.09544 1256
173.11792 3281
174.95676 663
174.96544 642
185.03903 697
185.04671 711
185.05797 689
185.104 534
187.089 574
187.09895 716
187.1138 723
189.11206 2101
197.04132 779
197.05966 787
209.11897 867
209.13666 729
210.04607 953
210.05521 954
210.06532 809
224.03105 1068
224.0565 644
224.0712 678
225.03566 820
225.07018 740
229.0304 611
229.0448 556
238.04172 2118
238.05234 2116
239.05365 4445
240.05981 1598
240.07068 1599
241.03203 502
242.11086 651
242.12332 650
245.13837 2331
251.13582 686
252.05814 565
253.06929 47858
254.07356 7601
255.05003 1853
255.06429 2475
255.07924 1904
256.05682 609
256.07001 618
257.05911 1026
257.07202 993
267.08481 9126
268.09259 38924
269.08521 7355
269.09653 7361
270.091 1909
270.11618 529
285.09494 29353
286.09964 5411
287.09158 1017
287.11255 921
Name: Diethanolamine
PrecursorMZ: 128.0688
PrecursorType: [M+Na]+
IonMode: Positive
Formula: C4H11NO2
SMILES: C(CO)NCCO
InChI: 
InChIKey: ZBCBWPMODOFKDW-UHFFFAOYSA-N
RetentionTime: 0.5397
CCS: 
CollisionEnergy: 20-40 eV
InstrumentType: UPLC-QTOF-MS
Comment: PI: Cristina Nerin; Data collector: QiZhi Su, GUIA, University of Zaragoza, Spain; Collision energy: 20-40 V; Instrument: Waters HPLC-QTOF-MS (Xevo G2 QTof); Ionization: ESI; Deconvoluted by MS-DIAL; Column: Waters AtlantisTM premier BEH C18 AX column (2.1 × 100mm x 1.7μm); Flow rate: 0.3mL/min; Mobile phase A and B are water and methnaol, respectively, both with 0.1% formic acid; Gradient elution: from A/B (95/5) to A/B (100/0) in 7min, kept for 4 min, then back to A/B (95/5) in 0.1 min, and maintained for additional 1.9 min (13min in total).; Injection volume: 10 μL
Num peaks: 31
68.04689 93
68.05269 93
70.0656 1595
71.06301 150
71.07211 152
74.05618 74
74.06456 74
79.00047 20
83.97569 22
84.95915 292
84.96753 287
88.07687 1423
88.95301 21
90.96928 317
90.98047 317
106.08863 1801
106.10628 1416
107.08775 79
108.08549 25
108.09402 19
111.99512 62
112.01095 61
113.98811 73
114.01407 38
114.02513 38
114.06557 302
114.07155 297
114.07867 297
118.08749 155
126.0192 48
128.07303 683
Name: 5-Dodecanolide
PrecursorMZ: 221.1532
PrecursorType: [M+Na]+
IonMode: Positive
Formula: C12H22O2
SMILES: CCCCCCCC1CCCC(=O)O1
InChI: 
InChIKey: QRPLZGZHJABGRS-UHFFFAOYSA-N
RetentionTime: 7.250383
CCS: 
CollisionEnergy: 20-40 eV
InstrumentType: UPLC-QTOF-MS
Comment: PI: Cristina Nerin; Data collector: QiZhi Su, GUIA, University of Zaragoza, Spain; Collision energy: 20-40 V; Instrument: Waters HPLC-QTOF-MS (Xevo G2 QTof); Ionization: ESI; Deconvoluted by MS-DIAL; Column: Waters AtlantisTM premier BEH C18 AX column (2.1 × 100mm x 1.7μm); Flow rate: 0.3mL/min; Mobile phase A and B are water and methnaol, respectively, both with 0.1% formic acid; Gradient elution: from A/B (95/5) to A/B (100/0) in 7min, kept for 4 min, then back to A/B (95/5) in 0.1 min, and maintained for additional 1.9 min (13min in total).; Injection volume: 10 μL
Num peaks: 312
55.05518 1283
57.02142 91
57.03461 117
57.07081 445
57.07705 442
59.04342 233
59.04982 230
67.05533 1174
69.02985 139
69.03526 136
69.07137 3859
69.08799 3883
70.07001 235
70.07379 245
71.03902 283
71.04935 253
71.05778 270
71.07165 672
71.08588 673
71.09522 666
73.06524 183
73.07755 217
75.04057 74
75.04649 59
76.03419 79
76.04147 74
76.04675 68
77.03589 261
77.0414 260
77.0637 158
79.05495 2184
80.05773 156
80.06383 158
81.0197 147
81.07106 4354
82.07608 181
82.08776 193
83.0495 485
83.05785 514
83.08633 4192
84.05623 54
84.08131 375
84.08983 367
84.09618 367
85.03013 53
85.05595 129
85.06537 88
85.07292 82
85.10245 409
86.09431 90
86.1068 56
87.04036 336
87.0462 350
87.06278 292
91.05598 1531
92.05404 126
92.06124 138
93.07066 2923
94.07439 138
94.08082 136
95.0006 67
95.00719 102
95.01386 106
95.02195 71
95.08612 3600
95.09763 3590
96.08466 115
96.09047 114
97.06553 1730
97.07182 1730
97.10247 3364
98.09949 123
98.10638 132
98.11148 132
98.96671 65
98.98634 85
99.024 124
99.03219 169
99.04474 146
99.05434 163
99.08169 292
101.08914 285
101.09784 288
101.10483 284
103.04074 90
103.05485 64
105.07077 512
105.07912 525
107.08722 3350
108.08107 322
108.08885 317
108.09513 318
109.05951 227
109.06783 224
109.07786 321
109.09689 629
109.10308 654
110.1011 101
111.08157 688
111.11475 177
111.12255 163
112.07627 147
112.08627 149
113.08162 194
113.27954 59
113.50566 94
114.43072 429
114.44055 452
114.45029 455
114.4557 462
115.0269 73
115.04253 514
115.11471 111
116.05547 92
116.11331 86
117.05695 181
117.08955 424
118.06487 90
118.09484 122
119.08139 449
119.08683 451
120.07051 95
120.07899 119
120.08626 126
120.09688 91
120.10586 68
121.04588 218
121.06556 181
121.08141 853
121.10291 2117
121.11665 2224
122.10582 299
123.03816 93
123.04359 79
123.067 106
123.08293 116
123.11549 500
124.11637 60
125.0789 922
125.09715 832
125.10273 824
126.09289 116
126.10077 120
127.04179 83
127.05368 142
127.0742 201
129.06378 117
129.07141 194
129.09395 320
129.10719 150
131.04572 224
133.06189 132
133.07281 282
133.08255 308
133.10104 279
135.11305 678
135.11926 742
136.04829 73
136.12244 165
136.13904 79
137.02486 65
137.05212 106
137.05919 84
137.09427 84
137.10468 102
139.0051 70
139.11176 218
139.12068 214
139.14291 90
139.14977 92
141.05746 205
141.06758 186
141.07397 200
141.09329 208
142.07417 107
142.08449 109
143.05058 102
143.11351 215
144.09357 72
144.10303 62
145.04033 108
148.07825 77
149.05954 87
149.09746 57
151.02177 62
151.03992 71
151.11011 82
152.108 57
153.01578 99
153.02829 59
153.04448 97
155.11574 55
157.05222 77
157.06316 219
157.07635 59
157.09193 234
157.12367 97
158.04247 53
158.09909 68
158.11156 79
158.11836 55
159.08015 102
161.05328 85
161.06487 98
162.56247 63
163.00763 55
163.02576 53
163.05396 59
163.14958 5283
164.14861 840
164.15675 841
164.16597 859
164.17802 162
165.07973 62
167.03465 58
167.07089 118
167.10135 193
169.07367 204
170.076 53
170.08794 127
171.06584 140
171.10258 604
171.11472 667
173.10977 292
173.1216 482
173.13698 503
174.11958 243
174.13116 253
175.06184 96
175.0797 82
175.10474 69
175.1171 135
176.12436 109
176.14331 97
181.05092 97
181.06665 118
181.1219 170
181.16013 3194
181.18309 151
182.11909 53
182.15018 361
182.16307 418
182.17516 348
183.06696 264
184.06934 144
184.08525 105
184.10506 82
185.08252 1422
185.09755 1232
186.07405 138
186.08615 114
187.09599 356
187.1091 426
187.14008 66
187.1523 69
188.09914 65
188.14624 54
188.99602 61
189.02486 73
189.06413 93
189.1113 99
189.11768 209
190.98715 53
190.9991 54
191.08342 245
191.12407 104
192.08517 124
194.1051 58
195.12099 207
196.1035 61
197.02998 53
197.09631 56
197.11243 168
197.14981 68
198.06926 109
198.08679 128
199.03717 53
199.15173 535
199.17142 889
199.18752 1038
200.06377 61
200.07368 80
200.07956 62
201.104 97
203.09911 113
203.11649 89
205.10529 69
205.12448 124
205.16519 53
205.179 62
206.10753 100
206.12663 97
207.08614 122
207.10876 54
207.11726 63
208.07434 62
208.11786 76
208.13356 82
209.15521 66
210.1207 60
211.15822 60
213.08784 59
213.09998 58
215.02762 56
215.09587 112
215.10568 146
215.11833 94
215.1416 105
219.14046 65
221.13145 659
221.14719 761
221.1609 458
Name: 5-Dodecanolide
PrecursorMZ: 419.3139
PrecursorType: [2M+Na]+
IonMode: Positive
Formula: C12H22O2
SMILES: CCCCCCCC1CCCC(=O)O1
InChI: 
InChIKey: QRPLZGZHJABGRS-UHFFFAOYSA-N
RetentionTime: 7.2542
CCS: 
CollisionEnergy: 20-40 eV
InstrumentType: UPLC-QTOF-MS
Comment: PI: Cristina Nerin; Data collector: QiZhi Su, GUIA, University of Zaragoza, Spain; Collision energy: 20-40 V; Instrument: Waters HPLC-QTOF-MS (Xevo G2 QTof); Ionization: ESI; Deconvoluted by MS-DIAL; Column: Waters AtlantisTM premier BEH C18 AX column (2.1 × 100mm x 1.7μm); Flow rate: 0.3mL/min; Mobile phase A and B are water and methnaol, respectively, both with 0.1% formic acid; Gradient elution: from A/B (95/5) to A/B (100/0) in 7min, kept for 4 min, then back to A/B (95/5) in 0.1 min, and maintained for additional 1.9 min (13min in total).; Injection volume: 10 μL
Num peaks: 424
53.03874 57
55.05487 1833
55.07231 1871
56.05682 60
56.06338 63
57.05992 514
57.06674 502
57.07084 502
65.03383 86
65.04034 86
67.05493 1773
68.05411 112
68.06081 110
69.0305 139
69.03863 125
69.04384 123
69.07099 5497
70.07443 234
71.0425 132
71.05006 129
71.08602 678
73.0566 224
73.066 232
73.074 246
75.02879 60
76.04163 70
77.02955 530
77.04023 531
77.04654 537
78.04807 67
79.05501 3171
80.04695 238
80.05441 252
80.06136 251
81.00323 93
81.00967 104
81.01697 189
81.03137 130
81.03685 130
81.07072 4958
81.08444 4958
82.07367 210
83.03452 433
83.05056 428
83.05689 438
83.0615 456
83.08643 5659
84.08785 386
84.09224 367
85.02731 73
85.03895 81
85.06169 510
85.06734 511
85.09041 434
85.0996 399
85.10689 404
86.10003 58
87.04485 374
87.07074 144
87.08071 78
87.0884 67
91.0555 1598
91.06606 1603
92.05459 161
92.06152 161
93.07011 4219
94.06822 229
94.07515 226
94.99773 157
95.08737 4000
95.10168 4009
96.08977 244
97.06171 2088
97.06741 2083
97.10162 3767
97.10772 3771
98.10022 230
98.10591 230
98.11112 230
98.97709 87
98.98499 84
98.99134 81
99.02509 175
99.04253 183
101.10057 95
103.04102 75
105.07123 538
107.08631 4540
108.08284 413
108.08848 407
109.05188 168
109.06824 223
109.0725 258
109.09062 995
109.10219 857
110.10405 101
110.11358 101
111.03477 59
111.08227 1010
111.11098 109
111.11711 117
111.12887 107
112.08447 154
112.97195 60
113.09378 176
113.50365 80
114.44843 386
115.02421 104
115.03297 104
115.04198 514
115.11356 109
115.12521 113
116.11584 83
117.05326 389
117.07178 317
118.07393 100
118.08686 95
119.08748 461
120.09236 98
121.04761 182
121.06284 215
121.07338 198
121.0849 2944
121.10133 2917
121.11759 2916
122.1049 395
122.11895 429
123.07529 104
123.08514 122
123.11839 516
125.09433 958
126.09209 117
126.10003 120
126.10681 120
127.0545 71
127.07444 93
128.05363 94
128.06421 87
128.07874 112
129.07063 93
129.07629 349
129.09137 410
129.10577 196
131.03625 76
133.06641 118
133.08113 260
133.09146 237
133.10013 275
135.07672 123
135.08498 134
135.10986 756
135.11879 759
136.04419 83
136.05389 73
136.11288 164
136.12294 165
136.1302 166
137.04144 59
137.0546 123
137.06648 86
137.0921 86
137.10057 102
137.13298 80
139.10744 369
139.11505 381
139.12259 378
139.14897 162
141.06578 183
141.07466 202
142.07098 117
142.07953 95
143.03709 58
143.06313 104
143.07309 221
143.08047 193
143.08679 232
143.10464 294
143.1203 151
144.09019 60
145.0437 146
145.06491 57
145.09799 110
145.10309 85
146.07024 63
147.12355 58
148.07645 79
148.08681 69
149.04047 112
149.05772 77
149.06709 82
149.10258 58
151.11339 77
152.0376 63
152.04782 71
153.05617 102
154.0773 86
155.03943 155
155.06898 69
155.08209 116
155.10803 152
155.58333 72
156.06688 68
156.07817 96
157.10114 165
157.12416 99
158.10217 95
158.1124 75
159.06734 123
159.08173 118
159.11299 96
159.11993 123
161.05141 89
161.06348 92
161.13286 67
162.09973 60
163.05791 57
163.07037 149
163.07939 131
163.14989 5605
164.1528 841
164.16331 857
164.17906 162
165.06847 86
165.0789 149
165.09424 131
167.04854 98
167.06691 168
167.08812 201
167.09845 240
169.08571 79
170.08281 66
171.05136 109
171.07594 123
171.12195 247
173.09489 147
175.07997 82
175.13545 164
176.12695 90
176.14323 88
181.04646 105
181.05774 123
181.08702 239
181.10336 250
181.16 3194
182.08665 66
182.16194 418
182.16809 418
183.06636 77
183.08987 116
183.10115 139
183.11401 134
183.12285 124
184.1194 105
185.07462 1212
185.0838 1399
185.10223 896
185.15669 87
186.08218 136
186.09151 122
187.12111 288
187.15463 64
189.07919 95
191.0898 89
192.09109 111
192.09785 119
193.08147 293
193.09871 130
195.09724 133
195.12004 207
195.13667 182
197.09576 103
197.1058 141
197.11964 150
197.13667 142
197.14375 92
198.07359 107
198.10451 59
199.15723 862
199.172 899
200.07971 94
200.17389 70
200.18733 83
203.08217 125
203.10706 134
205.09471 93
205.10567 73
205.11938 99
205.18201 72
206.11575 73
206.1264 97
207.08199 57
207.10054 157
207.11877 203
208.07887 64
208.11737 64
208.12497 76
209.09717 83
209.10988 101
209.13763 61
210.10609 92
212.10907 103
212.12213 112
213.09134 63
213.106 60
215.09137 120
215.10448 109
215.12285 98
215.1424 104
215.15886 87
219.08521 74
219.13403 98
220.09293 92
221.12993 158
221.15143 1266
222.14545 231
222.16428 253
223.09506 215
223.11055 150
223.13661 139
223.15291 159
224.13463 69
224.14409 63
225.04425 74
227.19005 66
227.58568 70
228.08633 131
228.0997 140
229.12567 109
230.10561 64
232.14598 62
233.12991 76
235.07935 123
235.10295 81
237.10854 1028
237.1228 974
238.09595 69
238.11887 145
238.12898 109
240.22514 382
240.23764 403
247.13153 71
248.11234 130
248.13055 131
249.12128 58
249.13353 94
249.15024 67
251.07745 98
251.19032 78
252.18001 74
253.08241 581
253.09464 574
253.11128 233
254.08417 109
254.09692 123
256.09259 109
256.12003 215
256.62329 108
259.15317 153
259.1676 110
260.14987 73
261.1702 75
263.11545 89
265.19531 97
265.21085 94
271.14102 111
278.16678 60
284.11935 126
284.13071 125
284.14426 118
284.6377 58
284.65045 57
287.18863 64
292.1301 786
292.6152 195
292.62793 188
293.19205 286
295.16565 67
295.19604 89
295.2081 63
296.17166 59
299.15268 996
300.11414 70
300.15338 175
302.1738 60
311.18362 92
311.19339 59
313.09225 227
313.12299 105
313.13358 85
313.14911 61
318.17917 66
319.17627 66
320.14417 120
321.17545 67
323.14435 139
325.14917 65
325.17358 88
327.07635 86
327.22955 65
328.13626 367
328.63608 140
336.11917 134
343.13412 92
355.22235 57
355.24521 78
356.17581 61
357.15985 155
357.17865 472
357.19434 141
367.2056 194
367.21994 154
368.41275 79
368.42828 77
368.4472 71
371.21317 160
371.22498 159
379.17242 97
382.16745 67
382.18594 57
389.26413 68
411.19766 70
411.21735 96
414.22574 65
415.12051 93
Name: 5-Dodecanolide
PrecursorMZ: 199.1709
PrecursorType: [M+H]+
IonMode: Positive
Formula: C12H22O2
SMILES: CCCCCCCC1CCCC(=O)O1
InChI: 
InChIKey: QRPLZGZHJABGRS-UHFFFAOYSA-N
RetentionTime: 7.258
CCS: 
CollisionEnergy: 20-40 eV
InstrumentType: UPLC-QTOF-MS
Comment: PI: Cristina Nerin; Data collector: QiZhi Su, GUIA, University of Zaragoza, Spain; Collision energy: 20-40 V; Instrument: Waters HPLC-QTOF-MS (Xevo G2 QTof); Ionization: ESI; Deconvoluted by MS-DIAL; Column: Waters AtlantisTM premier BEH C18 AX column (2.1 × 100mm x 1.7μm); Flow rate: 0.3mL/min; Mobile phase A and B are water and methnaol, respectively, both with 0.1% formic acid; Gradient elution: from A/B (95/5) to A/B (100/0) in 7min, kept for 4 min, then back to A/B (95/5) in 0.1 min, and maintained for additional 1.9 min (13min in total).; Injection volume: 10 μL
Num peaks: 229
55.01881 1430
55.04506 1889
55.05487 1899
55.05923 1901
55.06386 1901
56.04802 83
56.05639 77
56.0604 77
57.07021 508
60.08115 184
60.08595 187
60.0927 191
65.03571 95
65.04189 92
67.05537 1788
68.0593 122
69.01831 73
69.02969 119
69.03638 118
69.0709 6044
70.07109 227
70.07632 235
71.04959 393
71.08857 719
73.06192 249
73.06679 241
77.03915 525
77.04648 530
78.04331 70
79.05563 3033
80.05078 224
80.05495 230
80.06142 231
81.02066 91
81.02936 79
81.03568 69
81.07086 4847
81.08721 4950
82.0695 232
82.07761 242
82.08409 241
83.05032 478
83.08649 5769
84.08858 384
84.09584 382
85.05411 600
85.06734 563
85.1022 392
85.10803 392
86.07938 61
86.10718 69
87.04552 396
87.05343 394
87.06154 452
87.07855 95
87.08897 87
91.05055 1234
91.05619 1237
92.0557 113
92.06338 117
93.07094 3950
94.06744 229
94.076 233
95.012 88
95.01778 84
95.0471 191
95.05316 179
95.08598 3642
95.09151 3647
96.08244 168
96.09258 166
97.06694 2461
97.10232 3924
97.10764 3928
97.12317 316
98.06714 99
98.103 231
99.02461 135
99.0342 159
99.04435 166
99.05086 190
101.09136 85
101.10126 71
103.04513 66
105.07913 156
107.08582 4490
108.0865 462
108.09369 458
109.06409 86
109.07095 152
109.10258 701
110.10523 69
110.11217 69
110.96911 70
110.97861 69
110.99186 115
111.00352 125
111.01933 174
111.03741 100
111.04339 67
111.07611 1005
111.08207 1011
111.11245 157
111.11868 145
112.08073 160
112.08884 153
112.96317 88
112.97038 79
112.97835 88
113.08257 146
113.09187 163
113.50222 67
114.45442 381
115.11794 122
115.12787 141
116.12115 69
118.08829 115
120.06724 74
120.07981 92
120.0898 85
120.09875 76
121.10253 2702
122.0846 93
122.09464 401
122.10218 406
122.10878 417
123.03964 61
123.10692 496
123.11617 522
123.13238 498
125.09763 936
126.04912 128
126.08947 113
126.10062 119
127.04416 114
127.05679 216
127.07166 145
128.06067 65
128.08214 99
129.08981 382
129.10352 190
131.04727 216
135.11568 688
135.12485 692
136.11726 146
136.12637 154
137.02928 65
137.05264 118
137.06281 107
137.13416 97
139.10454 409
139.11433 403
139.14854 161
143.04437 68
143.05746 62
143.11847 157
145.08177 61
147.05957 198
151.03 72
151.04443 70
153.02609 112
153.04167 70
154.07434 96
154.08609 111
155.03819 70
155.07085 119
155.08064 182
156.064 63
157.04341 153
157.05252 104
157.12102 259
157.12775 91
157.1367 62
159.06216 147
163.06123 86
163.07344 119
163.08444 88
163.10139 65
163.14906 5624
164.1546 841
165.07474 90
165.08487 65
165.09798 96
167.04378 79
171.05673 90
171.06277 113
171.07535 94
171.12183 154
174.14389 69
175.07004 62
175.15472 96
176.13791 74
179.04811 77
179.06549 145
181.05414 78
181.15994 3209
182.16232 425
182.17355 370
183.06688 342
183.10599 100
184.97371 88
184.99232 106
185.00159 85
185.07962 947
185.09578 638
186.08983 84
186.10242 65
189.01917 64
189.07506 74
191.06433 145
191.08472 217
192.10406 109
192.12041 72
193.08142 105
193.10049 124
195.04774 100
195.06137 116
195.07233 86
195.10114 119
195.11273 111
195.12143 105
195.13939 202
197.0498 66
197.13145 64
198.07846 92
198.56786 70
199.06798 66
199.07764 87
199.17046 1052
Name: 5-Dodecanolide
PrecursorMZ: 397.3324
PrecursorType: [2M+H]+
IonMode: Positive
Formula: C12H22O2
SMILES: CCCCCCCC1CCCC(=O)O1
InChI: 
InChIKey: QRPLZGZHJABGRS-UHFFFAOYSA-N
RetentionTime: 7.258
CCS: 
CollisionEnergy: 20-40 eV
InstrumentType: UPLC-QTOF-MS
Comment: PI: Cristina Nerin; Data collector: QiZhi Su, GUIA, University of Zaragoza, Spain; Collision energy: 20-40 V; Instrument: Waters HPLC-QTOF-MS (Xevo G2 QTof); Ionization: ESI; Deconvoluted by MS-DIAL; Column: Waters AtlantisTM premier BEH C18 AX column (2.1 × 100mm x 1.7μm); Flow rate: 0.3mL/min; Mobile phase A and B are water and methnaol, respectively, both with 0.1% formic acid; Gradient elution: from A/B (95/5) to A/B (100/0) in 7min, kept for 4 min, then back to A/B (95/5) in 0.1 min, and maintained for additional 1.9 min (13min in total).; Injection volume: 10 μL
Num peaks: 329
55.04506 1889
55.05487 1899
55.05923 1901
55.06386 1901
56.04802 83
56.05639 77
56.0604 77
57.07021 508
65.03571 84
65.04189 82
67.05537 1788
68.0593 122
69.01831 73
69.02969 119
69.03638 118
69.0709 6025
70.07109 233
70.07632 242
71.04959 296
71.08857 715
73.06192 247
73.06679 241
77.03915 525
77.04648 530
78.04331 70
79.05563 3033
80.05078 224
80.05495 230
80.06142 231
81.02066 91
81.02936 79
81.03568 69
81.07086 4847
81.08721 4950
82.0695 233
82.07761 243
82.08409 242
83.05032 475
83.08649 5769
84.08858 384
84.09584 382
85.05411 600
85.06734 563
85.1022 392
85.10803 392
86.07938 61
86.10718 69
87.04552 329
87.05343 326
87.06154 385
87.07855 85
87.08897 75
91.05055 1234
91.05619 1237
92.0557 113
92.06338 117
93.07094 3950
94.06744 229
94.076 233
95.012 94
95.01778 94
95.0471 131
95.05316 119
95.08598 3642
95.09151 3647
96.08244 168
96.09258 166
97.06694 2306
97.10232 3924
97.10764 3928
97.12317 216
98.06714 74
98.103 231
99.02461 141
99.0342 159
99.04435 166
99.05086 190
101.09136 90
101.10126 76
103.04513 74
105.07913 156
107.08582 4490
108.0865 451
108.09369 447
109.06409 86
109.07095 152
109.10258 701
110.10523 69
110.11217 69
111.00352 114
111.01933 192
111.03741 105
111.04339 67
111.07611 1005
111.08207 1011
111.11245 139
111.11868 125
112.08073 160
112.08884 153
112.96317 84
112.97038 62
113.08257 162
113.09187 184
113.50222 75
114.45442 425
115.11794 114
115.12787 135
116.12115 73
118.08829 115
120.06724 74
120.07981 92
120.0898 85
120.09875 76
121.10253 2702
122.0846 95
122.09464 416
122.10218 418
122.10878 417
123.10692 496
123.11617 522
123.13238 498
125.09763 936
126.04912 117
126.08947 113
126.10062 119
127.05679 146
127.07166 91
128.06067 65
128.08214 99
129.08981 382
129.10352 189
131.04727 216
133.08337 70
135.11568 688
135.12485 692
136.11726 152
136.12637 162
137.02928 63
137.05264 118
137.06281 107
137.13416 86
139.10454 409
139.11433 403
139.14854 161
143.04437 74
143.05746 63
143.11847 157
145.08177 92
147.05957 198
151.03 71
151.04443 70
153.00307 65
153.02609 117
153.04167 74
154.07434 96
154.08609 111
155.03819 61
155.07085 119
155.08064 182
155.09195 78
156.064 69
157.04341 89
157.0723 79
157.12102 285
157.12775 99
159.06216 147
159.07446 91
159.08333 75
162.56291 68
163.06123 69
163.07344 113
163.08444 88
163.10139 66
163.14906 5624
164.1546 841
165.07474 90
165.08487 65
165.09798 96
167.04378 75
171.05673 86
171.06277 143
171.07535 114
171.12183 102
171.13152 66
174.14389 92
175.07004 62
175.15472 115
176.12778 73
176.13791 74
179.06549 153
181.05414 91
181.07703 61
181.15994 3209
182.16232 425
182.17355 370
183.06688 137
183.10599 100
184.97371 70
184.99232 80
185.07962 947
185.09578 638
186.08983 84
186.10242 65
189.01917 69
189.07506 74
191.06433 152
191.08472 217
192.10406 109
192.12041 67
193.08142 115
193.10049 124
195.10114 142
195.11273 142
195.12143 134
195.13939 256
197.0498 66
197.13145 64
198.07846 96
198.56786 76
199.17046 934
200.06577 79
200.17728 95
203.09038 63
203.1019 65
207.07771 74
207.08908 142
208.13206 64
211.03865 73
212.1125 83
212.12425 76
215.08942 119
215.14009 62
220.09541 78
221.14075 973
221.15465 1142
222.13585 121
222.14922 255
222.16078 280
223.09323 135
223.10538 187
223.11726 154
223.14717 146
223.15874 79
225.03317 70
227.07906 223
227.09471 176
227.18144 73
228.07187 72
228.08525 135
228.10846 107
229.11456 69
230.10056 78
230.11717 68
231.10239 61
233.12727 61
235.06062 99
235.07315 160
235.08286 148
235.09297 150
235.13123 91
235.15053 106
237.10483 1085
237.11819 950
237.13991 321
238.10069 152
238.11888 128
248.11261 112
248.12552 107
248.62657 61
248.63731 69
251.07518 83
252.09822 78
253.07455 335
253.10135 630
254.08627 124
254.09517 105
254.1125 98
256.11108 189
256.12466 188
256.61914 104
256.62634 104
259.14206 145
259.16138 146
259.17953 103
263.1272 61
265.09232 66
265.10828 86
265.20248 67
268.11533 125
268.13257 73
269.134 78
271.13864 65
284.13531 125
284.65015 65
292.12473 757
292.62787 172
296.1741 63
296.18896 73
300.11725 123
300.15311 67
300.16669 120
309.13419 85
309.16022 201
309.17813 156
311.13928 63
313.09442 99
313.11047 174
317.19296 70
320.15512 106
321.15909 80
323.21609 62
325.15955 130
325.1817 88
327.06891 70
327.08255 70
328.11545 109
328.13943 324
328.21027 70
328.62537 92
336.10162 97
336.11996 104
343.12036 83
357.17517 306
367.19766 80
367.21021 137
368.42688 63
371.21365 139
371.22614 132
379.15314 79
Name: Triethylenglycol dibenzoate
PrecursorMZ: 376.176
PrecursorType: [M+NH4]+
IonMode: Positive
Formula: C20H22O6
SMILES: C1=CC=C(C=C1)C(=O)OCCOCCOCCOC(=O)C2=CC=CC=C2
InChI: 
InChIKey: AHSGHEXYEABOKT-UHFFFAOYSA-N
RetentionTime: 6.74878
CCS: 
CollisionEnergy: 20-40 eV
InstrumentType: UPLC-QTOF-MS
Comment: PI: Cristina Nerin; Data collector: QiZhi Su, GUIA, University of Zaragoza, Spain; Collision energy: 20-40 V; Instrument: Waters HPLC-QTOF-MS (Xevo G2 QTof); Ionization: ESI; Deconvoluted by MS-DIAL; Column: Waters AtlantisTM premier BEH C18 AX column (2.1 × 100mm x 1.7μm); Flow rate: 0.3mL/min; Mobile phase A and B are water and methnaol, respectively, both with 0.1% formic acid; Gradient elution: from A/B (95/5) to A/B (100/0) in 7min, kept for 4 min, then back to A/B (95/5) in 0.1 min, and maintained for additional 1.9 min (13min in total).; Injection volume: 10 μL
Num peaks: 10
77.03796 22905
78.04234 1181
105.03304 78135
106.03802 4912
144.99879 1947
145.0173 1780
145.02628 1795
149.05922 50375
160.9908 4692
355.20721 2012
Name: Triethylenglycol dibenzoate
PrecursorMZ: 381.1311
PrecursorType: [M+Na]+
IonMode: Positive
Formula: C20H22O6
SMILES: C1=CC=C(C=C1)C(=O)OCCOCCOCCOC(=O)C2=CC=CC=C2
InChI: 
InChIKey: AHSGHEXYEABOKT-UHFFFAOYSA-N
RetentionTime: 6.7511
CCS: 
CollisionEnergy: 20-40 eV
InstrumentType: UPLC-QTOF-MS
Comment: PI: Cristina Nerin; Data collector: QiZhi Su, GUIA, University of Zaragoza, Spain; Collision energy: 20-40 V; Instrument: Waters HPLC-QTOF-MS (Xevo G2 QTof); Ionization: ESI; Deconvoluted by MS-DIAL; Column: Waters AtlantisTM premier BEH C18 AX column (2.1 × 100mm x 1.7μm); Flow rate: 0.3mL/min; Mobile phase A and B are water and methnaol, respectively, both with 0.1% formic acid; Gradient elution: from A/B (95/5) to A/B (100/0) in 7min, kept for 4 min, then back to A/B (95/5) in 0.1 min, and maintained for additional 1.9 min (13min in total).; Injection volume: 10 μL
Num peaks: 34
77.03829 6230
78.03557 392
78.04179 393
95.05059 536
100.98383 519
100.99103 534
101.00283 553
105.03302 21316
106.03378 1501
106.04073 1511
117.00184 1475
117.01777 1462
121.022 502
121.03082 518
121.04735 447
145.01515 1742
145.02272 1781
149.05954 18335
150.06216 1429
150.07018 1422
150.07835 1401
160.99054 9723
161.99246 664
161.99875 663
162.00818 657
199.04289 246
199.05658 259
249.04387 2197
250.0434 259
293.07117 2815
293.0993 276
294.06152 260
294.07925 303
381.13132 13070
Name: Triethylenglycol dibenzoate
PrecursorMZ: 397.106
PrecursorType: [M+K]+
IonMode: Positive
Formula: C20H22O6
SMILES: C1=CC=C(C=C1)C(=O)OCCOCCOCCOC(=O)C2=CC=CC=C2
InChI: 
InChIKey: AHSGHEXYEABOKT-UHFFFAOYSA-N
RetentionTime: 6.749181
CCS: 
CollisionEnergy: 20-40 eV
InstrumentType: UPLC-QTOF-MS
Comment: PI: Cristina Nerin; Data collector: QiZhi Su, GUIA, University of Zaragoza, Spain; Collision energy: 20-40 V; Instrument: Waters HPLC-QTOF-MS (Xevo G2 QTof); Ionization: ESI; Deconvoluted by MS-DIAL; Column: Waters AtlantisTM premier BEH C18 AX column (2.1 × 100mm x 1.7μm); Flow rate: 0.3mL/min; Mobile phase A and B are water and methnaol, respectively, both with 0.1% formic acid; Gradient elution: from A/B (95/5) to A/B (100/0) in 7min, kept for 4 min, then back to A/B (95/5) in 0.1 min, and maintained for additional 1.9 min (13min in total).; Injection volume: 10 μL
Num peaks: 36
77.03829 6230
78.03557 392
78.04179 393
95.05059 536
100.98383 519
100.99103 534
101.00283 553
105.03302 21316
106.03378 1501
106.04073 1511
117.00184 1475
117.01777 1462
121.022 502
121.03082 518
121.04735 447
145.01515 1742
145.02272 1781
149.05954 18335
150.06216 1429
150.07018 1422
150.07835 1401
160.99054 9723
161.99246 664
161.99875 663
162.00818 657
199.04289 246
199.05658 259
249.04387 2197
250.0434 259
293.07117 2815
293.0993 276
294.06152 260
294.07925 303
381.13132 12644
382.13446 2245
383.1441 260
Name: Diethylmethyl pyrazine
PrecursorMZ: 151.1231
PrecursorType: [M+H]+
IonMode: Positive
Formula: C9H14N2
SMILES: CCC1=NC=C(N=C1CC)C
InChI: 
InChIKey: PSINWXIDJYEXLO-UHFFFAOYSA-N
RetentionTime: 5.497086
CCS: 
CollisionEnergy: 20-40 eV
InstrumentType: UPLC-QTOF-MS
Comment: PI: Cristina Nerin; Data collector: QiZhi Su, GUIA, University of Zaragoza, Spain; Collision energy: 20-40 V; Instrument: Waters HPLC-QTOF-MS (Xevo G2 QTof); Ionization: ESI; Deconvoluted by MS-DIAL; Column: Waters AtlantisTM premier BEH C18 AX column (2.1 × 100mm x 1.7μm); Flow rate: 0.3mL/min; Mobile phase A and B are water and methnaol, respectively, both with 0.1% formic acid; Gradient elution: from A/B (95/5) to A/B (100/0) in 7min, kept for 4 min, then back to A/B (95/5) in 0.1 min, and maintained for additional 1.9 min (13min in total).; Injection volume: 10 μL
Num peaks: 28
80.04945 1025
81.05601 739
81.06756 746
81.0753 547
82.05062 664
82.06584 666
94.0619 1051
94.06837 1046
95.05695 515
95.06259 491
96.06809 1308
96.08065 1374
96.09113 1293
107.06004 3804
108.06837 9221
109.07011 1503
109.07838 1482
121.07662 2711
122.08374 2259
123.07646 1432
123.09031 1497
134.08539 555
134.10008 562
135.09161 45684
136.09903 47933
137.08461 2900
137.10353 3286
151.12279 43717
Name: 1-Dodecyl-2-pyrrolidinone
PrecursorMZ: 507.4898
PrecursorType: [2M+H]+
IonMode: Positive
Formula: C16H31NO
SMILES: CCCCCCCCCCCCN1CCCC1=O
InChI: 
InChIKey: NJPQAIBZIHNJDO-UHFFFAOYSA-N
RetentionTime: 7.993077
CCS: 
CollisionEnergy: 20-40 eV
InstrumentType: UPLC-QTOF-MS
Comment: PI: Cristina Nerin; Data collector: QiZhi Su, GUIA, University of Zaragoza, Spain; Collision energy: 20-40 V; Instrument: Waters HPLC-QTOF-MS (Xevo G2 QTof); Ionization: ESI; Deconvoluted by MS-DIAL; Column: Waters AtlantisTM premier BEH C18 AX column (2.1 × 100mm x 1.7μm); Flow rate: 0.3mL/min; Mobile phase A and B are water and methnaol, respectively, both with 0.1% formic acid; Gradient elution: from A/B (95/5) to A/B (100/0) in 7min, kept for 4 min, then back to A/B (95/5) in 0.1 min, and maintained for additional 1.9 min (13min in total).; Injection volume: 10 μL
Num peaks: 16
69.03303 7350
69.05179 9145
86.05928 158241
87.04675 8139
87.06276 7600
254.24739 605968
255.25023 103902
256.25446 8722
273.22025 62636
273.72226 21837
276.22934 83953
277.23166 12769
338.19995 14291
399.83951 43275
400.34097 23076
400.84238 6152
Name: 1-Dodecyl-2-pyrrolidinone
PrecursorMZ: 529.4711
PrecursorType: [2M+Na]+
IonMode: Positive
Formula: C16H31NO
SMILES: CCCCCCCCCCCCN1CCCC1=O
InChI: 
InChIKey: NJPQAIBZIHNJDO-UHFFFAOYSA-N
RetentionTime: 7.993077
CCS: 
CollisionEnergy: 20-40 eV
InstrumentType: UPLC-QTOF-MS
Comment: PI: Cristina Nerin; Data collector: QiZhi Su, GUIA, University of Zaragoza, Spain; Collision energy: 20-40 V; Instrument: Waters HPLC-QTOF-MS (Xevo G2 QTof); Ionization: ESI; Deconvoluted by MS-DIAL; Column: Waters AtlantisTM premier BEH C18 AX column (2.1 × 100mm x 1.7μm); Flow rate: 0.3mL/min; Mobile phase A and B are water and methnaol, respectively, both with 0.1% formic acid; Gradient elution: from A/B (95/5) to A/B (100/0) in 7min, kept for 4 min, then back to A/B (95/5) in 0.1 min, and maintained for additional 1.9 min (13min in total).; Injection volume: 10 μL
Num peaks: 16
69.03303 7188
69.05179 9145
86.05928 155023
87.04675 7707
87.06276 6998
254.24739 605917
255.25023 103877
256.25446 8722
273.22025 62635
273.72226 21837
276.22934 84822
277.23166 12769
338.19995 13391
399.83951 43275
400.34097 23076
400.84238 6152
Name: 1-Dodecyl-2-pyrrolidinone
PrecursorMZ: 254.2498
PrecursorType: [M+H]+
IonMode: Positive
Formula: C16H31NO
SMILES: CCCCCCCCCCCCN1CCCC1=O
InChI: 
InChIKey: NJPQAIBZIHNJDO-UHFFFAOYSA-N
RetentionTime: 7.986567
CCS: 
CollisionEnergy: 20-40 eV
InstrumentType: UPLC-QTOF-MS
Comment: PI: Cristina Nerin; Data collector: QiZhi Su, GUIA, University of Zaragoza, Spain; Collision energy: 20-40 V; Instrument: Waters HPLC-QTOF-MS (Xevo G2 QTof); Ionization: ESI; Deconvoluted by MS-DIAL; Column: Waters AtlantisTM premier BEH C18 AX column (2.1 × 100mm x 1.7μm); Flow rate: 0.3mL/min; Mobile phase A and B are water and methnaol, respectively, both with 0.1% formic acid; Gradient elution: from A/B (95/5) to A/B (100/0) in 7min, kept for 4 min, then back to A/B (95/5) in 0.1 min, and maintained for additional 1.9 min (13min in total).; Injection volume: 10 μL
Num peaks: 9
57.07016 1434
69.03289 2567
86.05916 66166
87.04653 2215
87.06182 2493
87.06776 2483
87.08121 2407
237.07951 1486
254.2477 128500
Name: 1-Dodecyl-2-pyrrolidinone
PrecursorMZ: 276.2307
PrecursorType: [M+Na]+
IonMode: Positive
Formula: C16H31NO
SMILES: CCCCCCCCCCCCN1CCCC1=O
InChI: 
InChIKey: NJPQAIBZIHNJDO-UHFFFAOYSA-N
RetentionTime: 7.994375
CCS: 
CollisionEnergy: 20-40 eV
InstrumentType: UPLC-QTOF-MS
Comment: PI: Cristina Nerin; Data collector: QiZhi Su, GUIA, University of Zaragoza, Spain; Collision energy: 20-40 V; Instrument: Waters HPLC-QTOF-MS (Xevo G2 QTof); Ionization: ESI; Deconvoluted by MS-DIAL; Column: Waters AtlantisTM premier BEH C18 AX column (2.1 × 100mm x 1.7μm); Flow rate: 0.3mL/min; Mobile phase A and B are water and methnaol, respectively, both with 0.1% formic acid; Gradient elution: from A/B (95/5) to A/B (100/0) in 7min, kept for 4 min, then back to A/B (95/5) in 0.1 min, and maintained for additional 1.9 min (13min in total).; Injection volume: 10 μL
Num peaks: 11
69.0194 8900
69.03293 8983
86.05918 221070
87.0626 8368
87.08134 8428
254.24716 605917
255.25017 103759
256.25375 8530
273.21985 62080
273.72134 21738
276.229 92694
Name: 1-Dodecyl-2-pyrrolidinone
PrecursorMZ: 292.205
PrecursorType: [M+K]+
IonMode: Positive
Formula: C16H31NO
SMILES: CCCCCCCCCCCCN1CCCC1=O
InChI: 
InChIKey: NJPQAIBZIHNJDO-UHFFFAOYSA-N
RetentionTime: 7.994992
CCS: 
CollisionEnergy: 20-40 eV
InstrumentType: UPLC-QTOF-MS
Comment: PI: Cristina Nerin; Data collector: QiZhi Su, GUIA, University of Zaragoza, Spain; Collision energy: 20-40 V; Instrument: Waters HPLC-QTOF-MS (Xevo G2 QTof); Ionization: ESI; Deconvoluted by MS-DIAL; Column: Waters AtlantisTM premier BEH C18 AX column (2.1 × 100mm x 1.7μm); Flow rate: 0.3mL/min; Mobile phase A and B are water and methnaol, respectively, both with 0.1% formic acid; Gradient elution: from A/B (95/5) to A/B (100/0) in 7min, kept for 4 min, then back to A/B (95/5) in 0.1 min, and maintained for additional 1.9 min (13min in total).; Injection volume: 10 μL
Num peaks: 32
69.03303 6371
73.02977 146966
73.04602 146947
73.06226 146840
74.04655 11637
74.05476 11588
74.06699 11150
86.05928 147808
87.04675 6896
87.06276 6201
147.06593 10512
149.03763 7640
149.04965 7804
207.03172 51843
208.03502 9030
248.98729 13689
250.9563 36505
250.97191 36572
251.97983 7090
254.24739 605969
255.25023 103902
256.25446 8733
265.02411 17499
266.99857 127349
268.99509 20928
273.22025 62635
273.72226 21838
276.22934 84824
277.23166 12767
281.05002 58333
282.05127 15496
283.04837 8205
Name: "3-[2,2-dimethyl-3-(3-prop-2-enoyloxypropoxy)propoxy]propyl prop-2-enoate"
PrecursorMZ: 329.1971
PrecursorType: [M+H]+
IonMode: Positive
Formula: C17H28O6
SMILES: CC(C)(COCCCOC(=O)C=C)COCCCOC(=O)C=C
InChI: 
InChIKey: NQGDHQASSFDDLD-UHFFFAOYSA-N
RetentionTime: 6.99699
CCS: 
CollisionEnergy: 20-40 eV
InstrumentType: UPLC-QTOF-MS
Comment: PI: Cristina Nerin; Data collector: QiZhi Su, GUIA, University of Zaragoza, Spain; Collision energy: 20-40 V; Instrument: Waters HPLC-QTOF-MS (Xevo G2 QTof); Ionization: ESI; Deconvoluted by MS-DIAL; Column: Waters AtlantisTM premier BEH C18 AX column (2.1 × 100mm x 1.7μm); Flow rate: 0.3mL/min; Mobile phase A and B are water and methnaol, respectively, both with 0.1% formic acid; Gradient elution: from A/B (95/5) to A/B (100/0) in 7min, kept for 4 min, then back to A/B (95/5) in 0.1 min, and maintained for additional 1.9 min (13min in total).; Injection volume: 10 μL
Num peaks: 184
55.01697 696
55.02142 693
57.01796 84
57.02882 84
57.03432 83
57.06576 101
57.07074 98
57.07603 99
59.04683 138
59.05492 146
59.06541 149
66.98057 179
66.98946 176
67.05218 121
67.05961 113
69.06937 3621
70.06191 163
70.07004 159
70.07362 158
70.95704 67
71.08248 70
71.08778 69
73.02667 507
73.0316 481
73.04635 558
73.05361 482
73.06039 491
73.06628 108
75.02673 89
75.04458 121
85.06425 246
87.03989 102
87.04906 100
98.98086 301
98.98996 306
103.06408 70
110.97501 6357
111.98003 274
112.96842 91
112.97445 120
112.97945 127
112.98837 116
113.05523 1515
113.05997 1521
114.03889 69
114.94631 172
114.95438 238
114.96628 246
114.98042 134
125.02775 176
125.03592 159
127.11489 154
130.98282 127
140.99411 67
141.09035 2548
142.08655 143
142.09639 161
142.10858 153
143.0341 145
143.04367 154
148.06229 879
148.0825 794
148.56725 155
151.099 66
155.03064 93
155.03925 109
157.04491 69
157.05772 296
157.06654 276
157.07483 268
157.08846 138
162.95963 72
162.97333 82
164.98122 101
164.99409 86
169.01343 307
169.03636 193
177.02872 71
177.5255 69
182.98979 179
183.05855 174
183.07111 237
183.07921 237
183.09407 77
184.07547 400
184.56686 73
184.58537 82
188.97285 92
188.99867 139
189.00729 83
189.02133 70
190.99875 944
191.00894 956
192.00307 250
192.01479 264
193.00554 92
196.04292 73
197.06424 68
199.03288 72
199.0674 134
201.07846 153
201.0954 130
204.99611 109
207.03114 1474
207.0415 1476
208.02469 201
208.03693 202
208.04837 232
209.01396 184
209.02975 259
209.04726 260
221.1218 91
223.09711 66
225.03865 275
225.04893 257
225.05605 261
227.04402 662
227.06221 778
227.0786 448
228.0498 98
228.06461 109
237.08125 558
240.23254 131
241.03564 77
241.06181 81
241.11247 287
241.1227 296
243.16728 177
243.18541 179
248.92847 87
248.98776 592
248.99815 642
249.97876 161
249.99556 210
250.98756 98
253.09238 109
255.09039 541
256.086 77
256.10382 88
257.0903 213
257.10764 265
257.125 234
259.09482 102
259.11008 241
259.12851 303
265.02029 509
265.04376 154
266.02307 143
266.99356 150
267.01337 175
267.03052 83
267.04672 90
269.10065 68
279.15637 2500
280.15088 381
280.16876 392
280.17712 330
281.0368 380
281.05405 909
281.08136 107
282.0296 69
282.05969 148
282.6517 83
283.04517 75
283.06265 152
283.08701 133
283.10217 104
295.12283 912
296.12299 92
296.13489 97
297.06894 97
297.17191 99
299.09546 89
309.09808 482
310.09409 66
310.11621 121
311.11798 65
313.12766 1928
313.14322 1997
314.12265 226
314.13867 285
314.14908 229
315.14532 72
329.11325 104
Name: "3-[2,2-dimethyl-3-(3-prop-2-enoyloxypropoxy)propoxy]propyl prop-2-enoate"
PrecursorMZ: 346.2241
PrecursorType: [M+NH4]+
IonMode: Positive
Formula: C17H28O6
SMILES: CC(C)(COCCCOC(=O)C=C)COCCCOC(=O)C=C
InChI: 
InChIKey: NQGDHQASSFDDLD-UHFFFAOYSA-N
RetentionTime: 6.99623
CCS: 
CollisionEnergy: 20-40 eV
InstrumentType: UPLC-QTOF-MS
Comment: PI: Cristina Nerin; Data collector: QiZhi Su, GUIA, University of Zaragoza, Spain; Collision energy: 20-40 V; Instrument: Waters HPLC-QTOF-MS (Xevo G2 QTof); Ionization: ESI; Deconvoluted by MS-DIAL; Column: Waters AtlantisTM premier BEH C18 AX column (2.1 × 100mm x 1.7μm); Flow rate: 0.3mL/min; Mobile phase A and B are water and methnaol, respectively, both with 0.1% formic acid; Gradient elution: from A/B (95/5) to A/B (100/0) in 7min, kept for 4 min, then back to A/B (95/5) in 0.1 min, and maintained for additional 1.9 min (13min in total).; Injection volume: 10 μL
Num peaks: 225
55.01238 361
55.02046 355
57.03533 45
57.04085 39
57.06533 53
57.07285 53
59.04715 117
59.05253 133
66.97948 196
66.98764 194
69.06924 1611
69.07433 1613
70.06084 107
70.07127 107
70.07885 107
70.9593 76
73.02563 176
73.03082 175
73.0465 43
74.04528 46
74.05375 42
75.00438 87
75.02379 88
75.03812 79
75.04558 117
85.06042 146
85.06795 150
87.04429 47
98.01389 45
98.96897 442
98.97413 424
98.98377 448
98.99323 459
107.01189 47
107.02038 42
108.98796 41
109.00404 41
110.97511 3809
111.97716 103
111.98628 105
112.9772 71
112.99136 56
113.02819 49
113.04575 1751
113.0606 1712
114.0628 165
114.96246 121
114.97124 130
114.98227 100
115.07537 45
116.0514 91
116.05776 95
117.09647 62
120.9813 61
120.99466 48
121.0261 58
121.03497 44
121.04564 96
121.05999 72
121.06781 55
123.01218 63
125.02459 61
125.03136 97
127.00706 39
127.05332 49
127.06807 53
127.11001 66
127.12005 66
133.08382 82
141.06021 40
141.07074 122
141.09157 1070
142.09592 84
142.10107 58
148.04916 595
148.06075 608
148.06609 591
148.08353 320
148.56628 110
149.02573 71
154.98689 39
154.99963 55
155.02751 57
155.0424 86
156.98549 54
157.0488 112
157.06386 210
157.08659 106
157.10057 58
162.97528 116
165.04617 86
165.05576 68
167.02425 80
168.02144 42
168.99634 157
169.01353 263
169.03391 95
175.11967 43
176.03879 53
177.51935 41
177.52876 53
179.15321 40
181.00322 45
181.0479 77
182.9967 149
183.00754 163
183.07034 194
183.07764 226
183.0854 192
183.09738 76
183.16533 45
184.06796 274
184.07985 243
185.006 73
185.01857 65
187.04604 56
187.07249 43
191.00261 70
191.02568 112
192.00554 41
192.98444 48
193.07727 84
193.09456 43
196.00333 43
197.04669 55
197.05382 66
199.06461 133
200.06747 39
201.05627 41
201.06905 182
201.07649 160
201.08653 156
201.12831 64
203.10808 46
205.02301 94
205.1563 55
207.01106 48
207.03249 250
208.05788 136
208.95535 58
208.97011 54
209.06665 42
210.94974 41
211.04408 61
213.03915 53
213.0546 69
213.0683 46
213.13063 56
213.14201 66
217.09859 60
217.11649 72
217.13669 107
221.1478 48
225.04126 53
227.05742 410
227.07069 385
227.10022 48
237.07521 144
237.08562 131
238.09276 68
240.22531 140
240.23817 112
241.10841 256
241.12401 263
243.07281 39
243.13338 57
243.17439 101
247.1127 67
247.12587 56
249.97586 68
251.98218 53
251.99855 55
253.08044 67
255.08926 497
255.10776 391
256.0918 74
256.09988 73
257.09763 182
257.11075 204
257.12985 96
259.11981 127
265.00989 492
265.0267 468
265.99622 47
266.01804 41
269.0882 75
275.09952 52
279.15875 1668
280.14749 212
280.16098 319
280.17371 264
281.05051 509
282.04984 197
282.0676 135
282.10336 45
283.03879 208
283.05762 159
293.1066 62
293.12216 46
293.1506 48
295.10446 375
295.12329 518
295.14423 90
297.05716 57
297.15866 77
299.07202 50
299.13339 51
300.06369 55
300.07999 60
300.09637 49
309.10739 190
309.11899 129
310.11334 49
313.10547 42
313.12073 1042
313.13516 1246
313.16089 218
313.17511 40
314.11993 91
314.14313 194
314.16141 103
315.13293 40
325.15671 39
341.13367 266
342.12686 81
Name: "3-[2,2-dimethyl-3-(3-prop-2-enoyloxypropoxy)propoxy]propyl prop-2-enoate"
PrecursorMZ: 346.2271
PrecursorType: [M+NH4]+
IonMode: Positive
Formula: C17H28O6
SMILES: CC(C)(COCCCOC(=O)C=C)COCCCOC(=O)C=C
InChI: 
InChIKey: NQGDHQASSFDDLD-UHFFFAOYSA-N
RetentionTime: 7.133533
CCS: 
CollisionEnergy: 20-40 eV
InstrumentType: UPLC-QTOF-MS
Comment: PI: Cristina Nerin; Data collector: QiZhi Su, GUIA, University of Zaragoza, Spain; Collision energy: 20-40 V; Instrument: Waters HPLC-QTOF-MS (Xevo G2 QTof); Ionization: ESI; Deconvoluted by MS-DIAL; Column: Waters AtlantisTM premier BEH C18 AX column (2.1 × 100mm x 1.7μm); Flow rate: 0.3mL/min; Mobile phase A and B are water and methnaol, respectively, both with 0.1% formic acid; Gradient elution: from A/B (95/5) to A/B (100/0) in 7min, kept for 4 min, then back to A/B (95/5) in 0.1 min, and maintained for additional 1.9 min (13min in total).; Injection volume: 10 μL
Num peaks: 290
55.0158 394
55.0238 394
55.05396 125
55.05933 126
59.04258 50
59.05169 52
65.03561 50
67.05219 85
67.06088 87
68.0516 67
71.04329 124
71.04961 124
71.06097 107
73.02672 190
81.06774 229
81.07526 222
83.03455 117
83.04701 91
83.05527 81
83.0775 191
83.08523 177
85.06437 98
88.95615 31
89.07485 39
91.04411 127
91.05521 125
92.06252 32
93.07126 187
95.08547 256
95.09789 266
96.99618 236
97.01463 271
97.02747 32
97.06485 160
97.07609 159
103.00652 30
103.02055 38
105.063 78
105.06947 72
106.96111 35
107.08593 124
109.06451 64
109.07539 53
109.10314 131
110.95361 333
110.97519 2825
111.00943 51
111.02161 40
111.03204 166
111.04203 167
111.05224 184
111.06686 137
111.07729 121
111.08643 99
112.03316 53
112.05226 98
113.04128 1206
113.05923 1156
113.11227 42
114.05446 71
114.064 92
114.98489 48
115.06811 61
115.07392 83
115.08199 34
121.05644 162
121.06334 186
121.56075 36
121.56943 37
124.98313 77
124.99395 65
125.05568 66
125.06133 76
125.06795 69
127.03457 109
127.04591 103
127.11334 91
128.06822 34
130.07257 47
131.06984 102
131.08755 122
133.04567 54
133.08511 88
133.09921 29
134.0605 40
135.04715 44
135.05342 62
135.08414 34
135.11478 60
136.03336 29
136.08328 34
139.05048 66
140.96997 46
141.08301 212
141.09552 200
142.05107 30
143.0023 56
143.02925 41
145.10071 42
146.00505 32
147.05484 43
147.06314 76
147.07268 51
148.03648 70
148.05571 703
148.06624 707
148.08568 271
148.55583 83
148.56628 88
148.57437 84
149.10272 49
149.11217 84
149.12019 32
151.05104 47
151.06923 37
151.10597 36
152.97456 47
152.98781 49
153.11725 32
153.12817 44
157.05353 105
157.06882 136
157.08607 110
159.06206 44
160.06056 38
161.06288 32
161.07776 90
161.09521 74
161.12173 54
163.15628 29
164.06519 41
164.08331 36
165.04362 53
165.05478 70
165.06386 42
165.08748 63
169.05585 29
170.10034 49
170.12442 31
170.98203 34
170.98973 48
173.03969 42
173.12686 45
174.05194 35
175.00894 49
175.14578 31
176.01758 44
176.09654 35
177.08324 91
177.11998 57
177.13029 30
177.58067 31
180.07336 47
181.019 37
181.06056 135
182.98663 61
183.05557 240
183.06845 292
183.0864 228
184.06522 404
184.07455 414
184.08885 364
184.1003 55
184.58537 31
185.01701 49
185.03067 34
189.15295 32
189.17462 29
191.05173 40
191.06996 72
191.07838 67
191.08679 60
191.10654 73
193.03738 42
193.061 51
193.16487 29
195.03456 74
195.04712 68
195.05551 83
195.17957 69
195.99358 43
199.02629 52
199.0416 60
199.05934 129
199.06978 89
201.03542 60
201.04602 57
201.05602 95
201.07713 262
201.0934 241
204.0583 32
205.0267 167
207.12601 49
207.14915 37
212.08807 31
213.02946 39
213.09122 165
213.1179 80
214.05452 39
218.06131 33
219.09967 92
219.11075 76
219.12556 72
219.13452 56
221.06712 58
221.09276 36
225.13348 34
227.04486 87
227.06366 82
229.10733 46
229.11838 60
231.12341 42
234.99022 31
237.10475 56
238.10788 29
239.09369 97
239.11298 130
240.12033 34
241.10152 135
241.11539 136
243.03732 41
249.105 62
249.12802 39
250.94957 34
251.09172 40
253.06621 272
253.08266 260
254.0722 43
254.0873 58
255.07356 285
255.0946 413
256.08911 38
256.10583 36
256.12335 29
258.11093 50
259.05066 56
259.06229 77
259.07086 91
259.08704 59
259.10208 83
260.13681 29
261.10135 66
261.11487 60
263.12616 35
269.11069 75
271.08401 33
274.05103 30
275.05609 40
275.15573 41
279.15778 654
280.12766 61
280.1488 39
280.98047 29
281.13748 196
281.16623 33
282.1376 40
283.11874 123
286.09851 31
286.10614 32
289.17111 29
293.12814 31
293.14603 56
293.23679 32
295.12524 426
296.12457 44
296.18796 30
305.2179 69
311.08926 63
311.09961 71
311.28558 57
313.13309 286
313.15091 266
313.19211 30
314.10751 38
314.12723 65
314.13516 81
314.15363 61
321.13382 117
325.10114 43
329.0885 37
337.14865 44
337.16968 165
337.21945 98
337.23386 43
338.20612 60
339.17014 39
341.00031 34
341.12921 174
341.15308 55
342.14301 32
Name: "3-[2,2-dimethyl-3-(3-prop-2-enoyloxypropoxy)propoxy]propyl prop-2-enoate"
PrecursorMZ: 351.178
PrecursorType: [M+Na]+
IonMode: Positive
Formula: C17H28O6
SMILES: CC(C)(COCCCOC(=O)C=C)COCCCOC(=O)C=C
InChI: 
InChIKey: NQGDHQASSFDDLD-UHFFFAOYSA-N
RetentionTime: 7.133542
CCS: 
CollisionEnergy: 20-40 eV
InstrumentType: UPLC-QTOF-MS
Comment: PI: Cristina Nerin; Data collector: QiZhi Su, GUIA, University of Zaragoza, Spain; Collision energy: 20-40 V; Instrument: Waters HPLC-QTOF-MS (Xevo G2 QTof); Ionization: ESI; Deconvoluted by MS-DIAL; Column: Waters AtlantisTM premier BEH C18 AX column (2.1 × 100mm x 1.7μm); Flow rate: 0.3mL/min; Mobile phase A and B are water and methnaol, respectively, both with 0.1% formic acid; Gradient elution: from A/B (95/5) to A/B (100/0) in 7min, kept for 4 min, then back to A/B (95/5) in 0.1 min, and maintained for additional 1.9 min (13min in total).; Injection volume: 10 μL
Num peaks: 77
55.0158 158
55.0238 156
73.02672 407
81.06774 200
81.07526 192
83.0775 139
83.08523 121
95.08547 109
95.09789 117
96.99618 310
97.01463 309
97.06485 152
97.07609 125
109.10314 123
110.95361 313
110.97519 2343
111.03204 131
111.04203 125
111.05224 145
112.05226 116
113.04128 2255
113.05923 2143
114.05446 118
114.064 124
121.05644 222
121.06334 225
141.08301 212
141.09552 200
143.02925 105
148.05571 1102
148.06624 1092
148.08568 318
148.55583 150
148.56628 157
148.57437 154
157.05353 202
157.06882 249
157.08607 208
183.05557 329
183.06845 428
183.0864 364
184.06522 575
184.07455 599
184.08885 537
195.03456 112
199.05934 177
199.06978 147
201.05602 134
201.07713 327
201.0934 284
213.09122 165
239.09369 110
239.11298 154
241.10152 254
241.11539 247
253.06621 316
253.08266 316
255.07356 488
255.0946 676
257.11011 128
269.11069 125
279.15778 1825
280.1488 192
280.17273 178
280.18362 122
281.13748 188
283.11874 102
295.12524 848
313.13309 1057
313.15091 976
314.12723 165
314.13516 184
314.15363 124
321.13382 113
337.16968 167
341.12921 329
351.17838 10104
Name: Triethylenglycol dibenzoate
PrecursorMZ: 359.1497
PrecursorType: [M+H]+
IonMode: Positive
Formula: C20H22O6
SMILES: C1=CC=C(C=C1)C(=O)OCCOCCOCCOC(=O)C2=CC=CC=C2
InChI: 
InChIKey: AHSGHEXYEABOKT-UHFFFAOYSA-N
RetentionTime: 6.74878
CCS: 
CollisionEnergy: 20-40 eV
InstrumentType: UPLC-QTOF-MS
Comment: PI: Cristina Nerin; Data collector: QiZhi Su, GUIA, University of Zaragoza, Spain; Collision energy: 20-40 V; Instrument: Waters HPLC-QTOF-MS (Xevo G2 QTof); Ionization: ESI; Deconvoluted by MS-DIAL; Column: Waters AtlantisTM premier BEH C18 AX column (2.1 × 100mm x 1.7μm); Flow rate: 0.3mL/min; Mobile phase A and B are water and methnaol, respectively, both with 0.1% formic acid; Gradient elution: from A/B (95/5) to A/B (100/0) in 7min, kept for 4 min, then back to A/B (95/5) in 0.1 min, and maintained for additional 1.9 min (13min in total).; Injection volume: 10 μL
Num peaks: 33
77.03829 6230
78.03557 392
78.04179 393
95.05059 536
100.98383 519
100.99103 534
101.00283 553
105.03302 21316
106.03378 1501
106.04073 1511
117.00184 1475
117.01777 1462
121.022 502
121.03082 518
121.04735 447
145.01515 1742
145.02272 1781
149.05954 18335
150.06216 1429
150.07018 1422
150.07835 1401
160.99054 9723
161.99246 664
161.99875 663
162.00818 657
199.04289 246
199.05658 259
249.04387 2197
250.0434 259
293.07117 2815
293.0993 276
294.06152 260
294.07925 303
Name: "3-[2,2-dimethyl-3-(3-prop-2-enoyloxypropoxy)propoxy]propyl prop-2-enoate"
PrecursorMZ: 367.1522
PrecursorType: [M+K]+
IonMode: Positive
Formula: C17H28O6
SMILES: CC(C)(COCCCOC(=O)C=C)COCCCOC(=O)C=C
InChI: 
InChIKey: NQGDHQASSFDDLD-UHFFFAOYSA-N
RetentionTime: 7.132258
CCS: 
CollisionEnergy: 20-40 eV
InstrumentType: UPLC-QTOF-MS
Comment: PI: Cristina Nerin; Data collector: QiZhi Su, GUIA, University of Zaragoza, Spain; Collision energy: 20-40 V; Instrument: Waters HPLC-QTOF-MS (Xevo G2 QTof); Ionization: ESI; Deconvoluted by MS-DIAL; Column: Waters AtlantisTM premier BEH C18 AX column (2.1 × 100mm x 1.7μm); Flow rate: 0.3mL/min; Mobile phase A and B are water and methnaol, respectively, both with 0.1% formic acid; Gradient elution: from A/B (95/5) to A/B (100/0) in 7min, kept for 4 min, then back to A/B (95/5) in 0.1 min, and maintained for additional 1.9 min (13min in total).; Injection volume: 10 μL
Num peaks: 224
55.01353 741
55.01826 745
55.05344 86
57.03695 76
66.98427 231
66.9902 231
70.08208 100
71.04513 110
71.04866 103
73.025 80
73.06654 430
79.04897 92
79.05314 92
79.05805 93
83.04603 124
83.05215 125
83.08206 145
83.08602 145
83.09481 150
85.03868 47
85.06505 239
87.09642 48
89.05813 53
89.06915 53
93.06376 192
93.06785 195
95.06524 105
95.08234 162
95.08947 156
96.08786 69
96.99584 136
97.06418 108
97.0959 49
97.10027 57
105.05991 116
105.06927 105
105.07837 98
107.07859 47
107.08723 126
109.027 54
109.03654 80
110.97514 4587
111.00388 84
111.01241 137
111.04706 259
111.05444 266
111.97297 132
111.97782 139
112.03499 161
112.05116 209
113.05937 1802
114.04066 77
114.049 94
114.06462 91
114.08235 72
121.04633 251
121.05765 330
121.06655 350
121.0779 194
121.09846 70
121.10541 141
125.02217 89
125.03564 90
127.04858 72
127.05522 71
127.07146 91
130.06812 160
130.07712 176
131.04912 87
131.05556 70
131.06343 103
131.08403 94
133.0462 50
133.08583 124
133.10243 130
134.07541 48
135.10762 58
135.1169 52
136.07469 50
136.08664 49
140.06898 50
140.97958 50
141.01578 56
141.08542 158
141.09293 157
141.10411 241
148.06529 685
148.07408 704
148.55176 49
148.56357 76
148.57195 73
149.09015 47
149.09573 61
153.00262 63
153.02936 91
153.12366 47
153.13365 52
155.0322 95
157.05664 275
157.0666 262
157.07436 235
161.03432 60
161.08136 78
163.11093 77
164.98051 48
169.01968 206
175.13776 64
175.14583 56
183.05678 617
183.06783 565
183.07431 565
183.09166 66
183.10681 58
184.07545 508
184.08537 517
184.57635 99
184.58521 112
187.02664 52
191.02567 112
191.15707 55
193.03496 61
195.06288 60
199.06821 228
201.08009 357
201.0968 240
202.0773 58
207.1382 68
211.0208 67
211.03302 52
211.1013 115
211.10883 71
213.08414 198
219.03313 74
219.04576 63
227.13515 47
235.16463 114
235.17784 142
237.13844 48
241.07552 56
241.10687 404
241.12268 402
250.07925 51
253.05797 312
253.07347 563
253.08763 495
255.07533 427
255.09227 678
256.10376 63
257.07983 146
257.10489 173
257.11884 118
259.05954 58
259.07208 50
259.12628 138
259.14532 100
261.10184 61
263.07236 51
265.11719 82
269.08426 146
269.10941 95
271.08759 50
273.10016 124
279.15701 1090
280.134 149
280.14847 179
280.16061 143
281.10721 47
281.12616 108
281.14145 128
281.1593 63
283.12704 155
291.16501 46
293.15057 67
295.12219 1316
295.1882 90
295.20224 94
295.21783 57
296.10522 90
296.12192 151
296.13257 127
297.10965 58
297.13391 87
297.15036 57
297.1647 55
304.28934 47
304.30167 51
309.09836 80
309.11737 88
311.16016 48
313.12418 496
313.13879 484
314.12302 96
314.13843 121
321.11514 79
321.13431 124
321.14874 87
323.15091 49
323.16718 68
325.09109 138
325.10883 150
329.07874 46
329.10312 83
337.16238 79
337.17676 260
337.20297 58
341.00861 46
341.12421 262
342.14166 72
351.17703 3921
352.17786 585
352.21313 75
353.15948 58
353.17603 49
353.207 147
353.2356 146
353.25342 86
354.16745 62
355.19617 94
355.21179 117
355.23291 55
367.13129 803
367.14465 1953
367.1973 128
367.22537 53
Name: "3-[2,2-dimethyl-3-(3-prop-2-enoyloxypropoxy)propoxy]propyl prop-2-enoate"
PrecursorMZ: 367.1526
PrecursorType: [M+K]+
IonMode: Positive
Formula: C17H28O6
SMILES: CC(C)(COCCCOC(=O)C=C)COCCCOC(=O)C=C
InChI: 
InChIKey: NQGDHQASSFDDLD-UHFFFAOYSA-N
RetentionTime: 6.99623
CCS: 
CollisionEnergy: 20-40 eV
InstrumentType: UPLC-QTOF-MS
Comment: PI: Cristina Nerin; Data collector: QiZhi Su, GUIA, University of Zaragoza, Spain; Collision energy: 20-40 V; Instrument: Waters HPLC-QTOF-MS (Xevo G2 QTof); Ionization: ESI; Deconvoluted by MS-DIAL; Column: Waters AtlantisTM premier BEH C18 AX column (2.1 × 100mm x 1.7μm); Flow rate: 0.3mL/min; Mobile phase A and B are water and methnaol, respectively, both with 0.1% formic acid; Gradient elution: from A/B (95/5) to A/B (100/0) in 7min, kept for 4 min, then back to A/B (95/5) in 0.1 min, and maintained for additional 1.9 min (13min in total).; Injection volume: 10 μL
Num peaks: 75
55.01416 710
55.02008 708
69.06966 3287
73.03093 527
73.04433 595
73.05196 547
73.05686 552
85.05576 218
85.06494 231
98.96896 295
98.98396 325
110.97531 6465
111.97589 267
111.98244 268
113.059 2323
114.94865 216
114.96081 214
114.96841 237
141.07523 2187
141.09061 2210
148.06389 954
157.05739 315
157.07098 280
169.0157 316
169.02667 302
183.06685 268
183.07861 297
184.07516 419
184.0858 346
191.00131 835
192.00443 263
201.07773 199
201.08817 197
207.03253 1445
209.03339 203
209.04938 206
225.03453 273
225.04507 285
227.05069 716
227.06396 761
227.08235 282
237.0804 513
241.10458 307
241.11755 323
248.97845 628
248.98828 679
249.00201 564
249.98425 217
249.9955 239
255.09404 604
257.10764 273
257.12192 222
259.12802 274
264.99518 199
265.02765 660
265.03995 219
279.15805 2511
280.1572 418
280.16815 406
281.05182 1048
295.12387 935
309.10049 489
309.11646 382
313.13095 2095
314.12158 258
314.13916 301
314.1528 217
341.12433 434
341.14197 350
351.17682 19597
352.17819 3014
352.19196 3076
353.04306 275
354.04657 204
367.14429 2064
Name: Tetracycline
PrecursorMZ: 445.1613
PrecursorType: [M+H]+
IonMode: Positive
Formula: C22H24N2O8
SMILES: CC1(C2CC3C(C(=O)C(=C(C3(C(=O)C2=C(C4=C1C=CC=C4O)O)O)O)C(=O)N)N(C)C)O
InChI: 
InChIKey: NWXMGUDVXFXRIG-WESIUVDSSA-N
RetentionTime: 2.63555
CCS: 
CollisionEnergy: 20-40 eV
InstrumentType: UPLC-QTOF-MS
Comment: PI: Cristina Nerin; Data collector: QiZhi Su, GUIA, University of Zaragoza, Spain; Collision energy: 20-40 V; Instrument: Waters HPLC-QTOF-MS (Xevo G2 QTof); Ionization: ESI; Deconvoluted by MS-DIAL; Column: Waters AtlantisTM premier BEH C18 AX column (2.1 × 100mm x 1.7μm); Flow rate: 0.3mL/min; Mobile phase A and B are water and methnaol, respectively, both with 0.1% formic acid; Gradient elution: from A/B (95/5) to A/B (100/0) in 7min, kept for 4 min, then back to A/B (95/5) in 0.1 min, and maintained for additional 1.9 min (13min in total).; Injection volume: 10 μL
Num peaks: 148
83.04749 63
84.04237 474
84.05161 471
87.0623 64
98.06077 1891
98.99745 62
113.01497 101
113.02206 87
113.03403 65
123.00112 61
126.03781 1110
126.05658 846
127.05959 343
127.06592 361
136.9787 106
136.99336 99
137.02057 69
139.01875 125
151.22267 59
152.02704 142
152.03653 240
154.08043 66
160.01991 207
165.01588 79
165.02722 76
170.07605 72
170.08508 73
171.07892 276
187.07393 202
187.08742 236
194.03355 310
194.048 297
196.94624 163
196.95293 65
201.00801 103
201.01913 101
201.0255 106
201.05722 93
223.07356 70
223.08348 164
224.08749 150
225.04556 118
225.06198 95
225.08691 74
225.09944 84
235.06149 66
235.07664 102
236.04224 78
236.05359 73
236.06743 75
237.05469 105
237.09402 68
239.05779 117
239.07458 72
240.0966 113
240.95882 65
240.97163 61
241.08844 499
242.0849 427
242.09729 211
243.06848 164
243.09386 82
244.06609 230
244.08693 136
247.08046 189
251.06914 586
251.08051 532
252.07603 388
252.09509 206
253.08513 141
254.09903 72
255.06523 226
257.07919 1135
257.0921 1371
258.08578 333
258.10645 243
266.09116 55
267.06766 967
268.06812 177
268.07983 428
269.08328 3048
270.07639 512
270.09079 777
273.0618 50
275.07614 54
277.04874 53
278.05844 146
279.06686 168
279.07413 268
281.07111 152
281.08572 165
281.104 235
281.11603 108
292.05969 457
292.07352 231
293.08481 483
295.09509 58
296.12955 339
296.14667 523
297.04657 177
297.06589 789
297.07867 1154
297.13467 185
298.06851 238
298.07874 226
298.09607 209
307.04376 120
307.06281 104
309.06339 339
309.08154 371
314.13623 255
314.15411 242
319.02692 72
320.04099 120
320.07672 79
321.07648 197
322.07385 463
322.08911 728
336.12491 54
338.0769 88
339.06799 521
347.03067 206
347.05157 478
348.07416 63
348.12347 59
349.07281 968
350.02963 63
350.06601 141
350.08023 133
364.11984 252
364.13913 320
365.06735 177
365.11902 125
366.07062 307
366.0853 605
374.09863 70
374.11829 82
382.1311 160
392.11343 757
392.14093 179
394.12244 101
410.12415 177
411.12833 91
413.129 70
428.13419 217
429.17487 57
438.03992 57
445.16257 4730
Name: 2-Isopropyl-9H-thioxanthen-9-one
PrecursorMZ: 255.0857
PrecursorType: [M+H]+
IonMode: Positive
Formula: C16H14OS
SMILES: CC(C)C1=CC2=C(C=C1)SC3=CC=CC=C3C2=O
InChI: 
InChIKey: KTALPKYXQZGAEG-UHFFFAOYSA-N
RetentionTime: 7.8752
CCS: 
CollisionEnergy: 20-40 eV
InstrumentType: UPLC-QTOF-MS
Comment: PI: Cristina Nerin; Data collector: QiZhi Su, GUIA, University of Zaragoza, Spain; Collision energy: 20-40 V; Instrument: Waters HPLC-QTOF-MS (Xevo G2 QTof); Ionization: ESI; Deconvoluted by MS-DIAL; Column: Waters AtlantisTM premier BEH C18 AX column (2.1 × 100mm x 1.7μm); Flow rate: 0.3mL/min; Mobile phase A and B are water and methnaol, respectively, both with 0.1% formic acid; Gradient elution: from A/B (95/5) to A/B (100/0) in 7min, kept for 4 min, then back to A/B (95/5) in 0.1 min, and maintained for additional 1.9 min (13min in total).; Injection volume: 10 μL
Num peaks: 7
184.0351 64992
185.04051 13869
213.03793 342132
214.04102 47949
215.03519 18205
239.05428 5880
255.08513 36666
Name: 2-Isopropyl-9H-thioxanthen-9-one
PrecursorMZ: 531.1433
PrecursorType: [2M+Na]+
IonMode: Positive
Formula: C16H14OS
SMILES: CC(C)C1=CC2=C(C=C1)SC3=CC=CC=C3C2=O
InChI: 
InChIKey: KTALPKYXQZGAEG-UHFFFAOYSA-N
RetentionTime: 7.879017
CCS: 
CollisionEnergy: 20-40 eV
InstrumentType: UPLC-QTOF-MS
Comment: PI: Cristina Nerin; Data collector: QiZhi Su, GUIA, University of Zaragoza, Spain; Collision energy: 20-40 V; Instrument: Waters HPLC-QTOF-MS (Xevo G2 QTof); Ionization: ESI; Deconvoluted by MS-DIAL; Column: Waters AtlantisTM premier BEH C18 AX column (2.1 × 100mm x 1.7μm); Flow rate: 0.3mL/min; Mobile phase A and B are water and methnaol, respectively, both with 0.1% formic acid; Gradient elution: from A/B (95/5) to A/B (100/0) in 7min, kept for 4 min, then back to A/B (95/5) in 0.1 min, and maintained for additional 1.9 min (13min in total).; Injection volume: 10 μL
Num peaks: 11
119.08611 9707
184.03506 65630
185.04037 13869
213.0381 341986
214.04088 45432
215.03658 17290
239.05479 5202
255.0851 35201
256.08807 6740
441.1593 20101
442.16446 5580
Name: 2-Isopropyl-9H-thioxanthen-9-one
PrecursorMZ: 277.0676
PrecursorType: [M+Na]+
IonMode: Positive
Formula: C16H14OS
SMILES: CC(C)C1=CC2=C(C=C1)SC3=CC=CC=C3C2=O
InChI: 
InChIKey: KTALPKYXQZGAEG-UHFFFAOYSA-N
RetentionTime: 7.882817
CCS: 
CollisionEnergy: 20-40 eV
InstrumentType: UPLC-QTOF-MS
Comment: PI: Cristina Nerin; Data collector: QiZhi Su, GUIA, University of Zaragoza, Spain; Collision energy: 20-40 V; Instrument: Waters HPLC-QTOF-MS (Xevo G2 QTof); Ionization: ESI; Deconvoluted by MS-DIAL; Column: Waters AtlantisTM premier BEH C18 AX column (2.1 × 100mm x 1.7μm); Flow rate: 0.3mL/min; Mobile phase A and B are water and methnaol, respectively, both with 0.1% formic acid; Gradient elution: from A/B (95/5) to A/B (100/0) in 7min, kept for 4 min, then back to A/B (95/5) in 0.1 min, and maintained for additional 1.9 min (13min in total).; Injection volume: 10 μL
Num peaks: 62
73.02631 311
73.03502 1163
73.04642 1021
73.06337 1081
105.07005 353
105.07777 344
115.05568 510
131.09828 191
141.05376 1045
141.0703 351
141.08748 195
161.09523 237
161.1028 292
178.07588 282
178.08643 276
184.03522 3433
185.03987 299
186.03 3123
186.03963 3182
196.02592 285
196.03822 318
197.0401 317
197.04945 373
207.03134 455
207.04855 435
208.02679 190
213.16632 249
213.18314 376
213.19823 260
215.03593 2811
217.0381 223
223.05467 451
223.06223 511
223.07387 499
232.07286 236
239.05305 2547
239.06316 2638
241.05415 572
241.07179 503
241.08105 293
250.96573 231
250.97766 227
254.07521 627
256.08087 1558
256.09024 1270
257.09366 507
261.08939 611
261.09949 619
266.04413 191
266.06909 721
266.56461 504
266.99832 1005
267.02118 506
267.99112 290
268.00876 277
268.98163 179
268.9993 224
274.05978 2776
274.54916 996
274.56525 1008
275.05869 234
277.0665 17699
Name: Trimethoprim
PrecursorMZ: 581.2863
PrecursorType: [2M+H]+
IonMode: Positive
Formula: C14H18N4O3
SMILES: COC1=CC(=CC(=C1OC)OC)CC2=CN=C(N=C2N)N
InChI: 
InChIKey: IEDVJHCEMCRBQM-UHFFFAOYSA-N
RetentionTime: 0.8594834
CCS: 
CollisionEnergy: 20-40 eV
InstrumentType: UPLC-QTOF-MS
Comment: PI: Cristina Nerin; Data collector: QiZhi Su, GUIA, University of Zaragoza, Spain; Collision energy: 20-40 V; Instrument: Waters HPLC-QTOF-MS (Xevo G2 QTof); Ionization: ESI; Deconvoluted by MS-DIAL; Column: Waters AtlantisTM premier BEH C18 AX column (2.1 × 100mm x 1.7μm); Flow rate: 0.3mL/min; Mobile phase A and B are water and methnaol, respectively, both with 0.1% formic acid; Gradient elution: from A/B (95/5) to A/B (100/0) in 7min, kept for 4 min, then back to A/B (95/5) in 0.1 min, and maintained for additional 1.9 min (13min in total).; Injection volume: 10 μL
Num peaks: 74
81.04587 6116
110.04273 25747
110.05977 25699
111.06741 7436
111.0835 7473
120.05994 1095
120.07342 1093
123.04206 1309
123.06754 77441
124.07146 8139
124.07762 8128
137.06085 1105
137.07202 1194
149.06512 1866
149.07373 2087
149.0853 1999
151.04103 2852
161.07545 1537
161.08426 1628
161.0968 1552
162.07927 1146
162.09268 1145
162.10649 1104
174.06415 2434
174.07344 2437
181.08801 3896
187.07875 2923
187.0976 6204
188.09189 1591
188.10318 1215
190.08034 1177
190.09059 1110
191.08716 1931
191.09711 1938
191.10612 1932
199.08688 1406
199.09804 1271
200.09683 1492
200.10852 1387
201.08002 2332
201.11449 12751
202.12093 5643
215.07697 2782
215.09373 2866
216.09985 1709
217.11081 1289
229.10986 21624
230.11778 96285
231.08984 1807
231.12103 13103
232.09647 8454
233.10463 12096
234.10977 1746
244.07948 1208
245.10487 10724
246.11223 5532
247.12143 7670
257.10529 29276
258.11203 12413
259.08472 3444
259.11688 2817
259.1384 1270
260.12674 1144
261.09949 70668
262.10266 9401
275.11526 44042
276.12146 10265
277.12564 1371
277.14252 1141
291.14682 104507
292.14984 16096
293.15417 1586
392.11401 1303
410.12466 3178
Name: Trimethoprim
PrecursorMZ: 581.2863
PrecursorType: [2M+H]+
IonMode: Positive
Formula: C14H18N4O3
SMILES: COC1=CC(=CC(=C1OC)OC)CC2=CN=C(N=C2N)N
InChI: 
InChIKey: IEDVJHCEMCRBQM-UHFFFAOYSA-N
RetentionTime: 0.8594834
CCS: 
CollisionEnergy: 20-40 eV
InstrumentType: UPLC-QTOF-MS
Comment: PI: Cristina Nerin; Data collector: QiZhi Su, GUIA, University of Zaragoza, Spain; Collision energy: 20-40 V; Instrument: Waters HPLC-QTOF-MS (Xevo G2 QTof); Ionization: ESI; Deconvoluted by MS-DIAL; Column: Waters AtlantisTM premier BEH C18 AX column (2.1 × 100mm x 1.7μm); Flow rate: 0.3mL/min; Mobile phase A and B are water and methnaol, respectively, both with 0.1% formic acid; Gradient elution: from A/B (95/5) to A/B (100/0) in 7min, kept for 4 min, then back to A/B (95/5) in 0.1 min, and maintained for additional 1.9 min (13min in total).; Injection volume: 10 μL
Num peaks: 74
81.04587 6116
110.04273 25747
110.05977 25699
111.06741 7436
111.0835 7473
120.05994 1095
120.07342 1093
123.04206 1309
123.06754 77441
124.07146 8139
124.07762 8128
137.06085 1105
137.07202 1194
149.06512 1866
149.07373 2087
149.0853 1999
151.04103 2852
161.07545 1537
161.08426 1628
161.0968 1552
162.07927 1146
162.09268 1145
162.10649 1104
174.06415 2434
174.07344 2437
181.08801 3896
187.07875 2923
187.0976 6204
188.09189 1591
188.10318 1215
190.08034 1177
190.09059 1110
191.08716 1931
191.09711 1938
191.10612 1932
199.08688 1406
199.09804 1271
200.09683 1492
200.10852 1387
201.08002 2332
201.11449 12751
202.12093 5643
215.07697 2782
215.09373 2866
216.09985 1709
217.11081 1289
229.10986 21624
230.11778 96285
231.08984 1807
231.12103 13103
232.09647 8454
233.10463 12096
234.10977 1746
244.07948 1208
245.10487 10724
246.11223 5532
247.12143 7670
257.10529 29276
258.11203 12413
259.08472 3444
259.11688 2817
259.1384 1270
260.12674 1144
261.09949 70668
262.10266 9401
275.11526 44042
276.12146 10265
277.12564 1371
277.14252 1141
291.14682 104507
292.14984 16096
293.15417 1586
392.11401 1303
410.12466 3178
Name: Sulfamethoxazole
PrecursorMZ: 276.0424
PrecursorType: [M+Na]+
IonMode: Positive
Formula: C10H11N3O3S
SMILES: CC1=CC(=NO1)NS(=O)(=O)C2=CC=C(C=C2)N
InChI: 
InChIKey: JLKIGFTWXXRPMT-UHFFFAOYSA-N
RetentionTime: 4.091317
CCS: 
CollisionEnergy: 20-40 eV
InstrumentType: UPLC-QTOF-MS
Comment: PI: Cristina Nerin; Data collector: QiZhi Su, GUIA, University of Zaragoza, Spain; Collision energy: 20-40 V; Instrument: Waters HPLC-QTOF-MS (Xevo G2 QTof); Ionization: ESI; Deconvoluted by MS-DIAL; Column: Waters AtlantisTM premier BEH C18 AX column (2.1 × 100mm x 1.7μm); Flow rate: 0.3mL/min; Mobile phase A and B are water and methnaol, respectively, both with 0.1% formic acid; Gradient elution: from A/B (95/5) to A/B (100/0) in 7min, kept for 4 min, then back to A/B (95/5) in 0.1 min, and maintained for additional 1.9 min (13min in total).; Injection volume: 10 μL
Num peaks: 43
72.06309 104
80.05064 446
80.0691 1079
92.07053 8562
93.07657 1575
94.04894 343
94.06312 219
95.07118 92
99.05659 426
100.05178 171
100.06124 207
106.06374 142
106.06925 115
107.05502 289
107.06268 305
107.08099 502
108.07531 95
109.04954 133
109.0631 102
116.04037 112
116.05328 107
118.04176 121
133.08553 93
134.07501 94
134.08771 91
140.03549 134
146.0524 1779
147.0807 154
148.07033 281
148.08212 306
148.0898 311
149.01022 91
149.0184 112
149.03117 109
157.01422 379
160.08891 213
161.00139 117
161.01131 121
174.05212 87
174.06508 160
176.03111 92
276.02957 445
276.04642 1203
Name: Sulfamethoxazole
PrecursorMZ: 254.0613
PrecursorType: [M+H]+
IonMode: Positive
Formula: C10H11N3O3S
SMILES: CC1=CC(=NO1)NS(=O)(=O)C2=CC=C(C=C2)N
InChI: 
InChIKey: JLKIGFTWXXRPMT-UHFFFAOYSA-N
RetentionTime: 4.098933
CCS: 
CollisionEnergy: 20-40 eV
InstrumentType: UPLC-QTOF-MS
Comment: PI: Cristina Nerin; Data collector: QiZhi Su, GUIA, University of Zaragoza, Spain; Collision energy: 20-40 V; Instrument: Waters HPLC-QTOF-MS (Xevo G2 QTof); Ionization: ESI; Deconvoluted by MS-DIAL; Column: Waters AtlantisTM premier BEH C18 AX column (2.1 × 100mm x 1.7μm); Flow rate: 0.3mL/min; Mobile phase A and B are water and methnaol, respectively, both with 0.1% formic acid; Gradient elution: from A/B (95/5) to A/B (100/0) in 7min, kept for 4 min, then back to A/B (95/5) in 0.1 min, and maintained for additional 1.9 min (13min in total).; Injection volume: 10 μL
Num peaks: 25
65.02776 6174
65.04021 6201
65.05853 6480
80.0497 1474
80.0588 1439
92.0506 63740
92.0675 63753
93.05737 13723
99.0564 8025
107.04498 2248
107.06087 1341
107.07726 2023
108.0452 50233
109.03261 2245
109.04819 2293
146.07117 2455
147.08046 5159
156.01251 23397
157.00842 737
157.01501 819
160.08775 4451
161.09564 656
188.08267 1608
188.08975 1610
254.06163 2931
Name: Tetracycline
PrecursorMZ: 445.1614
PrecursorType: [M+H]+
IonMode: Positive
Formula: C22H24N2O8
SMILES: CC1(C2CC3C(C(=O)C(=C(C3(C(=O)C2=C(C4=C1C=CC=C4O)O)O)O)C(=O)N)N(C)C)O
InChI: 
InChIKey: NWXMGUDVXFXRIG-WESIUVDSSA-N
RetentionTime: 0.8823166
CCS: 
CollisionEnergy: 20-40 eV
InstrumentType: UPLC-QTOF-MS
Comment: PI: Cristina Nerin; Data collector: QiZhi Su, GUIA, University of Zaragoza, Spain; Collision energy: 20-40 V; Instrument: Waters HPLC-QTOF-MS (Xevo G2 QTof); Ionization: ESI; Deconvoluted by MS-DIAL; Column: Waters AtlantisTM premier BEH C18 AX column (2.1 × 100mm x 1.7μm); Flow rate: 0.3mL/min; Mobile phase A and B are water and methnaol, respectively, both with 0.1% formic acid; Gradient elution: from A/B (95/5) to A/B (100/0) in 7min, kept for 4 min, then back to A/B (95/5) in 0.1 min, and maintained for additional 1.9 min (13min in total).; Injection volume: 10 μL
Num peaks: 124
81.04671 918
86.06105 662
86.08021 800
87.01997 276
87.02796 271
91.04803 534
91.05588 517
98.06111 4321
98.06734 4301
98.07754 4367
107.04811 233
118.08499 728
123.0467 340
126.03747 1824
126.05639 2043
126.06751 1940
137.06119 490
137.07448 472
146.06027 370
146.07121 502
149.06392 353
149.08243 236
151.03906 415
154.05127 18053
155.05334 1420
155.06116 1425
158.06039 221
159.07787 219
161.08051 359
161.08723 361
173.0737 317
173.08398 361
174.06096 331
175.06088 310
185.06723 454
185.07687 564
185.08731 540
187.09518 485
187.10541 691
189.06575 249
189.07779 249
190.0741 363
190.08467 297
190.09187 322
191.08221 531
191.09499 529
191.10912 397
203.10616 440
213.06459 494
213.0788 763
213.10974 353
214.10748 213
217.05713 333
231.12206 810
232.08096 447
232.09819 272
232.11737 889
239.06461 295
239.08012 378
241.08707 2154
242.05515 334
242.06714 388
242.0943 393
243.06577 338
244.07491 289
245.10318 566
247.07736 232
247.11977 1026
247.13998 217
251.06259 572
251.0766 580
254.06049 242
254.07187 243
257.078 295
258.0939 795
258.11212 283
259.08157 1537
260.06906 274
260.08844 319
260.12613 328
262.10175 251
262.11136 271
263.08264 315
263.10208 360
267.06647 1895
268.06549 273
269.08292 3210
270.07196 254
270.09174 284
278.05096 269
278.0632 270
279.06107 313
279.07336 349
279.08768 216
291.06009 660
291.07529 674
293.08255 599
296.12491 268
297.06696 458
297.08011 590
319.06235 528
321.07745 2234
322.07242 552
322.08624 430
334.03854 411
334.05408 433
337.07111 3892
338.07007 875
338.08231 736
349.06638 1345
349.0809 1310
350.06961 290
365.0708 1285
366.06555 382
366.07794 337
392.09268 764
392.11179 761
410.12454 21076
411.12799 4838
412.13315 1094
427.14413 1504
427.16922 731
428.13864 1492
445.16254 1222
Name: (-)-Chloramphenicol
PrecursorMZ: 323.0204
PrecursorType: [M+H]+
IonMode: Positive
Formula: C11H12Cl2N2O5
SMILES: C1=CC(=CC=C1C(C(CO)NC(=O)C(Cl)Cl)O)[N+](=O)[O-]
InChI: 
InChIKey: WIIZWVCIJKGZOK-RKDXNWHRSA-N
RetentionTime: 5.03975
CCS: 
CollisionEnergy: 20-40 eV
InstrumentType: UPLC-QTOF-MS
Comment: PI: Cristina Nerin; Data collector: QiZhi Su, GUIA, University of Zaragoza, Spain; Collision energy: 20-40 V; Instrument: Waters HPLC-QTOF-MS (Xevo G2 QTof); Ionization: ESI; Deconvoluted by MS-DIAL; Column: Waters AtlantisTM premier BEH C18 AX column (2.1 × 100mm x 1.7μm); Flow rate: 0.3mL/min; Mobile phase A and B are water and methnaol, respectively, both with 0.1% formic acid; Gradient elution: from A/B (95/5) to A/B (100/0) in 7min, kept for 4 min, then back to A/B (95/5) in 0.1 min, and maintained for additional 1.9 min (13min in total).; Injection volume: 10 μL
Num peaks: 158
74.9294 96
80.97291 374
80.9782 369
82.9463 389
82.95501 384
91.05594 52
98.96127 66
98.98553 2687
98.99119 2653
106.03989 67
106.04714 138
106.06385 112
107.05408 56
117.05609 88
117.06779 84
118.05791 288
118.06653 266
119.0585 1065
119.07353 1134
120.03842 62
120.05358 172
120.06311 221
120.07498 139
120.08289 47
123.96667 90
123.97308 90
125.96954 97
125.97822 102
127.01003 88
127.01937 90
127.9538 61
127.96516 75
127.97756 60
128.0466 62
128.05939 87
128.07443 68
130.05775 140
130.06859 127
130.08298 123
131.05203 178
131.06471 165
131.07253 69
132.05696 402
132.06616 388
133.05446 101
133.0648 97
133.0704 104
134.05588 60
134.06729 59
135.07632 45
136.02373 83
136.03279 124
136.04185 124
136.04877 112
145.05721 177
146.06381 94
148.06479 162
149.04356 147
149.05095 121
150.01921 226
150.02612 236
151.00998 45
151.01883 50
151.02795 63
151.96455 223
151.97256 235
152.01724 61
152.02509 57
153.95955 87
155.99773 97
156.01538 64
161.04437 46
164.026 310
164.03499 340
164.05757 121
164.96341 68
164.97218 66
165.06714 4463
166.0262 66
166.03455 79
166.048 176
166.06934 485
167.0658 55
169.97668 463
170.05595 144
170.06564 140
170.98189 51
171.97571 288
171.98894 305
173.96268 80
173.98 81
175.04353 48
175.05807 58
177.06473 63
178.04538 68
191.92371 228
191.93256 244
192.98215 74
192.99292 101
193.00035 94
193.05524 68
193.90627 53
193.92717 94
196.01932 55
205.05785 75
205.07274 72
206.03828 154
206.06505 48
208.0351 59
209.94115 274
211.03102 68
211.95056 158
213.01842 45
213.93382 57
225.90192 47
227.89471 46
227.90514 63
227.91382 67
227.99586 114
228.01237 120
229.00343 273
229.02618 58
231.00615 177
231.9944 67
236.07407 54
239.99773 73
240.99709 195
241.01646 173
243.00098 149
257.99594 814
258.98694 124
259.00534 112
259.99219 496
260.00458 524
260.98364 61
260.9968 99
261.01471 74
261.98953 83
262.00687 89
269.50458 102
270.00293 46
275.00064 1254
275.99771 140
276.01035 116
276.99582 786
277.00723 811
278.98499 156
278.99438 172
279.50598 48
286.99951 64
305.01187 280
306.99152 151
307.00369 259
307.01947 249
307.03192 131
308.01425 51
323.01392 71
323.03094 117
Name: Sulfamethoxazole
PrecursorMZ: 507.1122
PrecursorType: [2M+H]+
IonMode: Positive
Formula: C10H11N3O3S
SMILES: CC1=CC(=NO1)NS(=O)(=O)C2=CC=C(C=C2)N
InChI: 
InChIKey: JLKIGFTWXXRPMT-UHFFFAOYSA-N
RetentionTime: 4.10655
CCS: 
CollisionEnergy: 20-40 eV
InstrumentType: UPLC-QTOF-MS
Comment: PI: Cristina Nerin; Data collector: QiZhi Su, GUIA, University of Zaragoza, Spain; Collision energy: 20-40 V; Instrument: Waters HPLC-QTOF-MS (Xevo G2 QTof); Ionization: ESI; Deconvoluted by MS-DIAL; Column: Waters AtlantisTM premier BEH C18 AX column (2.1 × 100mm x 1.7μm); Flow rate: 0.3mL/min; Mobile phase A and B are water and methnaol, respectively, both with 0.1% formic acid; Gradient elution: from A/B (95/5) to A/B (100/0) in 7min, kept for 4 min, then back to A/B (95/5) in 0.1 min, and maintained for additional 1.9 min (13min in total).; Injection volume: 10 μL
Num peaks: 27
65.03949 13258
80.05027 6909
92.05032 157947
92.0687 158228
93.05719 33428
93.07708 8004
94.05557 3706
94.06515 3656
94.07389 3518
94.08464 1730
99.05623 21779
107.04403 5339
107.06105 5342
108.04523 126677
108.06423 127039
109.04868 6909
146.07259 5805
147.0799 12575
148.08577 2141
156.0126 63192
157.01569 3924
158.00861 2545
158.02802 2419
160.08798 15953
161.1084 1588
188.08467 3138
254.06129 2095
Name: dipropylene glycol diacrylate
PrecursorMZ: 281.0803
PrecursorType: [M+K]+
IonMode: Positive
Formula: C12H18O5
SMILES: CCC(OC(CC)OC(=O)C=C)OC(=O)C=C
InChI: 
InChIKey: BPUPTQUTGHCAHD-UHFFFAOYSA-N
RetentionTime: 6.278517
CCS: 
CollisionEnergy: 20-40 eV
InstrumentType: UPLC-QTOF-MS
Comment: PI: Cristina Nerin; Data collector: QiZhi Su, GUIA, University of Zaragoza, Spain; Collision energy: 20-40 V; Instrument: Waters HPLC-QTOF-MS (Xevo G2 QTof); Ionization: ESI; Deconvoluted by MS-DIAL; Column: Waters AtlantisTM premier BEH C18 AX column (2.1 × 100mm x 1.7μm); Flow rate: 0.3mL/min; Mobile phase A and B are water and methnaol, respectively, both with 0.1% formic acid; Gradient elution: from A/B (95/5) to A/B (100/0) in 7min, kept for 4 min, then back to A/B (95/5) in 0.1 min, and maintained for additional 1.9 min (13min in total).; Injection volume: 10 μL
Num peaks: 49
55.01892 2084
55.0257 173
66.98763 231
71.05213 275
73.0283 225
77.03851 154
84.9614 110
89.0603 121
95.05241 133
95.09048 293
99.08241 312
106.06361 211
106.06837 147
110.97231 686
110.97758 2521
111.98047 144
113.06099 10803
114.06352 529
115.06174 117
122.07458 167
131.06392 136
133.06656 112
140.99649 270
153.03923 136
159.05707 300
169.01543 131
177.11662 112
183.00929 122
184.99083 144
187.04834 756
187.05794 358
193.08821 167
198.97076 115
215.07867 268
215.08986 133
219.00342 115
223.019 114
223.02733 125
223.04184 114
243.03078 240
243.05542 232
259.0145 116
265.10678 6455
266.1062 780
268.26355 485
268.28104 174
269.27652 281
281.06226 257
281.07767 427
Name: dipropylene glycol diacrylate
PrecursorMZ: 243.1247
PrecursorType: [M+H]+
IonMode: Positive
Formula: C12H18O5
SMILES: CCC(OC(CC)OC(=O)C=C)OC(=O)C=C
InChI: 
InChIKey: BPUPTQUTGHCAHD-UHFFFAOYSA-N
RetentionTime: 6.29375
CCS: 
CollisionEnergy: 20-40 eV
InstrumentType: UPLC-QTOF-MS
Comment: PI: Cristina Nerin; Data collector: QiZhi Su, GUIA, University of Zaragoza, Spain; Collision energy: 20-40 V; Instrument: Waters HPLC-QTOF-MS (Xevo G2 QTof); Ionization: ESI; Deconvoluted by MS-DIAL; Column: Waters AtlantisTM premier BEH C18 AX column (2.1 × 100mm x 1.7μm); Flow rate: 0.3mL/min; Mobile phase A and B are water and methnaol, respectively, both with 0.1% formic acid; Gradient elution: from A/B (95/5) to A/B (100/0) in 7min, kept for 4 min, then back to A/B (95/5) in 0.1 min, and maintained for additional 1.9 min (13min in total).; Injection volume: 10 μL
Num peaks: 36
55.01945 2603
55.02763 156
57.07467 125
71.04862 188
81.0691 133
87.31224 128
95.09165 168
99.0828 288
105.07002 194
106.06556 334
110.97603 3550
112.98687 223
113.0603 12204
113.07825 140
114.06123 540
114.98785 131
131.05797 150
135.09116 204
140.99879 450
154.07265 238
159.05911 300
160.04385 229
182.99446 180
183.00645 196
184.99152 311
185.00281 161
187.04776 533
187.05775 357
188.05496 180
188.1133 129
189.00737 158
193.08273 254
223.02629 130
229.1086 342
232.30719 196
243.04071 131
Name: dipropylene glycol diacrylate
PrecursorMZ: 260.1506
PrecursorType: [M+NH4]+
IonMode: Positive
Formula: C12H18O5
SMILES: CCC(OC(CC)OC(=O)C=C)OC(=O)C=C
InChI: 
InChIKey: BPUPTQUTGHCAHD-UHFFFAOYSA-N
RetentionTime: 6.29375
CCS: 
CollisionEnergy: 20-40 eV
InstrumentType: UPLC-QTOF-MS
Comment: PI: Cristina Nerin; Data collector: QiZhi Su, GUIA, University of Zaragoza, Spain; Collision energy: 20-40 V; Instrument: Waters HPLC-QTOF-MS (Xevo G2 QTof); Ionization: ESI; Deconvoluted by MS-DIAL; Column: Waters AtlantisTM premier BEH C18 AX column (2.1 × 100mm x 1.7μm); Flow rate: 0.3mL/min; Mobile phase A and B are water and methnaol, respectively, both with 0.1% formic acid; Gradient elution: from A/B (95/5) to A/B (100/0) in 7min, kept for 4 min, then back to A/B (95/5) in 0.1 min, and maintained for additional 1.9 min (13min in total).; Injection volume: 10 μL
Num peaks: 36
55.01945 2603
55.02763 156
57.07467 125
71.04862 188
81.0691 133
87.31224 128
95.09165 168
99.0828 288
105.07002 194
106.06556 334
110.97603 3550
112.98687 223
113.0603 12204
113.07825 140
114.06123 540
114.98785 131
131.05797 150
135.09116 204
140.99879 450
154.07265 238
159.05911 300
160.04385 229
182.99446 180
183.00645 196
184.99152 311
185.00281 161
187.04776 533
187.05775 357
188.05496 180
188.1133 129
189.00737 158
193.08273 254
223.02629 130
229.1086 342
232.30719 196
243.04071 131
Name: dipropylene glycol diacrylate
PrecursorMZ: 507.2207
PrecursorType: [2M+Na]+
IonMode: Positive
Formula: C12H18O5
SMILES: CCC(OC(CC)OC(=O)C=C)OC(=O)C=C
InChI: 
InChIKey: BPUPTQUTGHCAHD-UHFFFAOYSA-N
RetentionTime: 6.29375
CCS: 
CollisionEnergy: 20-40 eV
InstrumentType: UPLC-QTOF-MS
Comment: PI: Cristina Nerin; Data collector: QiZhi Su, GUIA, University of Zaragoza, Spain; Collision energy: 20-40 V; Instrument: Waters HPLC-QTOF-MS (Xevo G2 QTof); Ionization: ESI; Deconvoluted by MS-DIAL; Column: Waters AtlantisTM premier BEH C18 AX column (2.1 × 100mm x 1.7μm); Flow rate: 0.3mL/min; Mobile phase A and B are water and methnaol, respectively, both with 0.1% formic acid; Gradient elution: from A/B (95/5) to A/B (100/0) in 7min, kept for 4 min, then back to A/B (95/5) in 0.1 min, and maintained for additional 1.9 min (13min in total).; Injection volume: 10 μL
Num peaks: 56
55.01945 2603
55.02763 156
57.07467 125
71.04862 188
81.0691 133
87.31224 128
95.09165 168
99.0828 288
105.07002 194
106.06556 334
110.97603 3550
112.98687 223
113.0603 12204
113.07825 140
114.06123 540
114.98785 131
131.05797 150
135.09116 204
140.99879 450
154.07265 238
159.05911 300
160.04385 229
182.99446 180
183.00645 196
184.99152 311
185.00281 161
187.04776 533
187.05775 357
188.05496 180
188.1133 129
189.00737 158
193.08273 254
223.02629 130
229.1086 342
232.30719 196
243.04071 131
265.10635 6531
266.09845 167
266.11206 337
281.06519 539
281.08069 422
284.32767 276
284.34103 377
299.07883 173
327.06635 152
327.07718 466
337.12253 242
344.06607 255
353.08673 192
353.10522 268
389.24615 208
395.1557 130
399.20352 750
400.21548 138
410.12003 184
457.00577 178
Name: (-)-Chloramphenicol
PrecursorMZ: 323.021
PrecursorType: [M+H]+
IonMode: Positive
Formula: C11H12Cl2N2O5
SMILES: C1=CC(=CC=C1C(C(CO)NC(=O)C(Cl)Cl)O)[N+](=O)[O-]
InChI: 
InChIKey: WIIZWVCIJKGZOK-RKDXNWHRSA-N
RetentionTime: 4.9598
CCS: 
CollisionEnergy: 20-40 eV
InstrumentType: UPLC-QTOF-MS
Comment: PI: Cristina Nerin; Data collector: QiZhi Su, GUIA, University of Zaragoza, Spain; Collision energy: 20-40 V; Instrument: Waters HPLC-QTOF-MS (Xevo G2 QTof); Ionization: ESI; Deconvoluted by MS-DIAL; Column: Waters AtlantisTM premier BEH C18 AX column (2.1 × 100mm x 1.7μm); Flow rate: 0.3mL/min; Mobile phase A and B are water and methnaol, respectively, both with 0.1% formic acid; Gradient elution: from A/B (95/5) to A/B (100/0) in 7min, kept for 4 min, then back to A/B (95/5) in 0.1 min, and maintained for additional 1.9 min (13min in total).; Injection volume: 10 μL
Num peaks: 226
58.06464 55
67.04388 63
67.05125 63
67.05642 63
76.21771 41
77.03875 91
77.0424 91
78.98624 56
78.9897 56
80.05245 36
80.06158 36
84.97179 59
86.9316 48
86.94097 52
86.95052 39
86.9578 53
89.05582 38
89.06312 40
92.0507 61
93.03419 58
98.04578 530
98.06348 488
98.07545 491
100.03594 55
100.04499 63
104.05161 46
104.06342 56
104.07108 45
105.04193 39
106.04378 37
107.08517 67
107.09388 74
108.04182 128
108.04733 140
108.07001 96
108.08746 43
110.05534 39
110.06112 39
110.97926 48
111.00754 43
115.04353 265
115.05598 272
116.05146 41
120.97414 60
123.96469 194
123.97336 209
126.04877 362
126.05918 346
126.06794 344
127.04343 80
127.05224 151
127.06033 169
128.04292 169
128.05917 75
129.05054 77
129.06192 73
129.96609 73
131.09132 226
133.09019 52
134.082 47
134.99792 42
135.00993 61
136.06067 150
137.97786 144
137.98743 121
138.0175 76
138.0274 80
139.04639 47
145.11035 61
146.06589 45
146.08331 129
150.0226 145
153.45502 38
153.95117 207
153.96367 221
153.9726 210
153.98178 262
154.05107 3536
155.05321 357
155.95122 308
155.96178 291
156.9469 78
156.97614 53
157.95206 118
158.9537 49
160.03729 53
160.04716 44
161.04768 56
162.00218 62
163.02309 56
165.06754 430
167.06099 111
167.07883 125
171.05931 108
171.07076 97
171.96246 614
171.97885 593
172.01344 37
173.97878 37
175.08047 50
175.9608 84
175.97438 77
178.04916 163
178.06206 148
180.06046 42
180.07147 46
187.05301 89
187.07768 67
191.04305 62
191.91846 220
191.92857 260
191.94507 324
192.00282 52
193.03368 39
193.05594 80
193.06996 84
193.9241 287
193.93503 261
193.95944 57
194.92801 61
194.93867 56
196.02271 93
197.04352 36
197.05522 42
204.0741 52
209.93631 500
209.9454 436
209.95412 681
211.94044 126
212.08087 48
212.09964 44
213.09401 54
213.93651 151
215.07887 48
215.08545 39
216.07515 43
222.05925 36
225.90515 65
225.91542 64
225.96609 41
226.06775 36
227.07814 43
227.9025 95
227.91452 113
227.98476 323
227.99977 394
229.10905 40
231.125 52
235.07744 117
237.0675 43
237.93887 39
238.54713 36
239.06923 61
239.99054 143
240.00473 165
240.01521 147
240.0621 40
241.04138 52
241.08154 403
241.09303 457
242.07178 67
242.08473 95
242.10007 92
252.04256 57
253.98 36
254.05621 38
257.0813 359
257.10669 39
257.96909 174
258.11331 53
259.00183 42
259.99484 430
261.00699 143
261.02438 181
267.05527 299
267.06607 116
268.07816 75
269.07822 1872
269.09164 1862
269.49506 195
269.51248 55
270.08145 356
270.09827 339
270.11093 125
271.99069 63
275.11224 111
277.08673 45
277.98721 96
278.00107 79
278.96799 64
279.02274 63
279.06561 110
280.00702 65
283.07706 51
285.13083 38
286.99722 49
291.08459 62
293.05841 44
293.07306 61
294.0704 46
294.09418 37
296.12549 63
297.05743 91
297.07574 285
297.09341 215
297.121 41
305.08218 60
305.10178 44
306.01233 50
306.02576 38
306.04251 49
306.99213 104
307.02991 111
307.07492 39
307.9986 107
308.02344 89
309.02271 116
309.06467 59
309.07593 38
309.97214 41
317.17084 38
319.06577 70
321.08887 104
322.08627 198
323.01947 1241
323.04367 38
Name: (-)-Chloramphenicol
PrecursorMZ: 323.021
PrecursorType: [M+H]+
IonMode: Positive
Formula: C11H12Cl2N2O5
SMILES: C1=CC(=CC=C1C(C(CO)NC(=O)C(Cl)Cl)O)[N+](=O)[O-]
InChI: 
InChIKey: WIIZWVCIJKGZOK-RKDXNWHRSA-N
RetentionTime: 5.043567
CCS: 
CollisionEnergy: 20-40 eV
InstrumentType: UPLC-QTOF-MS
Comment: PI: Cristina Nerin; Data collector: QiZhi Su, GUIA, University of Zaragoza, Spain; Collision energy: 20-40 V; Instrument: Waters HPLC-QTOF-MS (Xevo G2 QTof); Ionization: ESI; Deconvoluted by MS-DIAL; Column: Waters AtlantisTM premier BEH C18 AX column (2.1 × 100mm x 1.7μm); Flow rate: 0.3mL/min; Mobile phase A and B are water and methnaol, respectively, both with 0.1% formic acid; Gradient elution: from A/B (95/5) to A/B (100/0) in 7min, kept for 4 min, then back to A/B (95/5) in 0.1 min, and maintained for additional 1.9 min (13min in total).; Injection volume: 10 μL
Num peaks: 205
52.40958 78
60.04353 56
60.05293 56
68.98599 68
68.99683 68
78.048 95
80.97418 429
82.94576 292
84.04645 59
84.94026 718
84.94442 720
84.95596 704
84.96266 419
86.94015 74
90.04586 65
91.05437 194
92.04948 84
92.06413 209
93.05209 64
93.05802 64
93.07027 51
94.07218 46
102.04252 111
102.05558 107
102.06075 99
103.05502 75
103.06735 88
104.04188 160
104.05492 184
104.06651 180
106.03923 108
106.0448 58
106.06505 83
106.07028 79
107.04992 90
107.06771 137
107.07381 88
107.08401 62
113.01002 61
113.99624 46
114.00554 46
115.04401 140
115.05607 120
117.05383 151
117.06071 156
118.0088 58
118.01579 56
118.04424 101
118.06628 1138
118.09469 79
119.05241 314
119.07428 4292
119.08544 4325
120.04192 416
120.05581 187
120.06375 786
120.07735 322
120.9861 51
123.96579 56
123.97159 56
123.98003 57
125.01532 85
125.02372 88
125.96366 54
127.01308 92
127.02346 94
127.05077 263
127.05688 271
127.06427 265
128.0489 204
128.05713 315
128.06792 314
129.05785 51
129.95854 95
129.96935 95
130.06519 203
131.0359 432
131.05241 725
131.06854 742
131.07478 299
132.08235 143
134.06035 260
135.06236 49
136.01657 64
136.04047 123
136.91876 88
136.93359 85
137.00578 96
137.01448 110
137.02263 102
137.03162 92
138.01828 171
138.02936 185
138.05168 74
142.06531 93
145.03941 773
145.05319 784
145.07425 185
146.0482 327
146.06169 522
146.07022 493
148.04088 186
148.05318 142
148.0596 299
148.06903 193
149.01477 262
149.05011 272
149.06578 217
151.00847 111
151.02513 101
151.05052 44
152.01559 147
152.02701 139
152.06746 47
153.00456 52
153.02138 60
154.02443 108
157.94627 51
160.07246 71
161.06944 47
164.02739 799
164.0443 991
164.95886 84
164.96613 70
165.02827 159
166.01242 152
166.02356 173
166.03526 120
166.07133 545
166.09712 52
167.01096 96
167.01817 97
167.03004 103
167.0649 126
167.07652 75
168.04378 55
169.97318 269
169.98128 220
170.06244 154
170.08946 92
171.97467 311
171.98352 303
172.97513 65
172.99124 48
175.03891 109
175.04512 144
175.05685 134
175.06726 49
178.05943 45
179.0006 103
179.00778 115
179.0242 101
185.11327 44
192.98402 193
192.99854 80
193.92633 75
195.07645 50
195.09047 52
198.90178 50
201.08299 64
203.06668 66
205.03102 63
205.05092 145
205.06586 135
206.06973 151
208.03427 163
208.04883 120
208.98491 48
211.03604 139
211.91992 51
221.02434 51
228.00212 73
229.00371 361
229.01666 451
229.04533 56
229.99869 118
230.01352 219
239.0094 120
239.0172 115
240.00282 103
241.00792 219
257.03195 47
257.99683 390
258.00781 303
262.98627 61
263.00247 55
263.02142 48
267.03259 66
276.00031 186
278.00095 48
278.01871 91
287.01459 49
291.15244 76
293.06497 48
305.01096 871
306.01279 73
306.04208 51
306.98874 195
307.00687 438
307.9877 74
308.00467 98
308.99759 151
309.01157 105
323.01431 808
323.03226 569
Name: Nalidixic acid
PrecursorMZ: 233.0936
PrecursorType: [M+H]+
IonMode: Positive
Formula: C12H12N2O3
SMILES: CCN1C=C(C(=O)C2=C1N=C(C=C2)C)C(=O)O
InChI: 
InChIKey: MHWLWQUZZRMNGJ-UHFFFAOYSA-N
RetentionTime: 5.87835
CCS: 
CollisionEnergy: 20-40 eV
InstrumentType: UPLC-QTOF-MS
Comment: PI: Cristina Nerin; Data collector: QiZhi Su, GUIA, University of Zaragoza, Spain; Collision energy: 20-40 V; Instrument: Waters HPLC-QTOF-MS (Xevo G2 QTof); Ionization: ESI; Deconvoluted by MS-DIAL; Column: Waters AtlantisTM premier BEH C18 AX column (2.1 × 100mm x 1.7μm); Flow rate: 0.3mL/min; Mobile phase A and B are water and methnaol, respectively, both with 0.1% formic acid; Gradient elution: from A/B (95/5) to A/B (100/0) in 7min, kept for 4 min, then back to A/B (95/5) in 0.1 min, and maintained for additional 1.9 min (13min in total).; Injection volume: 10 μL
Num peaks: 14
104.05001 15427
105.03372 1814
105.06763 1784
131.06081 23412
132.06471 1689
143.06163 2375
159.0562 36460
160.04079 4111
160.05951 3528
187.05109 135729
188.05388 15406
215.08264 73075
216.08501 10036
233.09457 2920
Name: Nalidixic acid
PrecursorMZ: 255.0757
PrecursorType: [M+Na]+
IonMode: Positive
Formula: C12H12N2O3
SMILES: CCN1C=C(C(=O)C2=C1N=C(C=C2)C)C(=O)O
InChI: 
InChIKey: MHWLWQUZZRMNGJ-UHFFFAOYSA-N
RetentionTime: 5.88215
CCS: 
CollisionEnergy: 20-40 eV
InstrumentType: UPLC-QTOF-MS
Comment: PI: Cristina Nerin; Data collector: QiZhi Su, GUIA, University of Zaragoza, Spain; Collision energy: 20-40 V; Instrument: Waters HPLC-QTOF-MS (Xevo G2 QTof); Ionization: ESI; Deconvoluted by MS-DIAL; Column: Waters AtlantisTM premier BEH C18 AX column (2.1 × 100mm x 1.7μm); Flow rate: 0.3mL/min; Mobile phase A and B are water and methnaol, respectively, both with 0.1% formic acid; Gradient elution: from A/B (95/5) to A/B (100/0) in 7min, kept for 4 min, then back to A/B (95/5) in 0.1 min, and maintained for additional 1.9 min (13min in total).; Injection volume: 10 μL
Num peaks: 9
104.05052 41564
105.051 4080
131.06126 63315
143.06232 5657
159.05638 101404
187.05147 368296
188.05339 41405
215.08286 200376
255.07573 16628
Name: Nalidixic acid
PrecursorMZ: 487.1597
PrecursorType: [2M+Na]+
IonMode: Positive
Formula: C12H12N2O3
SMILES: CCN1C=C(C(=O)C2=C1N=C(C=C2)C)C(=O)O
InChI: 
InChIKey: MHWLWQUZZRMNGJ-UHFFFAOYSA-N
RetentionTime: 5.88215
CCS: 
CollisionEnergy: 20-40 eV
InstrumentType: UPLC-QTOF-MS
Comment: PI: Cristina Nerin; Data collector: QiZhi Su, GUIA, University of Zaragoza, Spain; Collision energy: 20-40 V; Instrument: Waters HPLC-QTOF-MS (Xevo G2 QTof); Ionization: ESI; Deconvoluted by MS-DIAL; Column: Waters AtlantisTM premier BEH C18 AX column (2.1 × 100mm x 1.7μm); Flow rate: 0.3mL/min; Mobile phase A and B are water and methnaol, respectively, both with 0.1% formic acid; Gradient elution: from A/B (95/5) to A/B (100/0) in 7min, kept for 4 min, then back to A/B (95/5) in 0.1 min, and maintained for additional 1.9 min (13min in total).; Injection volume: 10 μL
Num peaks: 8
104.05052 41564
105.051 4080
131.06126 63315
143.06232 5657
159.05638 101404
187.05147 368296
188.05339 41405
215.08286 200376
Name: dipropylene glycol diacrylate
PrecursorMZ: 265.1066
PrecursorType: [M+Na]+
IonMode: Positive
Formula: C12H18O5
SMILES: CCC(OC(CC)OC(=O)C=C)OC(=O)C=C
InChI: 
InChIKey: BPUPTQUTGHCAHD-UHFFFAOYSA-N
RetentionTime: 6.194817
CCS: 
CollisionEnergy: 20-40 eV
InstrumentType: UPLC-QTOF-MS
Comment: PI: Cristina Nerin; Data collector: QiZhi Su, GUIA, University of Zaragoza, Spain; Collision energy: 20-40 V; Instrument: Waters HPLC-QTOF-MS (Xevo G2 QTof); Ionization: ESI; Deconvoluted by MS-DIAL; Column: Waters AtlantisTM premier BEH C18 AX column (2.1 × 100mm x 1.7μm); Flow rate: 0.3mL/min; Mobile phase A and B are water and methnaol, respectively, both with 0.1% formic acid; Gradient elution: from A/B (95/5) to A/B (100/0) in 7min, kept for 4 min, then back to A/B (95/5) in 0.1 min, and maintained for additional 1.9 min (13min in total).; Injection volume: 10 μL
Num peaks: 46
55.01908 4445
66.98819 186
71.0492 237
73.02744 221
77.04214 255
79.05547 173
95.05538 138
98.06147 198
99.04364 139
99.08076 180
104.05196 866
106.06565 348
110.97719 2731
113.06042 13378
114.06019 301
114.06661 412
126.9547 329
131.0555 261
131.06424 793
143.05771 160
151.01022 182
154.04726 261
154.05418 860
154.06175 267
155.05765 140
159.05725 820
160.04321 215
160.05687 135
173.08368 246
182.99458 163
183.00417 289
184.98735 359
187.00117 198
187.05183 3432
188.05516 264
189.00807 236
189.06305 178
201.05446 153
209.06201 145
215.08469 1971
216.086 266
227.05353 341
229.11192 393
251.06758 190
257.08066 134
265.10654 7687
Name: Benzophenone-d10
PrecursorMZ: 193.1449
PrecursorType: [M+H]+
IonMode: Positive
Formula: C13H10O
SMILES: C1=CC=C(C=C1)C(=O)C2=CC=CC=C2
InChI: 
InChIKey: RWCCWEUUXYIKHB-LHNTUAQVSA-N
RetentionTime: 6.747334
CCS: 
CollisionEnergy: 20-40 eV
InstrumentType: UPLC-QTOF-MS
Comment: PI: Cristina Nerin; Data collector: QiZhi Su, GUIA, University of Zaragoza, Spain; Collision energy: 20-40 V; Instrument: Waters HPLC-QTOF-MS (Xevo G2 QTof); Ionization: ESI; Deconvoluted by MS-DIAL; Column: Waters AtlantisTM premier BEH C18 AX column (2.1 × 100mm x 1.7μm); Flow rate: 0.3mL/min; Mobile phase A and B are water and methnaol, respectively, both with 0.1% formic acid; Gradient elution: from A/B (95/5) to A/B (100/0) in 7min, kept for 4 min, then back to A/B (95/5) in 0.1 min, and maintained for additional 1.9 min (13min in total).; Injection volume: 10 μL
Num peaks: 11
81.06445 24573
82.0508 113279
82.0706 128335
83.06087 7004
83.074 6950
109.05937 48485
110.06564 223055
111.06885 16072
116.03453 2790
116.04889 2822
193.14522 3611
Name: Benzophenone-d10
PrecursorMZ: 215.1268
PrecursorType: [M+Na]+
IonMode: Positive
Formula: C13H10O
SMILES: C1=CC=C(C=C1)C(=O)C2=CC=CC=C2
InChI: 
InChIKey: RWCCWEUUXYIKHB-LHNTUAQVSA-N
RetentionTime: 6.75115
CCS: 
CollisionEnergy: 20-40 eV
InstrumentType: UPLC-QTOF-MS
Comment: PI: Cristina Nerin; Data collector: QiZhi Su, GUIA, University of Zaragoza, Spain; Collision energy: 20-40 V; Instrument: Waters HPLC-QTOF-MS (Xevo G2 QTof); Ionization: ESI; Deconvoluted by MS-DIAL; Column: Waters AtlantisTM premier BEH C18 AX column (2.1 × 100mm x 1.7μm); Flow rate: 0.3mL/min; Mobile phase A and B are water and methnaol, respectively, both with 0.1% formic acid; Gradient elution: from A/B (95/5) to A/B (100/0) in 7min, kept for 4 min, then back to A/B (95/5) in 0.1 min, and maintained for additional 1.9 min (13min in total).; Injection volume: 10 μL
Num peaks: 18
81.06442 24493
82.05429 128350
82.07073 128335
83.0738 6932
83.0877 6942
109.05905 48473
109.07516 48495
110.06551 223103
111.05043 16184
111.06908 16067
111.0892 2577
116.04902 2812
193.14389 3920
204.12914 4090
211.61125 2523
211.62065 2523
212.1176 37177
212.61876 10565
Name: Bisacylphosphine oxides
PrecursorMZ: 441.1606
PrecursorType: [M+Na]+
IonMode: Positive
Formula: C26H27O3P
SMILES: CC1=CC(=C(C(=C1)C)C(=O)P(=O)(C2=CC=CC=C2)C(=O)C3=C(C=C(C=C3C)C)C)C
InChI: 
InChIKey: GUCYFKSBFREPBC-UHFFFAOYSA-N
RetentionTime: 7.795217
CCS: 
CollisionEnergy: 20-40 eV
InstrumentType: UPLC-QTOF-MS
Comment: PI: Cristina Nerin; Data collector: QiZhi Su, GUIA, University of Zaragoza, Spain; Collision energy: 20-40 V; Instrument: Waters HPLC-QTOF-MS (Xevo G2 QTof); Ionization: ESI; Deconvoluted by MS-DIAL; Column: Waters AtlantisTM premier BEH C18 AX column (2.1 × 100mm x 1.7μm); Flow rate: 0.3mL/min; Mobile phase A and B are water and methnaol, respectively, both with 0.1% formic acid; Gradient elution: from A/B (95/5) to A/B (100/0) in 7min, kept for 4 min, then back to A/B (95/5) in 0.1 min, and maintained for additional 1.9 min (13min in total).; Injection volume: 10 μL
Num peaks: 5
91.05522 23833
119.08613 30691
147.08153 597187
148.0847 61842
441.15952 193571
Name: Bisacylphosphine oxides
PrecursorMZ: 837.3482
PrecursorType: [2M+H]+
IonMode: Positive
Formula: C26H27O3P
SMILES: CC1=CC(=C(C(=C1)C)C(=O)P(=O)(C2=CC=CC=C2)C(=O)C3=C(C=C(C=C3C)C)C)C
InChI: 
InChIKey: GUCYFKSBFREPBC-UHFFFAOYSA-N
RetentionTime: 7.81425
CCS: 
CollisionEnergy: 20-40 eV
InstrumentType: UPLC-QTOF-MS
Comment: PI: Cristina Nerin; Data collector: QiZhi Su, GUIA, University of Zaragoza, Spain; Collision energy: 20-40 V; Instrument: Waters HPLC-QTOF-MS (Xevo G2 QTof); Ionization: ESI; Deconvoluted by MS-DIAL; Column: Waters AtlantisTM premier BEH C18 AX column (2.1 × 100mm x 1.7μm); Flow rate: 0.3mL/min; Mobile phase A and B are water and methnaol, respectively, both with 0.1% formic acid; Gradient elution: from A/B (95/5) to A/B (100/0) in 7min, kept for 4 min, then back to A/B (95/5) in 0.1 min, and maintained for additional 1.9 min (13min in total).; Injection volume: 10 μL
Num peaks: 11
91.05493 23497
119.08596 16221
147.0815 1036406
147.14494 13833
147.19061 17934
147.20187 22038
147.2144 16169
147.29083 17022
148.08478 109212
441.15872 210495
442.1629 56675
Name: Trimethoprim
PrecursorMZ: 291.1461
PrecursorType: [M+H]+
IonMode: Positive
Formula: C14H18N4O3
SMILES: COC1=CC(=CC(=C1OC)OC)CC2=CN=C(N=C2N)N
InChI: 
InChIKey: IEDVJHCEMCRBQM-UHFFFAOYSA-N
RetentionTime: 1.831317
CCS: 
CollisionEnergy: 20-40 eV
InstrumentType: UPLC-QTOF-MS
Comment: PI: Cristina Nerin; Data collector: QiZhi Su, GUIA, University of Zaragoza, Spain; Collision energy: 20-40 V; Instrument: Waters HPLC-QTOF-MS (Xevo G2 QTof); Ionization: ESI; Deconvoluted by MS-DIAL; Column: Waters AtlantisTM premier BEH C18 AX column (2.1 × 100mm x 1.7μm); Flow rate: 0.3mL/min; Mobile phase A and B are water and methnaol, respectively, both with 0.1% formic acid; Gradient elution: from A/B (95/5) to A/B (100/0) in 7min, kept for 4 min, then back to A/B (95/5) in 0.1 min, and maintained for additional 1.9 min (13min in total).; Injection volume: 10 μL
Num peaks: 80
81.04551 1894
110.05888 7760
111.05022 1823
111.05905 2262
111.06822 2257
118.08312 344
118.09482 374
123.03116 667
123.03954 664
123.04709 1868
123.06753 23149
124.05825 2150
124.06721 2237
124.07715 2202
137.04146 431
137.04828 492
137.05933 603
137.07408 572
148.05429 345
149.067 661
149.07594 643
149.08424 624
151.04225 801
161.08002 531
161.08888 524
162.08513 354
162.09549 337
174.06488 1155
181.08344 996
181.09346 994
187.09303 2061
187.10292 2058
188.10231 354
190.07602 353
190.08926 348
191.07425 407
191.09641 582
191.11102 467
199.09616 327
200.09683 513
200.11046 501
200.12209 436
201.11577 3479
202.10136 998
202.12086 1660
215.09314 857
216.09117 512
217.10092 373
217.11195 370
229.10995 6423
230.1172 27484
231.07596 430
231.09688 1032
231.11606 3948
231.12517 3720
232.09729 2571
233.10443 3383
234.10675 476
234.1178 396
244.07167 370
245.10429 3208
246.11002 1671
247.1109 2288
247.12302 2287
257.10419 7755
258.11093 3705
259.07278 870
259.08499 1073
259.09311 994
259.11423 747
260.12018 336
260.13068 338
261.09839 19619
262.10434 2834
275.11401 12372
276.09344 412
276.11005 3176
276.12073 3175
277.12506 371
291.14615 32540
Name: Bisacylphosphine oxides
PrecursorMZ: 419.1773
PrecursorType: [M+H]+
IonMode: Positive
Formula: C26H27O3P
SMILES: CC1=CC(=C(C(=C1)C)C(=O)P(=O)(C2=CC=CC=C2)C(=O)C3=C(C=C(C=C3C)C)C)C
InChI: 
InChIKey: GUCYFKSBFREPBC-UHFFFAOYSA-N
RetentionTime: 7.818067
CCS: 
CollisionEnergy: 20-40 eV
InstrumentType: UPLC-QTOF-MS
Comment: PI: Cristina Nerin; Data collector: QiZhi Su, GUIA, University of Zaragoza, Spain; Collision energy: 20-40 V; Instrument: Waters HPLC-QTOF-MS (Xevo G2 QTof); Ionization: ESI; Deconvoluted by MS-DIAL; Column: Waters AtlantisTM premier BEH C18 AX column (2.1 × 100mm x 1.7μm); Flow rate: 0.3mL/min; Mobile phase A and B are water and methnaol, respectively, both with 0.1% formic acid; Gradient elution: from A/B (95/5) to A/B (100/0) in 7min, kept for 4 min, then back to A/B (95/5) in 0.1 min, and maintained for additional 1.9 min (13min in total).; Injection volume: 10 μL
Num peaks: 10
91.05469 25773
91.07316 25657
119.0862 25560
147.08153 1036372
147.14482 13833
147.19041 17934
147.2019 22038
147.21475 16169
147.29057 17022
148.08461 109251
Name: Bisacylphosphine oxides
PrecursorMZ: 859.3303
PrecursorType: [2M+Na]+
IonMode: Positive
Formula: C26H27O3P
SMILES: CC1=CC(=C(C(=C1)C)C(=O)P(=O)(C2=CC=CC=C2)C(=O)C3=C(C=C(C=C3C)C)C)C
InChI: 
InChIKey: GUCYFKSBFREPBC-UHFFFAOYSA-N
RetentionTime: 7.818067
CCS: 
CollisionEnergy: 20-40 eV
InstrumentType: UPLC-QTOF-MS
Comment: PI: Cristina Nerin; Data collector: QiZhi Su, GUIA, University of Zaragoza, Spain; Collision energy: 20-40 V; Instrument: Waters HPLC-QTOF-MS (Xevo G2 QTof); Ionization: ESI; Deconvoluted by MS-DIAL; Column: Waters AtlantisTM premier BEH C18 AX column (2.1 × 100mm x 1.7μm); Flow rate: 0.3mL/min; Mobile phase A and B are water and methnaol, respectively, both with 0.1% formic acid; Gradient elution: from A/B (95/5) to A/B (100/0) in 7min, kept for 4 min, then back to A/B (95/5) in 0.1 min, and maintained for additional 1.9 min (13min in total).; Injection volume: 10 μL
Num peaks: 139
60.08159 2660
60.09116 2651
65.03902 63
89.0389 81
104.06269 5925
105.06908 599
116.06007 123
116.07676 61
120.08964 4238
121.10666 63
122.07197 94
122.09583 61
122.10161 60
127.0211 140
127.02951 157
127.03648 199
134.05141 64
144.45854 84
145.0351 64
146.15585 64
146.75735 61
146.77525 69
146.85204 67
147.14482 853
147.19041 1181
147.2019 589
147.21475 92
147.33582 69
147.34732 108
147.42586 62
148.04077 97
148.04977 98
148.3849 74
148.4491 86
148.45735 89
148.46968 69
148.52248 83
148.69305 77
148.70003 93
148.73366 120
148.75423 85
149.02962 80
149.04323 98
149.1713 74
149.24593 117
149.26137 160
149.26891 187
149.3042 147
149.31389 71
149.49326 62
150.08543 324
150.09406 411
150.89398 74
151.60039 64
162.99255 126
179.09041 69
207.1559 67
220.11998 86
227.14975 77
255.08887 309
255.10112 332
255.11429 159
256.10101 76
277.078 71
279.05206 67
301.13211 257
301.1698 800
302.14948 126
302.16556 127
313.09695 109
327.19638 311
339.21301 91
345.18924 552
355.07892 1224
363.09161 62
363.11969 186
364.11136 66
368.43652 67
376.14261 81
413.27313 144
415.30185 82
415.31616 69
419.17496 1082
420.17636 392
425.15637 91
441.20316 66
441.25739 76
441.34497 95
441.3606 84
444.19376 317
447.11234 120
447.21725 170
458.13678 99
458.26224 91
459.11469 459
459.22961 81
464.23367 108
465.21909 87
465.24045 78
547.38092 71
552.35327 75
565.25403 77
569.37207 72
569.39697 69
573.3017 143
574.30371 62
595.3797 86
601.8269 88
605.36829 72
607.32507 89
608.38867 66
609.34467 99
683.44366 250
713.2345 409
714.27197 89
720.20911 66
722.46631 73
729.19568 253
729.2262 602
729.26483 103
730.20038 138
730.2301 227
744.21448 80
745.18494 546
746.19696 640
747.18353 184
747.21588 275
771.44269 70
771.47705 216
772.50146 76
816.5155 65
837.33685 180
838.34491 159
854.3656 533
855.39581 344
856.39911 87
859.32642 2747
859.48004 60
859.52954 197
Name: Bisacylphosphine oxides
PrecursorMZ: 436.2045
PrecursorType: [M+NH4]+
IonMode: Positive
Formula: C26H27O3P
SMILES: CC1=CC(=C(C(=C1)C)C(=O)P(=O)(C2=CC=CC=C2)C(=O)C3=C(C=C(C=C3C)C)C)C
InChI: 
InChIKey: GUCYFKSBFREPBC-UHFFFAOYSA-N
RetentionTime: 7.821867
CCS: 
CollisionEnergy: 20-40 eV
InstrumentType: UPLC-QTOF-MS
Comment: PI: Cristina Nerin; Data collector: QiZhi Su, GUIA, University of Zaragoza, Spain; Collision energy: 20-40 V; Instrument: Waters HPLC-QTOF-MS (Xevo G2 QTof); Ionization: ESI; Deconvoluted by MS-DIAL; Column: Waters AtlantisTM premier BEH C18 AX column (2.1 × 100mm x 1.7μm); Flow rate: 0.3mL/min; Mobile phase A and B are water and methnaol, respectively, both with 0.1% formic acid; Gradient elution: from A/B (95/5) to A/B (100/0) in 7min, kept for 4 min, then back to A/B (95/5) in 0.1 min, and maintained for additional 1.9 min (13min in total).; Injection volume: 10 μL
Num peaks: 51
60.08151 4839
60.09336 4839
65.03876 851
74.09552 487
74.10464 486
77.0226 2366
77.03912 2267
77.05089 2290
78.04694 267
79.05507 478
91.05517 10089
92.05865 799
92.06796 817
93.07019 781
94.0746 182
102.12881 190
102.13877 196
103.03815 1528
103.0548 1332
104.06326 2730
115.05399 1219
116.05658 466
117.07104 1377
118.06917 768
118.07901 804
119.0862 17844
120.08902 2663
120.09464 2667
130.15843 441
130.16512 439
146.98997 826
146.99876 870
147.01607 703
148.11386 306
149.2771 209
162.99437 458
227.10037 1186
227.12123 384
255.08334 182
255.09915 188
286.12354 291
286.14075 289
294.08084 375
294.09097 329
295.08902 1006
301.15433 418
345.19006 552
419.17706 1962
419.2016 190
420.18723 205
425.18008 406
Name: Bisacylphosphine oxides
PrecursorMZ: 854.3757
PrecursorType: [2M+NH4]+
IonMode: Positive
Formula: C26H27O3P
SMILES: CC1=CC(=C(C(=C1)C)C(=O)P(=O)(C2=CC=CC=C2)C(=O)C3=C(C=C(C=C3C)C)C)C
InChI: 
InChIKey: GUCYFKSBFREPBC-UHFFFAOYSA-N
RetentionTime: 7.821867
CCS: 
CollisionEnergy: 20-40 eV
InstrumentType: UPLC-QTOF-MS
Comment: PI: Cristina Nerin; Data collector: QiZhi Su, GUIA, University of Zaragoza, Spain; Collision energy: 20-40 V; Instrument: Waters HPLC-QTOF-MS (Xevo G2 QTof); Ionization: ESI; Deconvoluted by MS-DIAL; Column: Waters AtlantisTM premier BEH C18 AX column (2.1 × 100mm x 1.7μm); Flow rate: 0.3mL/min; Mobile phase A and B are water and methnaol, respectively, both with 0.1% formic acid; Gradient elution: from A/B (95/5) to A/B (100/0) in 7min, kept for 4 min, then back to A/B (95/5) in 0.1 min, and maintained for additional 1.9 min (13min in total).; Injection volume: 10 μL
Num peaks: 15
60.08151 4766
60.09336 4766
77.0226 2395
77.03912 2269
77.05089 2294
91.05517 10111
104.06326 2708
119.0862 18040
120.08902 2629
120.09464 2631
419.17706 1963
441.15869 188429
442.16171 48666
443.16522 7043
457.13199 5633
Name: Trimethoprim
PrecursorMZ: 291.1474
PrecursorType: [M+H]+
IonMode: Positive
Formula: C14H18N4O3
SMILES: COC1=CC(=CC(=C1OC)OC)CC2=CN=C(N=C2N)N
InChI: 
InChIKey: IEDVJHCEMCRBQM-UHFFFAOYSA-N
RetentionTime: 0.8594834
CCS: 
CollisionEnergy: 20-40 eV
InstrumentType: UPLC-QTOF-MS
Comment: PI: Cristina Nerin; Data collector: QiZhi Su, GUIA, University of Zaragoza, Spain; Collision energy: 20-40 V; Instrument: Waters HPLC-QTOF-MS (Xevo G2 QTof); Ionization: ESI; Deconvoluted by MS-DIAL; Column: Waters AtlantisTM premier BEH C18 AX column (2.1 × 100mm x 1.7μm); Flow rate: 0.3mL/min; Mobile phase A and B are water and methnaol, respectively, both with 0.1% formic acid; Gradient elution: from A/B (95/5) to A/B (100/0) in 7min, kept for 4 min, then back to A/B (95/5) in 0.1 min, and maintained for additional 1.9 min (13min in total).; Injection volume: 10 μL
Num peaks: 62
81.04587 6143
110.04273 25747
110.05977 25699
111.06741 7442
111.0835 7473
123.04206 1309
123.06754 77441
124.07146 8139
124.07762 8128
137.06085 1322
137.07202 1420
149.06512 1866
149.07373 2090
149.0853 1999
151.04103 2852
161.07545 1546
161.08426 1628
161.0968 1552
174.06415 2434
174.07344 2437
181.08801 3896
187.07875 3022
187.0976 6204
188.09189 1600
188.10318 1223
190.08034 1181
191.08716 1959
191.09711 1969
191.10612 1935
199.08688 1406
199.09804 1271
200.09683 1495
200.10852 1394
201.08002 2447
201.11449 12751
202.12093 5643
215.07697 2782
215.09373 2866
216.09985 1709
217.11081 1300
229.10986 21624
230.11778 96285
231.08984 1807
231.12103 13103
232.09647 8454
233.10463 12096
234.10977 1746
244.07948 1209
245.10487 10724
246.11223 5532
247.12143 7670
257.10529 29276
258.11203 12413
259.08472 3477
259.11688 2817
259.1384 1270
261.09949 70668
262.10266 9401
275.11526 44042
276.12146 10231
277.12564 1364
291.14682 117722
Name: Trimethoprim
PrecursorMZ: 291.1474
PrecursorType: [M+H]+
IonMode: Positive
Formula: C14H18N4O3
SMILES: COC1=CC(=CC(=C1OC)OC)CC2=CN=C(N=C2N)N
InChI: 
InChIKey: IEDVJHCEMCRBQM-UHFFFAOYSA-N
RetentionTime: 0.8594834
CCS: 
CollisionEnergy: 20-40 eV
InstrumentType: UPLC-QTOF-MS
Comment: PI: Cristina Nerin; Data collector: QiZhi Su, GUIA, University of Zaragoza, Spain; Collision energy: 20-40 V; Instrument: Waters HPLC-QTOF-MS (Xevo G2 QTof); Ionization: ESI; Deconvoluted by MS-DIAL; Column: Waters AtlantisTM premier BEH C18 AX column (2.1 × 100mm x 1.7μm); Flow rate: 0.3mL/min; Mobile phase A and B are water and methnaol, respectively, both with 0.1% formic acid; Gradient elution: from A/B (95/5) to A/B (100/0) in 7min, kept for 4 min, then back to A/B (95/5) in 0.1 min, and maintained for additional 1.9 min (13min in total).; Injection volume: 10 μL
Num peaks: 62
81.04587 6143
110.04273 25747
110.05977 25699
111.06741 7442
111.0835 7473
123.04206 1309
123.06754 77441
124.07146 8139
124.07762 8128
137.06085 1322
137.07202 1420
149.06512 1866
149.07373 2090
149.0853 1999
151.04103 2852
161.07545 1546
161.08426 1628
161.0968 1552
174.06415 2434
174.07344 2437
181.08801 3896
187.07875 3022
187.0976 6204
188.09189 1600
188.10318 1223
190.08034 1181
191.08716 1959
191.09711 1969
191.10612 1935
199.08688 1406
199.09804 1271
200.09683 1495
200.10852 1394
201.08002 2447
201.11449 12751
202.12093 5643
215.07697 2782
215.09373 2866
216.09985 1709
217.11081 1300
229.10986 21624
230.11778 96285
231.08984 1807
231.12103 13103
232.09647 8454
233.10463 12096
234.10977 1746
244.07948 1209
245.10487 10724
246.11223 5532
247.12143 7670
257.10529 29276
258.11203 12413
259.08472 3477
259.11688 2817
259.1384 1270
261.09949 70668
262.10266 9401
275.11526 44042
276.12146 10231
277.12564 1364
291.14682 117722
Name: Bisacylphosphine oxides
PrecursorMZ: 457.1347
PrecursorType: [M+K]+
IonMode: Positive
Formula: C26H27O3P
SMILES: CC1=CC(=C(C(=C1)C)C(=O)P(=O)(C2=CC=CC=C2)C(=O)C3=C(C=C(C=C3C)C)C)C
InChI: 
InChIKey: GUCYFKSBFREPBC-UHFFFAOYSA-N
RetentionTime: 7.848516
CCS: 
CollisionEnergy: 20-40 eV
InstrumentType: UPLC-QTOF-MS
Comment: PI: Cristina Nerin; Data collector: QiZhi Su, GUIA, University of Zaragoza, Spain; Collision energy: 20-40 V; Instrument: Waters HPLC-QTOF-MS (Xevo G2 QTof); Ionization: ESI; Deconvoluted by MS-DIAL; Column: Waters AtlantisTM premier BEH C18 AX column (2.1 × 100mm x 1.7μm); Flow rate: 0.3mL/min; Mobile phase A and B are water and methnaol, respectively, both with 0.1% formic acid; Gradient elution: from A/B (95/5) to A/B (100/0) in 7min, kept for 4 min, then back to A/B (95/5) in 0.1 min, and maintained for additional 1.9 min (13min in total).; Injection volume: 10 μL
Num peaks: 16
77.03906 3376
91.05545 16128
99.04556 3611
119.08675 23070
147.08162 308257
148.08507 32658
184.03577 34043
185.04147 6770
213.03838 157832
214.04155 21861
215.03545 6517
255.08598 16692
277.06509 3405
441.15976 110033
442.16412 26268
443.16656 4548
Name: Bisacylphosphine oxides
PrecursorMZ: 441.1603
PrecursorType: [M+Na]+
IonMode: Positive
Formula: C26H27O3P
SMILES: CC1=CC(=C(C(=C1)C)C(=O)P(=O)(C2=CC=CC=C2)C(=O)C3=C(C=C(C=C3C)C)C)C
InChI: 
InChIKey: GUCYFKSBFREPBC-UHFFFAOYSA-N
RetentionTime: 7.856133
CCS: 
CollisionEnergy: 20-40 eV
InstrumentType: UPLC-QTOF-MS
Comment: PI: Cristina Nerin; Data collector: QiZhi Su, GUIA, University of Zaragoza, Spain; Collision energy: 20-40 V; Instrument: Waters HPLC-QTOF-MS (Xevo G2 QTof); Ionization: ESI; Deconvoluted by MS-DIAL; Column: Waters AtlantisTM premier BEH C18 AX column (2.1 × 100mm x 1.7μm); Flow rate: 0.3mL/min; Mobile phase A and B are water and methnaol, respectively, both with 0.1% formic acid; Gradient elution: from A/B (95/5) to A/B (100/0) in 7min, kept for 4 min, then back to A/B (95/5) in 0.1 min, and maintained for additional 1.9 min (13min in total).; Injection volume: 10 μL
Num peaks: 17
91.05522 10872
99.04467 4501
117.07053 2523
119.08632 15850
147.08159 180857
148.08517 18274
184.03545 44436
185.04051 9001
186.03525 2384
213.03813 223887
214.04088 31760
215.0359 11460
239.05522 3680
255.08611 23514
256.08774 4429
277.06696 8764
441.16022 50108
Name: Bisacodyl
PrecursorMZ: 723.2714
PrecursorType: [2M+H]+
IonMode: Positive
Formula: C22H19NO4
SMILES: CC(=O)OC1=CC=C(C=C1)C(C2=CC=C(C=C2)OC(=O)C)C3=CC=CC=N3
InChI: 
InChIKey: KHOITXIGCFIULA-UHFFFAOYSA-N
RetentionTime: 6.01925
CCS: 
CollisionEnergy: 20-40 eV
InstrumentType: UPLC-QTOF-MS
Comment: PI: Cristina Nerin; Data collector: QiZhi Su, GUIA, University of Zaragoza, Spain; Collision energy: 20-40 V; Instrument: Waters HPLC-QTOF-MS (Xevo G2 QTof); Ionization: ESI; Deconvoluted by MS-DIAL; Column: Waters AtlantisTM premier BEH C18 AX column (2.1 × 100mm x 1.7μm); Flow rate: 0.3mL/min; Mobile phase A and B are water and methnaol, respectively, both with 0.1% formic acid; Gradient elution: from A/B (95/5) to A/B (100/0) in 7min, kept for 4 min, then back to A/B (95/5) in 0.1 min, and maintained for additional 1.9 min (13min in total).; Injection volume: 10 μL
Num peaks: 10
167.07382 36123
183.06889 31121
184.07703 1451493
184.19905 16800
184.21222 20249
184.22592 15543
185.07994 188020
226.08728 74673
362.13849 129472
363.14273 29629
Name: Bisacodyl
PrecursorMZ: 384.1209
PrecursorType: [M+Na]+
IonMode: Positive
Formula: C22H19NO4
SMILES: CC(=O)OC1=CC=C(C=C1)C(C2=CC=C(C=C2)OC(=O)C)C3=CC=CC=N3
InChI: 
InChIKey: KHOITXIGCFIULA-UHFFFAOYSA-N
RetentionTime: 6.02685
CCS: 
CollisionEnergy: 20-40 eV
InstrumentType: UPLC-QTOF-MS
Comment: PI: Cristina Nerin; Data collector: QiZhi Su, GUIA, University of Zaragoza, Spain; Collision energy: 20-40 V; Instrument: Waters HPLC-QTOF-MS (Xevo G2 QTof); Ionization: ESI; Deconvoluted by MS-DIAL; Column: Waters AtlantisTM premier BEH C18 AX column (2.1 × 100mm x 1.7μm); Flow rate: 0.3mL/min; Mobile phase A and B are water and methnaol, respectively, both with 0.1% formic acid; Gradient elution: from A/B (95/5) to A/B (100/0) in 7min, kept for 4 min, then back to A/B (95/5) in 0.1 min, and maintained for additional 1.9 min (13min in total).; Injection volume: 10 μL
Num peaks: 11
167.07372 37921
183.06877 33334
184.0771 1390086
184.14796 22463
184.21178 25923
184.29648 14836
184.32526 14266
185.08017 192054
226.08717 77792
362.1391 140948
363.14264 29444
Name: Bisacodyl
PrecursorMZ: 400.0954
PrecursorType: [M+K]+
IonMode: Positive
Formula: C22H19NO4
SMILES: CC(=O)OC1=CC=C(C=C1)C(C2=CC=C(C=C2)OC(=O)C)C3=CC=CC=N3
InChI: 
InChIKey: KHOITXIGCFIULA-UHFFFAOYSA-N
RetentionTime: 6.02685
CCS: 
CollisionEnergy: 20-40 eV
InstrumentType: UPLC-QTOF-MS
Comment: PI: Cristina Nerin; Data collector: QiZhi Su, GUIA, University of Zaragoza, Spain; Collision energy: 20-40 V; Instrument: Waters HPLC-QTOF-MS (Xevo G2 QTof); Ionization: ESI; Deconvoluted by MS-DIAL; Column: Waters AtlantisTM premier BEH C18 AX column (2.1 × 100mm x 1.7μm); Flow rate: 0.3mL/min; Mobile phase A and B are water and methnaol, respectively, both with 0.1% formic acid; Gradient elution: from A/B (95/5) to A/B (100/0) in 7min, kept for 4 min, then back to A/B (95/5) in 0.1 min, and maintained for additional 1.9 min (13min in total).; Injection volume: 10 μL
Num peaks: 16
167.07372 17369
183.06877 15412
184.0771 601362
184.14796 18010
184.19876 26828
184.21178 31643
184.22646 26722
184.29648 13750
184.31125 26985
184.32526 13642
185.08017 95152
186.08264 6850
226.08717 38144
227.09076 6197
362.1391 67303
363.14264 14347
Name: Dehydrocholic acid
PrecursorMZ: 425.2307
PrecursorType: [M+Na]+
IonMode: Positive
Formula: C24H34O5
SMILES: CC(CCC(=O)O)C1CCC2C1(C(=O)CC3C2C(=O)CC4C3(CCC(=O)C4)C)C
InChI: 
InChIKey: OHXPGWPVLFPUSM-KLRNGDHRSA-N
RetentionTime: 6.449934
CCS: 
CollisionEnergy: 20-40 eV
InstrumentType: UPLC-QTOF-MS
Comment: PI: Cristina Nerin; Data collector: QiZhi Su, GUIA, University of Zaragoza, Spain; Collision energy: 20-40 V; Instrument: Waters HPLC-QTOF-MS (Xevo G2 QTof); Ionization: ESI; Deconvoluted by MS-DIAL; Column: Waters AtlantisTM premier BEH C18 AX column (2.1 × 100mm x 1.7μm); Flow rate: 0.3mL/min; Mobile phase A and B are water and methnaol, respectively, both with 0.1% formic acid; Gradient elution: from A/B (95/5) to A/B (100/0) in 7min, kept for 4 min, then back to A/B (95/5) in 0.1 min, and maintained for additional 1.9 min (13min in total).; Injection volume: 10 μL
Num peaks: 12
81.06296 241
81.07276 234
131.06596 438
207.14114 225
221.1543 786
249.14265 244
258.13821 197
288.18198 192
289.18439 195
297.20901 286
303.233 1022
425.22986 18172
Name: Dehydrocholic acid
PrecursorMZ: 827.4716
PrecursorType: [2M+Na]+
IonMode: Positive
Formula: C24H34O5
SMILES: CC(CCC(=O)O)C1CCC2C1(C(=O)CC3C2C(=O)CC4C3(CCC(=O)C4)C)C
InChI: 
InChIKey: OHXPGWPVLFPUSM-KLRNGDHRSA-N
RetentionTime: 6.480383
CCS: 
CollisionEnergy: 20-40 eV
InstrumentType: UPLC-QTOF-MS
Comment: PI: Cristina Nerin; Data collector: QiZhi Su, GUIA, University of Zaragoza, Spain; Collision energy: 20-40 V; Instrument: Waters HPLC-QTOF-MS (Xevo G2 QTof); Ionization: ESI; Deconvoluted by MS-DIAL; Column: Waters AtlantisTM premier BEH C18 AX column (2.1 × 100mm x 1.7μm); Flow rate: 0.3mL/min; Mobile phase A and B are water and methnaol, respectively, both with 0.1% formic acid; Gradient elution: from A/B (95/5) to A/B (100/0) in 7min, kept for 4 min, then back to A/B (95/5) in 0.1 min, and maintained for additional 1.9 min (13min in total).; Injection volume: 10 μL
Num peaks: 356
79.05478 292
79.06386 307
81.07007 718
83.03435 289
83.05058 238
93.07146 644
95.08728 689
99.04517 1685
99.05552 1701
105.0729 1414
109.06247 967
109.06837 934
109.1021 489
109.10946 523
113.0517 251
119.08719 1304
121.05962 868
121.06738 837
121.07452 1044
121.1022 946
121.11263 948
123.08094 870
131.07027 1485
131.08688 1805
132.09351 212
133.06462 216
133.08621 1402
133.09996 1529
133.10568 1533
133.12277 492
135.08209 221
135.10278 546
135.12003 252
143.0778 342
143.08563 395
145.08487 1292
145.10222 1513
146.09407 380
146.10233 330
146.10835 314
147.08163 446
147.11856 3085
149.09692 853
153.08626 267
153.09924 224
155.08646 1350
155.09735 1285
157.10251 2068
159.07965 788
159.08846 757
159.11891 3910
160.09853 281
161.09656 1325
163.1039 517
163.11374 521
168.0892 439
168.09692 420
169.08513 315
169.10173 1388
170.10275 272
170.1113 229
171.0795 317
171.08878 275
171.11781 780
172.11865 264
172.127 263
173.09111 1420
173.10063 1412
173.13235 655
175.11229 820
175.12778 718
177.11047 444
177.12437 306
177.13765 325
179.07205 226
179.08391 318
179.10938 214
179.12306 529
180.10742 210
181.08185 388
181.09421 948
181.10648 1101
182.10677 279
182.11539 250
183.08067 219
183.11931 1872
184.10245 333
184.12234 353
185.08243 421
185.09476 530
185.10242 591
185.13435 2038
186.12621 343
186.13698 431
186.14627 289
189.12733 382
189.13577 360
193.1095 726
193.12482 840
195.11684 2834
196.12073 365
197.0881 430
197.10127 417
197.13513 7410
198.13504 1082
198.16089 323
199.11081 793
199.12297 816
199.15193 636
201.12601 297
201.16524 251
201.17767 258
203.09552 227
203.112 251
205.11888 277
206.09521 349
206.10672 337
207.1123 1082
207.12242 1230
207.14273 260
208.11998 555
208.12927 603
208.1416 441
209.13272 1325
210.13954 300
211.11359 570
211.14978 4407
212.11391 271
212.12132 293
212.13493 1150
212.15112 1552
212.16026 1533
213.12753 425
213.15398 451
213.164 616
213.17413 329
214.12576 325
214.13719 333
215.14384 1358
219.11894 315
221.13319 1443
222.13841 254
223.11679 1319
223.1474 1437
223.15594 1194
225.13063 2764
226.12245 472
226.1326 411
227.12694 1991
227.1458 1398
227.16119 426
229.1279 290
229.161 985
229.17105 878
232.1189 324
233.12877 846
233.14081 863
233.15279 1056
233.16734 295
234.14175 580
234.1571 305
235.14922 1426
237.12001 316
237.12999 451
237.17094 388
239.145 1201
240.12712 242
241.12405 949
241.15811 641
241.17082 585
243.13931 1975
244.1395 527
244.1503 253
244.15675 303
245.14772 1162
245.16635 1002
246.13963 269
246.15469 471
246.1618 438
247.13869 958
247.15106 1239
248.14751 315
248.15996 303
249.15198 238
249.16849 948
250.17128 576
250.18399 584
251.12296 718
251.14197 291
251.16002 1800
251.17921 510
252.19199 440
255.12482 611
255.14148 579
255.16127 586
255.18036 359
257.15628 1809
258.14236 447
258.16 446
259.13406 1435
259.16846 545
260.12094 259
260.13699 474
260.15628 265
261.16653 1165
262.16641 411
262.19128 234
263.13571 346
263.14896 331
263.17923 1545
264.18002 210
264.20724 229
265.18442 404
265.20078 297
266.15652 334
267.1301 630
267.17062 301
267.18677 448
269.13644 379
269.15472 623
269.1763 508
269.18823 335
269.19974 271
271.14316 207
271.16992 550
273.16452 1290
273.18732 1169
274.17517 680
276.18335 274
277.15649 364
277.18927 291
279.15088 309
279.17691 856
280.1738 217
281.1384 226
281.15405 330
281.17792 567
281.19171 258
283.16022 418
283.17715 397
283.27084 534
289.19476 285
291.17813 1866
293.15039 360
293.16202 288
293.22952 373
295.14774 216
295.1618 520
295.17657 423
297.18323 1311
297.20953 383
303.21304 4276
304.21066 786
304.23401 504
307.16592 517
307.17847 642
307.20569 1385
307.21472 1365
308.18942 469
308.20184 439
308.21451 433
308.22586 265
309.18362 1181
309.19745 1737
309.2168 251
310.18552 279
311.20337 226
313.20477 276
321.22272 8967
322.22592 3873
323.18646 527
323.20099 242
323.21542 871
323.23087 590
325.20544 509
325.21991 833
327.18225 391
327.20193 382
331.20721 2440
332.20554 683
332.22873 323
339.23193 8046
340.23114 332
340.24643 460
341.24158 648
349.21692 9041
350.22171 3737
351.20334 309
351.2175 665
351.23572 632
357.24887 209
367.22726 18627
368.22949 3763
368.24832 3259
369.21677 315
369.23499 1089
381.24738 1365
382.2453 542
382.26175 846
383.23709 211
383.25137 260
386.24097 1086
387.24551 1193
388.25177 216
391.2233 351
399.25235 767
400.255 238
404.25165 914
405.25705 461
417.26468 4481
418.26627 1670
418.28262 653
420.27567 7489
421.25677 1287
421.27838 2304
422.22052 2014
422.27341 417
422.29114 383
422.72272 1811
423.18732 431
423.22525 1045
424.21262 243
425.22968 20592
426.23163 5053
427.21716 409
427.23807 712
434.29364 344
435.26923 594
441.19601 3837
442.19543 954
442.21008 891
443.19656 277
443.2153 415
443.24149 437
452.28357 351
452.298 458
457.1665 721
457.1853 548
457.25681 4053
458.25644 1061
459.15924 212
459.17667 216
623.31415 528
623.33887 2469
623.81879 475
624.32581 703
624.83557 321
630.35712 1312
806.50452 3763
807.49139 865
822.50232 317
822.5368 997
824.51367 239
825.47528 424
827.45074 2053
827.48346 1898
Name: Dehydrocholic acid
PrecursorMZ: 805.4884
PrecursorType: [2M+H]+
IonMode: Positive
Formula: C24H34O5
SMILES: CC(CCC(=O)O)C1CCC2C1(C(=O)CC3C2C(=O)CC4C3(CCC(=O)C4)C)C
InChI: 
InChIKey: OHXPGWPVLFPUSM-KLRNGDHRSA-N
RetentionTime: 6.4918
CCS: 
CollisionEnergy: 20-40 eV
InstrumentType: UPLC-QTOF-MS
Comment: PI: Cristina Nerin; Data collector: QiZhi Su, GUIA, University of Zaragoza, Spain; Collision energy: 20-40 V; Instrument: Waters HPLC-QTOF-MS (Xevo G2 QTof); Ionization: ESI; Deconvoluted by MS-DIAL; Column: Waters AtlantisTM premier BEH C18 AX column (2.1 × 100mm x 1.7μm); Flow rate: 0.3mL/min; Mobile phase A and B are water and methnaol, respectively, both with 0.1% formic acid; Gradient elution: from A/B (95/5) to A/B (100/0) in 7min, kept for 4 min, then back to A/B (95/5) in 0.1 min, and maintained for additional 1.9 min (13min in total).; Injection volume: 10 μL
Num peaks: 66
121.06248 1251
121.06918 1256
121.0878 1224
121.10019 1011
121.11089 1003
121.11964 959
133.08775 1387
145.10297 3567
147.1179 3613
157.10347 3015
159.11841 4732
181.09824 1017
181.1156 1101
182.10071 1038
182.1122 1035
183.12216 2627
185.13446 2857
195.11726 4656
196.12294 1481
197.13365 10239
198.13818 1685
209.13463 3303
211.14975 6916
213.12849 2499
221.12767 2690
221.14214 2696
225.12781 3024
241.12532 4346
245.15486 1076
247.14883 2206
249.16336 2267
259.13489 2110
261.15152 1017
263.1792 3424
263.19193 3332
273.18091 1274
279.16885 1109
279.18106 1162
297.1861 1887
303.21252 6324
323.21118 1112
332.21191 1009
339.23166 8840
340.23529 1054
349.21719 8222
350.22266 1400
367.22693 23151
368.23117 6280
381.24255 2039
385.23743 88222
386.24191 21501
387.2413 3114
387.26245 2107
399.25409 2405
403.24893 46462
404.25174 9948
405.25458 1540
417.2644 8021
420.27567 11786
421.26822 2850
421.28543 2650
422.72147 4399
623.33557 2648
623.84009 1798
630.85474 1108
805.48718 7719
Name: Dehydrocholic acid
PrecursorMZ: 403.2489
PrecursorType: [M+H]+
IonMode: Positive
Formula: C24H34O5
SMILES: CC(CCC(=O)O)C1CCC2C1(C(=O)CC3C2C(=O)CC4C3(CCC(=O)C4)C)C
InChI: 
InChIKey: OHXPGWPVLFPUSM-KLRNGDHRSA-N
RetentionTime: 6.495616
CCS: 
CollisionEnergy: 20-40 eV
InstrumentType: UPLC-QTOF-MS
Comment: PI: Cristina Nerin; Data collector: QiZhi Su, GUIA, University of Zaragoza, Spain; Collision energy: 20-40 V; Instrument: Waters HPLC-QTOF-MS (Xevo G2 QTof); Ionization: ESI; Deconvoluted by MS-DIAL; Column: Waters AtlantisTM premier BEH C18 AX column (2.1 × 100mm x 1.7μm); Flow rate: 0.3mL/min; Mobile phase A and B are water and methnaol, respectively, both with 0.1% formic acid; Gradient elution: from A/B (95/5) to A/B (100/0) in 7min, kept for 4 min, then back to A/B (95/5) in 0.1 min, and maintained for additional 1.9 min (13min in total).; Injection volume: 10 μL
Num peaks: 57
119.08699 1838
121.06613 1244
121.10059 1011
121.10856 999
133.08611 1404
145.10286 3567
147.11876 3601
157.10237 3022
157.11436 2972
159.11758 4741
161.11308 2137
181.09727 1017
182.10692 1029
183.11856 2630
185.13333 2873
195.11743 4656
197.13412 10243
198.13242 1686
198.14157 1661
209.13431 3302
211.15045 6918
212.16159 1467
213.12672 2499
213.13644 2522
221.12505 2730
221.13478 2725
223.11787 1370
225.11476 3044
225.1304 3028
237.15849 1153
241.12358 4347
245.15462 1076
247.14992 2180
249.16466 2272
259.13757 2106
263.17914 3425
273.16406 1922
279.17538 1216
279.18811 1219
289.18625 896
297.1889 1869
303.21182 6324
304.21973 1434
321.22296 15696
332.20795 1006
339.23312 7714
340.23672 1212
349.21667 7304
350.22064 1411
367.22742 20641
368.23029 5175
381.24417 1568
385.23773 88222
386.24136 21265
387.24548 3031
399.25369 2301
403.24835 48634
Name: Dehydrocholic acid
PrecursorMZ: 822.5159
PrecursorType: [2M+NH4]+
IonMode: Positive
Formula: C24H34O5
SMILES: CC(CCC(=O)O)C1CCC2C1(C(=O)CC3C2C(=O)CC4C3(CCC(=O)C4)C)C
InChI: 
InChIKey: OHXPGWPVLFPUSM-KLRNGDHRSA-N
RetentionTime: 6.495616
CCS: 
CollisionEnergy: 20-40 eV
InstrumentType: UPLC-QTOF-MS
Comment: PI: Cristina Nerin; Data collector: QiZhi Su, GUIA, University of Zaragoza, Spain; Collision energy: 20-40 V; Instrument: Waters HPLC-QTOF-MS (Xevo G2 QTof); Ionization: ESI; Deconvoluted by MS-DIAL; Column: Waters AtlantisTM premier BEH C18 AX column (2.1 × 100mm x 1.7μm); Flow rate: 0.3mL/min; Mobile phase A and B are water and methnaol, respectively, both with 0.1% formic acid; Gradient elution: from A/B (95/5) to A/B (100/0) in 7min, kept for 4 min, then back to A/B (95/5) in 0.1 min, and maintained for additional 1.9 min (13min in total).; Injection volume: 10 μL
Num peaks: 81
107.08743 1008
109.08292 947
119.08699 1838
121.06613 1244
121.10059 1011
121.10856 999
123.0807 1091
123.09365 1090
131.08693 2012
133.08611 1404
145.10286 3567
147.11876 3601
157.10237 3022
157.11436 2972
159.11758 4744
161.11308 2137
181.09727 1017
182.10692 1029
183.11856 2634
185.13333 2873
195.11743 4656
197.13412 10243
198.13242 1686
198.14157 1661
209.13431 3303
211.15045 6918
212.16159 1467
213.12672 2499
213.13644 2522
221.12505 2732
221.13478 2727
223.11787 1370
225.11476 3044
225.1304 3028
237.15849 1153
241.12358 4347
245.15462 1076
247.14992 2180
249.16466 2272
259.13757 2106
263.17914 3425
273.16406 1922
279.17538 1216
279.18811 1219
289.18625 896
297.1889 1869
303.21182 6324
304.21973 1434
307.20563 1650
321.22296 15696
323.22556 995
332.20795 1006
339.23312 5085
340.23672 1149
349.21667 4526
350.22064 5333
367.22742 14246
368.23029 4280
381.24417 996
385.23773 88222
386.24136 21566
387.2251 1326
387.24548 2395
399.25369 2242
403.24835 46357
404.25095 9760
405.25082 1156
405.26776 1605
417.26599 8018
418.26523 2368
420.27493 11786
422.72314 4399
441.18896 3718
441.20654 4188
623.84119 2860
630.84766 1012
805.46765 3292
805.49652 7937
806.48993 3922
807.48621 972
822.51935 3388
Name: Norethisterone acetate
PrecursorMZ: 341.2127
PrecursorType: [M+H]+
IonMode: Positive
Formula: C22H28O3
SMILES: CC(=O)OC1(CCC2C1(CCC3C2CCC4=CC(=O)CCC34)C)C#C
InChI: 
InChIKey: IMONTRJLAWHYGT-ZCPXKWAGSA-N
RetentionTime: 7.265633
CCS: 
CollisionEnergy: 20-40 eV
InstrumentType: UPLC-QTOF-MS
Comment: PI: Cristina Nerin; Data collector: QiZhi Su, GUIA, University of Zaragoza, Spain; Collision energy: 20-40 V; Instrument: Waters HPLC-QTOF-MS (Xevo G2 QTof); Ionization: ESI; Deconvoluted by MS-DIAL; Column: Waters AtlantisTM premier BEH C18 AX column (2.1 × 100mm x 1.7μm); Flow rate: 0.3mL/min; Mobile phase A and B are water and methnaol, respectively, both with 0.1% formic acid; Gradient elution: from A/B (95/5) to A/B (100/0) in 7min, kept for 4 min, then back to A/B (95/5) in 0.1 min, and maintained for additional 1.9 min (13min in total).; Injection volume: 10 μL
Num peaks: 35
81.0708 4690
83.05021 6636
91.05544 6818
93.07064 7094
105.07093 8440
107.05056 7417
107.06191 7488
109.06593 24745
117.05316 7143
117.07083 7159
119.08637 15869
119.10261 16023
129.07092 8798
131.08636 12668
133.10182 5762
143.08655 10781
145.08337 15927
145.10196 15144
155.08601 5600
157.10234 9386
159.11797 5163
169.10207 10897
171.11787 13037
183.11797 5899
221.13411 6014
223.15001 6450
235.15065 5244
237.16522 4706
239.18239 7622
257.19186 11479
263.18216 8651
281.19083 51807
282.19507 10282
299.2016 12018
341.21191 460237
Name: 2'-Deoxyguanosine
PrecursorMZ: 268.1057
PrecursorType: [M+H]+
IonMode: Positive
Formula: C10H13N5O4
SMILES: C1C(C(OC1N2C=NC3=C2N=C(NC3=O)N)CO)O
InChI: 
InChIKey: YKBGVTZYEHREMT-KVQBGUIXSA-N
RetentionTime: 0.8518667
CCS: 
CollisionEnergy: 20-40 eV
InstrumentType: UPLC-QTOF-MS
Comment: PI: Cristina Nerin; Data collector: QiZhi Su, GUIA, University of Zaragoza, Spain; Collision energy: 20-40 V; Instrument: Waters HPLC-QTOF-MS (Xevo G2 QTof); Ionization: ESI; Deconvoluted by MS-DIAL; Column: Waters AtlantisTM premier BEH C18 AX column (2.1 × 100mm x 1.7μm); Flow rate: 0.3mL/min; Mobile phase A and B are water and methnaol, respectively, both with 0.1% formic acid; Gradient elution: from A/B (95/5) to A/B (100/0) in 7min, kept for 4 min, then back to A/B (95/5) in 0.1 min, and maintained for additional 1.9 min (13min in total).; Injection volume: 10 μL
Num peaks: 11
82.04108 1880
107.03552 1816
107.04929 1859
110.03591 15696
117.05485 2928
117.07003 2934
135.03122 46075
136.03238 2382
152.05779 152976
153.05945 10082
268.10522 18192
Name: Norethisterone acetate
PrecursorMZ: 681.4155
PrecursorType: [2M+H]+
IonMode: Positive
Formula: C22H28O3
SMILES: CC(=O)OC1(CCC2C1(CCC3C2CCC4=CC(=O)CCC34)C)C#C
InChI: 
InChIKey: IMONTRJLAWHYGT-ZCPXKWAGSA-N
RetentionTime: 7.265633
CCS: 
CollisionEnergy: 20-40 eV
InstrumentType: UPLC-QTOF-MS
Comment: PI: Cristina Nerin; Data collector: QiZhi Su, GUIA, University of Zaragoza, Spain; Collision energy: 20-40 V; Instrument: Waters HPLC-QTOF-MS (Xevo G2 QTof); Ionization: ESI; Deconvoluted by MS-DIAL; Column: Waters AtlantisTM premier BEH C18 AX column (2.1 × 100mm x 1.7μm); Flow rate: 0.3mL/min; Mobile phase A and B are water and methnaol, respectively, both with 0.1% formic acid; Gradient elution: from A/B (95/5) to A/B (100/0) in 7min, kept for 4 min, then back to A/B (95/5) in 0.1 min, and maintained for additional 1.9 min (13min in total).; Injection volume: 10 μL
Num peaks: 39
81.0708 4690
83.05021 6636
91.05544 6818
93.07064 7094
105.07093 8440
107.05056 7417
107.06191 7488
109.06593 24745
117.05316 7143
117.07083 7159
119.08637 15869
119.10261 16023
129.07092 8798
131.08636 12668
133.10182 5762
143.08655 10781
145.08337 15927
145.10196 15144
155.08601 5600
157.10234 9386
159.11797 5163
169.10207 10897
171.11787 13037
181.10167 4391
183.11797 5899
197.13406 4547
221.13411 6014
223.15001 6450
235.15065 5244
237.16522 4706
239.18239 7622
257.19186 11479
263.18216 8651
281.19083 51807
282.19507 10282
299.2016 12018
341.21191 438806
342.21539 98075
343.21881 12158
Name: Norethisterone acetate
PrecursorMZ: 703.3974
PrecursorType: [2M+Na]+
IonMode: Positive
Formula: C22H28O3
SMILES: CC(=O)OC1(CCC2C1(CCC3C2CCC4=CC(=O)CCC34)C)C#C
InChI: 
InChIKey: IMONTRJLAWHYGT-ZCPXKWAGSA-N
RetentionTime: 7.27325
CCS: 
CollisionEnergy: 20-40 eV
InstrumentType: UPLC-QTOF-MS
Comment: PI: Cristina Nerin; Data collector: QiZhi Su, GUIA, University of Zaragoza, Spain; Collision energy: 20-40 V; Instrument: Waters HPLC-QTOF-MS (Xevo G2 QTof); Ionization: ESI; Deconvoluted by MS-DIAL; Column: Waters AtlantisTM premier BEH C18 AX column (2.1 × 100mm x 1.7μm); Flow rate: 0.3mL/min; Mobile phase A and B are water and methnaol, respectively, both with 0.1% formic acid; Gradient elution: from A/B (95/5) to A/B (100/0) in 7min, kept for 4 min, then back to A/B (95/5) in 0.1 min, and maintained for additional 1.9 min (13min in total).; Injection volume: 10 μL
Num peaks: 294
55.03556 86
71.0472 82
71.05273 82
77.03553 185
77.04428 181
79.04058 747
79.05471 763
81.07062 180
81.08701 180
83.04968 1230
83.08222 141
83.08669 146
84.05481 240
84.06462 230
85.05209 75
85.06521 75
85.07127 76
91.05539 1006
93.07167 659
95.04625 66
95.05221 69
95.08642 452
97.04705 93
97.06122 488
97.06825 484
97.07687 527
97.08804 385
97.09568 177
105.07083 1303
106.06196 266
106.07149 176
106.07842 181
107.08669 737
108.05003 169
108.05596 146
108.06533 155
109.06552 3250
109.0869 339
109.10316 243
109.12189 503
110.06899 282
111.07765 228
111.08628 211
111.0928 259
115.03931 466
115.0547 704
115.06462 738
115.07649 384
116.04903 91
116.06104 90
116.07787 71
117.07043 813
118.07351 317
118.08081 323
118.09033 339
119.0862 2313
120.09068 167
121.06278 57
121.06889 56
121.10181 323
122.09917 131
122.10746 133
123.08243 105
123.11581 60
123.12165 89
127.04168 60
128.06265 329
128.07996 330
129.07033 316
130.07683 186
131.08665 1096
133.06621 465
133.10228 893
134.05061 89
134.11938 92
135.08206 958
136.08614 103
141.07111 478
142.06142 299
142.07945 698
143.08647 1143
144.09077 391
145.10205 2311
146.10654 330
147.11761 279
149.09773 465
150.13069 365
150.14572 364
151.09732 135
151.10925 217
151.11847 207
152.06517 64
152.07828 70
153.06995 434
153.09125 168
155.08688 503
156.09375 548
156.1021 534
156.11372 362
157.06517 171
157.07771 171
157.1028 644
157.1226 2317
159.08189 489
159.1178 651
160.08606 216
160.1208 67
160.13129 58
161.07722 2504
161.09721 219
161.1284 126
161.13612 121
163.11209 403
165.07111 368
165.08096 352
165.11328 153
166.07089 184
166.07787 249
166.08562 235
166.09785 606
167.08783 83
169.10188 844
170.09915 569
170.10907 507
170.12595 255
171.08286 67
171.11806 1349
173.09721 374
173.1337 692
174.07524 103
174.09138 126
174.10524 118
174.13684 136
174.15237 116
175.10289 270
175.11278 255
175.14192 89
175.14909 154
175.15594 149
177.09215 57
178.07729 97
178.1142 76
178.12857 69
181.10226 714
182.10811 283
182.1167 288
183.11781 831
184.12106 167
184.13358 204
185.13382 451
186.0842 106
186.11598 152
187.14754 165
187.16299 74
188.117 296
188.12834 335
190.1022 78
190.12173 167
190.132 118
191.08908 71
191.10815 222
191.14362 78
191.15935 124
192.09456 490
193.1028 57
193.12685 166
195.11838 576
197.09683 271
197.13428 672
197.15562 996
199.11327 428
199.15096 245
200.12137 260
201.12843 102
202.13834 58
204.08228 59
206.1035 176
206.11658 199
206.15013 78
207.11813 888
208.12463 137
209.13205 500
211.1115 156
211.11952 154
211.14998 707
212.12111 133
214.17546 73
217.14549 122
219.11879 67
221.13429 470
222.13368 344
222.14166 348
223.14958 1063
225.12857 230
225.1396 482
225.16609 269
226.11732 335
226.13033 323
226.14171 249
232.17259 69
232.1897 77
233.13684 247
233.19789 67
235.1494 92
235.19217 58
236.1562 74
237.12425 66
239.14555 233
239.18088 552
240.1272 203
240.1461 175
241.15788 347
241.1741 218
242.15208 69
242.1611 68
248.14998 295
248.1606 211
251.12868 113
251.14371 93
252.12791 56
252.14583 64
252.17865 77
253.16153 446
254.14606 75
254.16237 78
255.17044 186
255.181 140
256.17038 77
257.19193 717
258.16589 86
258.19568 272
258.22217 355
261.16888 65
263.18097 660
265.14655 143
265.15717 81
265.19193 81
266.16452 190
266.18915 563
271.20016 70
281.19101 1015
282.19443 235
293.07938 61
299.20239 421
300.20523 62
303.18277 136
304.15756 89
304.17679 120
304.18683 109
334.9599 66
336.13034 83
342.21475 360
343.04193 72
343.0618 77
348.58847 63
363.19351 5551
364.19836 734
365.12924 65
365.18027 228
365.20157 189
379.15152 178
379.16815 175
380.15738 110
380.17334 58
393.13507 95
393.15079 131
394.11975 127
394.13394 109
395.12781 518
395.14139 398
396.11664 199
396.14072 255
399.13443 72
421.26553 69
439.16974 119
455.17307 173
471.17731 78
482.14459 57
548.79541 97
553.78381 192
679.35321 59
681.40894 163
692.38385 383
692.40851 472
693.40204 103
693.42963 62
693.91467 73
694.4151 132
700.32306 70
700.89099 860
700.93304 57
701.40607 618
702.38562 66
703.39484 2013
Name: Norethisterone acetate
PrecursorMZ: 363.1947
PrecursorType: [M+Na]+
IonMode: Positive
Formula: C22H28O3
SMILES: CC(=O)OC1(CCC2C1(CCC3C2CCC4=CC(=O)CCC34)C)C#C
InChI: 
InChIKey: IMONTRJLAWHYGT-ZCPXKWAGSA-N
RetentionTime: 7.27705
CCS: 
CollisionEnergy: 20-40 eV
InstrumentType: UPLC-QTOF-MS
Comment: PI: Cristina Nerin; Data collector: QiZhi Su, GUIA, University of Zaragoza, Spain; Collision energy: 20-40 V; Instrument: Waters HPLC-QTOF-MS (Xevo G2 QTof); Ionization: ESI; Deconvoluted by MS-DIAL; Column: Waters AtlantisTM premier BEH C18 AX column (2.1 × 100mm x 1.7μm); Flow rate: 0.3mL/min; Mobile phase A and B are water and methnaol, respectively, both with 0.1% formic acid; Gradient elution: from A/B (95/5) to A/B (100/0) in 7min, kept for 4 min, then back to A/B (95/5) in 0.1 min, and maintained for additional 1.9 min (13min in total).; Injection volume: 10 μL
Num peaks: 32
79.05502 615
83.05006 937
105.07156 725
105.09137 5056
107.08667 605
109.06549 2259
115.05546 583
115.06262 623
115.07095 677
117.07057 719
119.08615 2000
133.10208 779
135.08177 623
142.07964 519
142.09848 816
143.08607 943
145.10187 1701
171.11765 916
173.15356 1563
181.1021 617
195.11789 552
195.12885 565
197.1282 599
197.13808 513
207.11746 755
211.14847 543
223.14975 798
257.19205 674
263.17203 558
263.18204 559
281.19125 618
363.19275 50791
Name: Norethisterone acetate
PrecursorMZ: 379.1688
PrecursorType: [M+K]+
IonMode: Positive
Formula: C22H28O3
SMILES: CC(=O)OC1(CCC2C1(CCC3C2CCC4=CC(=O)CCC34)C)C#C
InChI: 
InChIKey: IMONTRJLAWHYGT-ZCPXKWAGSA-N
RetentionTime: 7.27705
CCS: 
CollisionEnergy: 20-40 eV
InstrumentType: UPLC-QTOF-MS
Comment: PI: Cristina Nerin; Data collector: QiZhi Su, GUIA, University of Zaragoza, Spain; Collision energy: 20-40 V; Instrument: Waters HPLC-QTOF-MS (Xevo G2 QTof); Ionization: ESI; Deconvoluted by MS-DIAL; Column: Waters AtlantisTM premier BEH C18 AX column (2.1 × 100mm x 1.7μm); Flow rate: 0.3mL/min; Mobile phase A and B are water and methnaol, respectively, both with 0.1% formic acid; Gradient elution: from A/B (95/5) to A/B (100/0) in 7min, kept for 4 min, then back to A/B (95/5) in 0.1 min, and maintained for additional 1.9 min (13min in total).; Injection volume: 10 μL
Num peaks: 232
71.04375 54
71.05215 55
77.03972 181
79.05502 615
81.07101 254
82.99133 90
83.05006 937
83.08436 104
83.10339 102
84.05359 192
85.05897 84
85.06317 87
85.06837 84
85.07429 94
91.05506 456
93.07005 351
95.0488 97
95.07114 440
95.0864 449
97.04803 62
97.06502 391
97.07857 425
105.07156 725
105.09137 5056
106.07452 56
107.08667 605
108.05261 101
108.05915 83
108.11295 82
109.06549 2259
109.10107 232
109.11159 222
110.06984 245
111.07518 155
111.08242 153
115.05546 583
115.06262 623
115.07095 677
116.04561 78
117.07057 719
118.0743 261
118.08685 281
119.08615 2000
120.09131 73
121.09006 207
121.1025 122
122.10372 80
122.11061 76
123.08176 113
123.12435 76
124.10944 62
125.09486 55
125.10847 51
127.06746 53
129.07057 67
130.07722 108
130.78859 52
131.03018 97
131.08667 489
133.06628 296
133.10208 779
135.08177 623
136.07092 116
136.08438 51
141.07043 297
142.07964 519
142.09848 816
143.08607 943
144.09221 230
145.10187 1701
146.10452 282
147.1172 74
147.12471 100
149.09697 240
150.12575 352
150.14163 360
151.11267 216
151.1212 231
153.05402 172
153.06999 364
153.08821 304
153.13371 61
155.0871 385
156.09344 443
157.0661 106
157.10164 326
159.08199 347
159.11844 407
160.07848 160
160.08733 157
161.09732 161
163.11307 218
165.05725 252
165.07085 237
165.08139 248
166.0643 82
166.07956 222
166.0954 260
166.10603 54
169.10231 466
170.06984 71
170.07922 216
170.10732 208
171.11765 916
173.09668 349
173.10857 363
173.13306 443
173.15356 1563
174.08577 81
174.10103 121
174.1077 120
174.12596 127
175.084 161
175.11388 179
175.14163 64
175.15045 114
175.1647 69
177.09241 72
178.0809 144
178.10194 68
178.13316 70
181.1021 617
182.0867 223
182.1059 281
182.11481 268
183.11777 429
184.05688 72
184.1237 74
185.13429 269
186.11349 176
187.14011 137
187.14882 172
188.11194 324
188.1227 323
189.17351 83
190.12442 62
190.13559 51
191.07013 113
191.14539 119
192.0939 420
193.12825 132
195.11789 552
195.12885 565
196.14211 407
197.09183 157
197.10248 232
197.1282 599
197.13808 513
198.16869 53
199.1129 306
199.14943 147
200.11124 217
200.12509 241
200.13737 243
201.12578 51
202.13881 60
206.1098 97
206.13239 168
207.11746 755
209.13339 364
210.12683 63
211.11414 90
211.14847 543
212.10587 158
212.11621 116
212.12881 144
214.14297 67
214.17581 58
215.17117 154
220.14879 59
221.13446 276
222.13338 284
222.14395 315
223.14975 798
225.12836 180
225.16522 237
226.11934 285
226.13568 286
230.15283 55
230.16678 58
233.12128 219
233.13878 189
234.14084 51
235.15004 143
236.15178 75
238.12476 66
239.14375 60
239.1801 272
240.12219 57
240.15344 111
241.16112 280
242.14449 77
248.15617 210
248.16464 138
251.13426 140
251.14859 81
253.16037 353
253.18614 345
255.17757 100
256.1712 86
256.18704 51
257.19205 674
258.18335 278
258.19687 202
263.17203 558
263.18204 559
265.20425 74
266.14294 192
266.16394 76
266.1756 88
266.19736 116
281.19125 618
283.17487 231
299.20145 96
303.16428 106
303.177 100
304.16849 84
304.18314 93
323.21573 89
334.9697 64
336.11533 53
341.0708 51
341.2113 200
342.21484 501
363.19275 4888
364.19577 742
365.16287 58
365.2002 269
366.18866 69
366.2059 52
379.07959 52
379.15613 945
Name: 2'-Deoxyguanosine
PrecursorMZ: 535.2017
PrecursorType: [2M+H]+
IonMode: Positive
Formula: C10H13N5O4
SMILES: C1C(C(OC1N2C=NC3=C2N=C(NC3=O)N)CO)O
InChI: 
InChIKey: YKBGVTZYEHREMT-KVQBGUIXSA-N
RetentionTime: 0.8518667
CCS: 
CollisionEnergy: 20-40 eV
InstrumentType: UPLC-QTOF-MS
Comment: PI: Cristina Nerin; Data collector: QiZhi Su, GUIA, University of Zaragoza, Spain; Collision energy: 20-40 V; Instrument: Waters HPLC-QTOF-MS (Xevo G2 QTof); Ionization: ESI; Deconvoluted by MS-DIAL; Column: Waters AtlantisTM premier BEH C18 AX column (2.1 × 100mm x 1.7μm); Flow rate: 0.3mL/min; Mobile phase A and B are water and methnaol, respectively, both with 0.1% formic acid; Gradient elution: from A/B (95/5) to A/B (100/0) in 7min, kept for 4 min, then back to A/B (95/5) in 0.1 min, and maintained for additional 1.9 min (13min in total).; Injection volume: 10 μL
Num peaks: 13
82.04108 1880
107.03552 1816
107.04929 1859
110.03591 15696
117.05485 2928
117.07003 2934
135.03122 46075
136.03238 2382
152.05779 152976
153.05945 10082
268.10522 15310
269.10895 1917
535.20239 16568
Name: Phloroglucinol
PrecursorMZ: 127.0403
PrecursorType: [M+H]+
IonMode: Positive
Formula: C6H6O3
SMILES: C1=C(C=C(C=C1O)O)O
InChI: 
InChIKey: QCDYQQDYXPDABM-UHFFFAOYSA-N
RetentionTime: 0.9813167
CCS: 
CollisionEnergy: 20-40 eV
InstrumentType: UPLC-QTOF-MS
Comment: PI: Cristina Nerin; Data collector: QiZhi Su, GUIA, University of Zaragoza, Spain; Collision energy: 20-40 V; Instrument: Waters HPLC-QTOF-MS (Xevo G2 QTof); Ionization: ESI; Deconvoluted by MS-DIAL; Column: Waters AtlantisTM premier BEH C18 AX column (2.1 × 100mm x 1.7μm); Flow rate: 0.3mL/min; Mobile phase A and B are water and methnaol, respectively, both with 0.1% formic acid; Gradient elution: from A/B (95/5) to A/B (100/0) in 7min, kept for 4 min, then back to A/B (95/5) in 0.1 min, and maintained for additional 1.9 min (13min in total).; Injection volume: 10 μL
Num peaks: 33
55.03376 102
68.01425 126
69.00305 160
69.03434 178
71.0488 594
73.02869 184
80.0252 715
81.03468 909
81.04268 163
81.06951 158
82.04214 1074
83.02444 111
84.96197 596
93.01057 208
98.9832 109
99.04566 446
100.05233 106
100.93594 119
107.03492 883
107.04127 511
107.09383 189
109.02903 147
109.05302 544
110.03574 9772
111.03975 608
117.05575 1243
117.06917 139
119.06944 104
120.04604 116
122.03864 128
124.33287 105
127.03665 532
127.04589 187
Name: 2'-Deoxyguanosine
PrecursorMZ: 268.1053
PrecursorType: [M+H]+
IonMode: Positive
Formula: C10H13N5O4
SMILES: C1C(C(OC1N2C=NC3=C2N=C(NC3=O)N)CO)O
InChI: 
InChIKey: YKBGVTZYEHREMT-KVQBGUIXSA-N
RetentionTime: 1.922683
CCS: 
CollisionEnergy: 20-40 eV
InstrumentType: UPLC-QTOF-MS
Comment: PI: Cristina Nerin; Data collector: QiZhi Su, GUIA, University of Zaragoza, Spain; Collision energy: 20-40 V; Instrument: Waters HPLC-QTOF-MS (Xevo G2 QTof); Ionization: ESI; Deconvoluted by MS-DIAL; Column: Waters AtlantisTM premier BEH C18 AX column (2.1 × 100mm x 1.7μm); Flow rate: 0.3mL/min; Mobile phase A and B are water and methnaol, respectively, both with 0.1% formic acid; Gradient elution: from A/B (95/5) to A/B (100/0) in 7min, kept for 4 min, then back to A/B (95/5) in 0.1 min, and maintained for additional 1.9 min (13min in total).; Injection volume: 10 μL
Num peaks: 25
80.02512 625
82.04044 647
99.03617 426
99.04549 429
107.03258 711
107.03956 711
109.04952 414
109.05919 456
110.02098 6257
110.0364 6271
111.03334 375
111.03849 375
117.05637 725
134.03618 376
134.04776 389
134.05533 379
135.03113 16805
135.04781 16858
136.0255 1173
136.03291 1188
136.04231 1189
152.05772 35820
153.05981 2395
153.07843 1935
268.10422 2076
Name: 2'-Deoxyguanosine
PrecursorMZ: 535.2021
PrecursorType: [2M+H]+
IonMode: Positive
Formula: C10H13N5O4
SMILES: C1C(C(OC1N2C=NC3=C2N=C(NC3=O)N)CO)O
InChI: 
InChIKey: YKBGVTZYEHREMT-KVQBGUIXSA-N
RetentionTime: 1.922683
CCS: 
CollisionEnergy: 20-40 eV
InstrumentType: UPLC-QTOF-MS
Comment: PI: Cristina Nerin; Data collector: QiZhi Su, GUIA, University of Zaragoza, Spain; Collision energy: 20-40 V; Instrument: Waters HPLC-QTOF-MS (Xevo G2 QTof); Ionization: ESI; Deconvoluted by MS-DIAL; Column: Waters AtlantisTM premier BEH C18 AX column (2.1 × 100mm x 1.7μm); Flow rate: 0.3mL/min; Mobile phase A and B are water and methnaol, respectively, both with 0.1% formic acid; Gradient elution: from A/B (95/5) to A/B (100/0) in 7min, kept for 4 min, then back to A/B (95/5) in 0.1 min, and maintained for additional 1.9 min (13min in total).; Injection volume: 10 μL
Num peaks: 26
80.02512 625
82.04044 647
99.03617 426
99.04549 429
107.03258 711
107.03956 711
109.04952 414
109.05919 456
110.02098 6257
110.0364 6271
111.03334 375
111.03849 375
117.05637 725
134.03618 376
134.04776 389
134.05533 379
135.03113 16805
135.04781 16858
136.0255 1173
136.03291 1188
136.04231 1189
152.05772 35820
153.05981 2395
153.07843 1935
268.10422 1930
535.20972 1002
Name: Folic acid
PrecursorMZ: 442.1476
PrecursorType: [M+H]+
IonMode: Positive
Formula: C19H19N7O6
SMILES: C1=CC(=CC=C1C(=O)NC(CCC(=O)O)C(=O)O)NCC2=CN=C3C(=N2)C(=O)NC(=N3)N
InChI: 
InChIKey: OVBPIULPVIDEAO-LBPRGKRZSA-N
RetentionTime: 4.51395
CCS: 
CollisionEnergy: 20-40 eV
InstrumentType: UPLC-QTOF-MS
Comment: PI: Cristina Nerin; Data collector: QiZhi Su, GUIA, University of Zaragoza, Spain; Collision energy: 20-40 V; Instrument: Waters HPLC-QTOF-MS (Xevo G2 QTof); Ionization: ESI; Deconvoluted by MS-DIAL; Column: Waters AtlantisTM premier BEH C18 AX column (2.1 × 100mm x 1.7μm); Flow rate: 0.3mL/min; Mobile phase A and B are water and methnaol, respectively, both with 0.1% formic acid; Gradient elution: from A/B (95/5) to A/B (100/0) in 7min, kept for 4 min, then back to A/B (95/5) in 0.1 min, and maintained for additional 1.9 min (13min in total).; Injection volume: 10 μL
Num peaks: 34
68.04854 62
68.05333 62
84.04272 155
84.05177 155
98.9731 90
106.03703 168
106.04293 187
107.04266 61
119.03398 72
119.0508 68
120.04424 1472
121.03381 61
125.53796 83
125.54236 75
131.01683 62
134.03539 77
176.05714 1645
177.05139 261
177.0611 265
177.07761 267
183.06905 80
183.07976 78
184.07619 723
184.09785 469
185.07185 135
185.08124 130
278.06625 79
293.06155 72
293.08755 83
295.09448 5843
296.09763 599
297.10727 94
442.14468 1129
442.168 398
Name: N-Butyldiethanolamine
PrecursorMZ: 162.1505
PrecursorType: [M+H]+
IonMode: Positive
Formula: C8H19NO2
SMILES: CCCCN(CCO)CCO
InChI: 
InChIKey: GVNHOISKXMSMPX-UHFFFAOYSA-N
RetentionTime: 0.6120333
CCS: 
CollisionEnergy: 20-40 eV
InstrumentType: UPLC-QTOF-MS
Comment: PI: Cristina Nerin; Data collector: QiZhi Su, GUIA, University of Zaragoza, Spain; Collision energy: 20-40 V; Instrument: Waters HPLC-QTOF-MS (Xevo G2 QTof); Ionization: ESI; Deconvoluted by MS-DIAL; Column: Waters AtlantisTM premier BEH C18 AX column (2.1 × 100mm x 1.7μm); Flow rate: 0.3mL/min; Mobile phase A and B are water and methnaol, respectively, both with 0.1% formic acid; Gradient elution: from A/B (95/5) to A/B (100/0) in 7min, kept for 4 min, then back to A/B (95/5) in 0.1 min, and maintained for additional 1.9 min (13min in total).; Injection volume: 10 μL
Num peaks: 26
57.06994 855
58.06681 326
58.07318 326
62.06279 228
68.04491 279
68.05264 282
70.06594 12990
71.0601 719
71.07188 713
88.07688 14241
89.07937 643
89.08671 643
100.11224 1280
100.11804 1274
101.12154 157
102.09232 4072
103.09672 229
106.08676 2673
114.07268 199
114.082 198
118.12087 815
118.1261 815
144.13922 4388
145.14317 417
162.15021 8607
162.20004 166
Name: Sulfafurazole
PrecursorMZ: 268.0775
PrecursorType: [M+H]+
IonMode: Positive
Formula: C11H13N3O3S
SMILES: CC1=C(ON=C1C)NS(=O)(=O)C2=CC=C(C=C2)N
InChI: 
InChIKey: NHUHCSRWZMLRLA-UHFFFAOYSA-N
RetentionTime: 4.369267
CCS: 
CollisionEnergy: 20-40 eV
InstrumentType: UPLC-QTOF-MS
Comment: PI: Cristina Nerin; Data collector: QiZhi Su, GUIA, University of Zaragoza, Spain; Collision energy: 20-40 V; Instrument: Waters HPLC-QTOF-MS (Xevo G2 QTof); Ionization: ESI; Deconvoluted by MS-DIAL; Column: Waters AtlantisTM premier BEH C18 AX column (2.1 × 100mm x 1.7μm); Flow rate: 0.3mL/min; Mobile phase A and B are water and methnaol, respectively, both with 0.1% formic acid; Gradient elution: from A/B (95/5) to A/B (100/0) in 7min, kept for 4 min, then back to A/B (95/5) in 0.1 min, and maintained for additional 1.9 min (13min in total).; Injection volume: 10 μL
Num peaks: 22
65.02551 14854
65.03934 14829
68.05064 4245
71.0615 7780
80.05107 3837
86.05028 1717
86.06136 1740
92.03555 167818
92.05065 167833
93.05381 10957
93.0713 10968
96.04546 8651
108.04542 130604
109.04907 8161
113.05235 100081
113.07204 99604
114.07509 5041
114.09038 5104
156.01253 76965
157.01527 5754
158.0099 3432
268.07651 26334
Name: Sulfafurazole
PrecursorMZ: 535.1447
PrecursorType: [2M+H]+
IonMode: Positive
Formula: C11H13N3O3S
SMILES: CC1=C(ON=C1C)NS(=O)(=O)C2=CC=C(C=C2)N
InChI: 
InChIKey: NHUHCSRWZMLRLA-UHFFFAOYSA-N
RetentionTime: 4.369267
CCS: 
CollisionEnergy: 20-40 eV
InstrumentType: UPLC-QTOF-MS
Comment: PI: Cristina Nerin; Data collector: QiZhi Su, GUIA, University of Zaragoza, Spain; Collision energy: 20-40 V; Instrument: Waters HPLC-QTOF-MS (Xevo G2 QTof); Ionization: ESI; Deconvoluted by MS-DIAL; Column: Waters AtlantisTM premier BEH C18 AX column (2.1 × 100mm x 1.7μm); Flow rate: 0.3mL/min; Mobile phase A and B are water and methnaol, respectively, both with 0.1% formic acid; Gradient elution: from A/B (95/5) to A/B (100/0) in 7min, kept for 4 min, then back to A/B (95/5) in 0.1 min, and maintained for additional 1.9 min (13min in total).; Injection volume: 10 μL
Num peaks: 24
65.02551 14854
65.03934 14829
68.05064 4245
71.0615 7780
80.05107 3837
86.05028 1717
86.06136 1740
92.03555 167818
92.05065 167833
93.05381 10957
93.0713 10968
96.04546 8651
108.04542 130604
109.04907 8161
113.05235 100081
113.07204 99604
114.07509 5041
114.09038 5104
156.01253 76965
157.01527 5754
158.0099 3432
268.07651 20312
269.08032 2519
535.13995 1886
Name: Bisacodyl
PrecursorMZ: 362.141
PrecursorType: [M+H]+
IonMode: Positive
Formula: C22H19NO4
SMILES: CC(=O)OC1=CC=C(C=C1)C(C2=CC=C(C=C2)OC(=O)C)C3=CC=CC=N3
InChI: 
InChIKey: KHOITXIGCFIULA-UHFFFAOYSA-N
RetentionTime: 6.01925
CCS: 
CollisionEnergy: 20-40 eV
InstrumentType: UPLC-QTOF-MS
Comment: PI: Cristina Nerin; Data collector: QiZhi Su, GUIA, University of Zaragoza, Spain; Collision energy: 20-40 V; Instrument: Waters HPLC-QTOF-MS (Xevo G2 QTof); Ionization: ESI; Deconvoluted by MS-DIAL; Column: Waters AtlantisTM premier BEH C18 AX column (2.1 × 100mm x 1.7μm); Flow rate: 0.3mL/min; Mobile phase A and B are water and methnaol, respectively, both with 0.1% formic acid; Gradient elution: from A/B (95/5) to A/B (100/0) in 7min, kept for 4 min, then back to A/B (95/5) in 0.1 min, and maintained for additional 1.9 min (13min in total).; Injection volume: 10 μL
Num peaks: 11
167.07382 36714
183.06889 32362
184.07703 1456566
184.14781 19601
184.19905 28387
184.21222 33688
184.22592 27058
184.31131 24258
185.07994 195225
226.08728 79097
362.13849 149047
Name: "3',5'-Bis(tert-butyl)-4'-hydroxyacetophenone"
PrecursorMZ: 287.1421
PrecursorType: [M+K]+
IonMode: Positive
Formula: C16H24O2
SMILES: CC(=O)C1=CC(=C(C(=C1)C(C)(C)C)O)C(C)(C)C
InChI: 
InChIKey: WGJPGMJLARWHRK-UHFFFAOYSA-N
RetentionTime: 7.368417
CCS: 
CollisionEnergy: 20-40 eV
InstrumentType: UPLC-QTOF-MS
Comment: PI: Cristina Nerin; Data collector: QiZhi Su, GUIA, University of Zaragoza, Spain; Collision energy: 20-40 V; Instrument: Waters HPLC-QTOF-MS (Xevo G2 QTof); Ionization: ESI; Deconvoluted by MS-DIAL; Column: Waters AtlantisTM premier BEH C18 AX column (2.1 × 100mm x 1.7μm); Flow rate: 0.3mL/min; Mobile phase A and B are water and methnaol, respectively, both with 0.1% formic acid; Gradient elution: from A/B (95/5) to A/B (100/0) in 7min, kept for 4 min, then back to A/B (95/5) in 0.1 min, and maintained for additional 1.9 min (13min in total).; Injection volume: 10 μL
Num peaks: 14
57.07115 25280
137.06058 61296
138.06319 3465
159.0807 2136
175.11237 2937
177.0798 2329
177.09315 2378
193.12321 180820
194.12645 22735
249.18587 106692
250.18893 18468
251.19159 1921
268.65866 1905
268.67126 1907
Name: 6-Aminocaproic acid
PrecursorMZ: 132.103
PrecursorType: [M+H]+
IonMode: Positive
Formula: C6H13NO2
SMILES: C(CCC(=O)O)CCN
InChI: 
InChIKey: SLXKOJJOQWFEFD-UHFFFAOYSA-N
RetentionTime: 0.5930167
CCS: 
CollisionEnergy: 20-40 eV
InstrumentType: UPLC-QTOF-MS
Comment: PI: Cristina Nerin; Data collector: QiZhi Su, GUIA, University of Zaragoza, Spain; Collision energy: 20-40 V; Instrument: Waters HPLC-QTOF-MS (Xevo G2 QTof); Ionization: ESI; Deconvoluted by MS-DIAL; Column: Waters AtlantisTM premier BEH C18 AX column (2.1 × 100mm x 1.7μm); Flow rate: 0.3mL/min; Mobile phase A and B are water and methnaol, respectively, both with 0.1% formic acid; Gradient elution: from A/B (95/5) to A/B (100/0) in 7min, kept for 4 min, then back to A/B (95/5) in 0.1 min, and maintained for additional 1.9 min (13min in total).; Injection volume: 10 μL
Num peaks: 41
55.05198 205
55.05619 205
67.04276 400
67.05449 400
67.05958 404
68.04548 126
68.05186 126
68.06079 128
69.07043 6203
70.06577 551
70.07368 551
70.07977 551
71.04811 152
73.06512 962
77.03893 88
77.04383 88
79.04219 2918
79.0547 3036
79.06258 3038
80.05128 245
80.05888 247
80.06394 240
81.05608 169
81.0617 150
84.07645 94
84.0827 94
86.08204 71
86.09061 81
86.09822 121
96.08159 811
97.06471 608
97.07658 589
97.08109 544
98.06066 64
98.0696 67
104.06902 66
114.068 128
114.09295 1534
115.06053 131
115.07383 169
132.10507 849
Name: "3',5'-Bis(tert-butyl)-4'-hydroxyacetophenone"
PrecursorMZ: 497.3635
PrecursorType: [2M+H]+
IonMode: Positive
Formula: C16H24O2
SMILES: CC(=O)C1=CC(=C(C(=C1)C(C)(C)C)O)C(C)(C)C
InChI: 
InChIKey: WGJPGMJLARWHRK-UHFFFAOYSA-N
RetentionTime: 7.368417
CCS: 
CollisionEnergy: 20-40 eV
InstrumentType: UPLC-QTOF-MS
Comment: PI: Cristina Nerin; Data collector: QiZhi Su, GUIA, University of Zaragoza, Spain; Collision energy: 20-40 V; Instrument: Waters HPLC-QTOF-MS (Xevo G2 QTof); Ionization: ESI; Deconvoluted by MS-DIAL; Column: Waters AtlantisTM premier BEH C18 AX column (2.1 × 100mm x 1.7μm); Flow rate: 0.3mL/min; Mobile phase A and B are water and methnaol, respectively, both with 0.1% formic acid; Gradient elution: from A/B (95/5) to A/B (100/0) in 7min, kept for 4 min, then back to A/B (95/5) in 0.1 min, and maintained for additional 1.9 min (13min in total).; Injection volume: 10 μL
Num peaks: 20
57.07115 25280
137.06058 61296
138.06319 3465
159.0807 2136
175.11237 2937
177.0798 2329
177.09315 2378
193.12321 180820
194.12645 22735
249.18587 106692
250.18893 18468
251.19159 1921
268.65866 1905
268.67126 1907
384.25888 3393
385.25549 2681
392.24371 3759
392.74649 5297
400.23108 2039
400.7337 4867
Name: "3',5'-Bis(tert-butyl)-4'-hydroxyacetophenone"
PrecursorMZ: 519.3463
PrecursorType: [2M+Na]+
IonMode: Positive
Formula: C16H24O2
SMILES: CC(=O)C1=CC(=C(C(=C1)C(C)(C)C)O)C(C)(C)C
InChI: 
InChIKey: WGJPGMJLARWHRK-UHFFFAOYSA-N
RetentionTime: 7.368417
CCS: 
CollisionEnergy: 20-40 eV
InstrumentType: UPLC-QTOF-MS
Comment: PI: Cristina Nerin; Data collector: QiZhi Su, GUIA, University of Zaragoza, Spain; Collision energy: 20-40 V; Instrument: Waters HPLC-QTOF-MS (Xevo G2 QTof); Ionization: ESI; Deconvoluted by MS-DIAL; Column: Waters AtlantisTM premier BEH C18 AX column (2.1 × 100mm x 1.7μm); Flow rate: 0.3mL/min; Mobile phase A and B are water and methnaol, respectively, both with 0.1% formic acid; Gradient elution: from A/B (95/5) to A/B (100/0) in 7min, kept for 4 min, then back to A/B (95/5) in 0.1 min, and maintained for additional 1.9 min (13min in total).; Injection volume: 10 μL
Num peaks: 21
57.07115 25280
137.06058 61296
138.06319 3465
159.0807 2136
175.11237 2937
177.0798 2329
177.09315 2378
193.12321 180820
194.12645 22735
249.18587 106692
250.18893 18468
251.19159 1921
268.65866 1905
268.67126 1907
384.25888 3393
385.25549 2681
392.24371 3759
392.74649 5297
400.23108 2039
400.7337 4867
516.83838 2331
Name: "3',5'-Bis(tert-butyl)-4'-hydroxyacetophenone"
PrecursorMZ: 271.1689
PrecursorType: [M+Na]+
IonMode: Positive
Formula: C16H24O2
SMILES: CC(=O)C1=CC(=C(C(=C1)C(C)(C)C)O)C(C)(C)C
InChI: 
InChIKey: WGJPGMJLARWHRK-UHFFFAOYSA-N
RetentionTime: 7.372217
CCS: 
CollisionEnergy: 20-40 eV
InstrumentType: UPLC-QTOF-MS
Comment: PI: Cristina Nerin; Data collector: QiZhi Su, GUIA, University of Zaragoza, Spain; Collision energy: 20-40 V; Instrument: Waters HPLC-QTOF-MS (Xevo G2 QTof); Ionization: ESI; Deconvoluted by MS-DIAL; Column: Waters AtlantisTM premier BEH C18 AX column (2.1 × 100mm x 1.7μm); Flow rate: 0.3mL/min; Mobile phase A and B are water and methnaol, respectively, both with 0.1% formic acid; Gradient elution: from A/B (95/5) to A/B (100/0) in 7min, kept for 4 min, then back to A/B (95/5) in 0.1 min, and maintained for additional 1.9 min (13min in total).; Injection volume: 10 μL
Num peaks: 35
119.0332 312
119.04975 665
131.03818 624
131.04971 664
133.08504 355
135.08124 232
135.09407 262
137.06071 437
138.0648 1954
147.11977 286
149.05713 212
149.06354 201
159.08035 2046
160.07471 286
160.08391 283
175.11322 2534
176.11525 368
176.12657 315
193.19501 254
193.26471 477
193.27684 383
195.13013 898
195.1467 1204
233.13324 480
234.15926 509
247.03625 214
247.05295 197
251.19131 1886
251.20361 1915
255.16814 261
255.18671 845
255.19933 821
260.1416 218
268.66095 1796
271.16818 18963
Name: "3',5'-Bis(tert-butyl)-4'-hydroxyacetophenone"
PrecursorMZ: 271.1696
PrecursorType: [M+Na]+
IonMode: Positive
Formula: C16H24O2
SMILES: CC(=O)C1=CC(=C(C(=C1)C(C)(C)C)O)C(C)(C)C
InChI: 
InChIKey: WGJPGMJLARWHRK-UHFFFAOYSA-N
RetentionTime: 7.353283
CCS: 
CollisionEnergy: 20-40 eV
InstrumentType: UPLC-QTOF-MS
Comment: PI: Cristina Nerin; Data collector: QiZhi Su, GUIA, University of Zaragoza, Spain; Collision energy: 20-40 V; Instrument: Waters HPLC-QTOF-MS (Xevo G2 QTof); Ionization: ESI; Deconvoluted by MS-DIAL; Column: Waters AtlantisTM premier BEH C18 AX column (2.1 × 100mm x 1.7μm); Flow rate: 0.3mL/min; Mobile phase A and B are water and methnaol, respectively, both with 0.1% formic acid; Gradient elution: from A/B (95/5) to A/B (100/0) in 7min, kept for 4 min, then back to A/B (95/5) in 0.1 min, and maintained for additional 1.9 min (13min in total).; Injection volume: 10 μL
Num peaks: 12
57.07062 40094
137.06062 110525
138.06412 9047
175.11266 9885
177.09077 4248
193.12349 337791
194.12646 43389
195.13005 4574
249.18597 284729
250.18977 50107
251.19383 4937
271.16833 25585
Name: Fluorescein
PrecursorMZ: 333.0764
PrecursorType: [M+H]+
IonMode: Positive
Formula: C20H12O5
SMILES: C1=CC=C2C(=C1)C(=O)OC23C4=C(C=C(C=C4)O)OC5=C3C=CC(=C5)O
InChI: 
InChIKey: GNBHRKFJIUUOQI-UHFFFAOYSA-N
RetentionTime: 6.221467
CCS: 
CollisionEnergy: 20-40 eV
InstrumentType: UPLC-QTOF-MS
Comment: PI: Cristina Nerin; Data collector: QiZhi Su, GUIA, University of Zaragoza, Spain; Collision energy: 20-40 V; Instrument: Waters HPLC-QTOF-MS (Xevo G2 QTof); Ionization: ESI; Deconvoluted by MS-DIAL; Column: Waters AtlantisTM premier BEH C18 AX column (2.1 × 100mm x 1.7μm); Flow rate: 0.3mL/min; Mobile phase A and B are water and methnaol, respectively, both with 0.1% formic acid; Gradient elution: from A/B (95/5) to A/B (100/0) in 7min, kept for 4 min, then back to A/B (95/5) in 0.1 min, and maintained for additional 1.9 min (13min in total).; Injection volume: 10 μL
Num peaks: 8
231.08125 9821
259.07602 8899
271.07568 16011
287.07111 44249
288.07465 8834
289.08609 23620
333.07574 781603
333.25711 9274
Name: Valeramide
PrecursorMZ: 102.0926
PrecursorType: [M+H]+
IonMode: Positive
Formula: C5H11NO
SMILES: CCCCC(=O)N
InChI: 
InChIKey: IPWFJLQDVFKJDU-UHFFFAOYSA-N
RetentionTime: 2.932517
CCS: 
CollisionEnergy: 20-40 eV
InstrumentType: UPLC-QTOF-MS
Comment: PI: Cristina Nerin; Data collector: QiZhi Su, GUIA, University of Zaragoza, Spain; Collision energy: 20-40 V; Instrument: Waters HPLC-QTOF-MS (Xevo G2 QTof); Ionization: ESI; Deconvoluted by MS-DIAL; Column: Waters AtlantisTM premier BEH C18 AX column (2.1 × 100mm x 1.7μm); Flow rate: 0.3mL/min; Mobile phase A and B are water and methnaol, respectively, both with 0.1% formic acid; Gradient elution: from A/B (95/5) to A/B (100/0) in 7min, kept for 4 min, then back to A/B (95/5) in 0.1 min, and maintained for additional 1.9 min (13min in total).; Injection volume: 10 μL
Num peaks: 67
49.94024 56
53.04395 54
55.84698 37
57.03671 62
57.06959 39
57.07435 94
62.03221 37
65.03684 590
65.04179 527
66.04718 187
66.42142 84
67.05335 206
67.05698 208
70.99933 51
71.01708 61
73.04212 60
74.05576 122
75.06004 86
75.42858 39
77.04 212
77.04437 211
78.03419 1796
78.03974 547
78.20093 42
78.48031 36
79.04388 170
79.05052 56
79.05763 47
80.04991 560
81.05457 44
81.07794 76
85.04691 45
85.07089 122
86.95129 108
86.9707 37
86.98178 45
87.99858 54
88.53347 43
88.81104 55
90.052 39
91.04318 184
91.05169 148
92.05139 2199
92.96391 59
93.0371 50
93.05877 2830
93.07475 100
93.16006 65
94.06621 3564
94.81026 52
95.06257 131
95.07119 180
96.02072 59
96.05093 128
96.0879 62
96.16466 48
98.04315 40
98.95689 76
98.97939 112
98.99603 41
100.57047 61
101.0388 181
102.0022 53
102.03163 54
102.03786 40
102.09183 1055
102.10144 129
Name: Vitamin B6
PrecursorMZ: 170.0825
PrecursorType: [M+H]+
IonMode: Positive
Formula: C8H11NO3
SMILES: CC1=NC=C(C(=C1O)CO)CO
InChI: 
InChIKey: LXNHXLLTXMVWPM-UHFFFAOYSA-N
RetentionTime: 0.61585
CCS: 
CollisionEnergy: 20-40 eV
InstrumentType: UPLC-QTOF-MS
Comment: PI: Cristina Nerin; Data collector: QiZhi Su, GUIA, University of Zaragoza, Spain; Collision energy: 20-40 V; Instrument: Waters HPLC-QTOF-MS (Xevo G2 QTof); Ionization: ESI; Deconvoluted by MS-DIAL; Column: Waters AtlantisTM premier BEH C18 AX column (2.1 × 100mm x 1.7μm); Flow rate: 0.3mL/min; Mobile phase A and B are water and methnaol, respectively, both with 0.1% formic acid; Gradient elution: from A/B (95/5) to A/B (100/0) in 7min, kept for 4 min, then back to A/B (95/5) in 0.1 min, and maintained for additional 1.9 min (13min in total).; Injection volume: 10 μL
Num peaks: 24
77.03901 3525
77.04733 3524
79.03713 3163
79.05491 3691
79.06387 3643
80.0425 1098
80.05271 1136
81.03879 795
81.05639 1511
81.06342 1501
81.07254 1481
94.06536 973
94.07502 956
96.06908 1151
96.0818 1185
96.09314 1184
106.06571 2870
123.06963 1081
124.0761 3218
134.06104 49965
135.06293 4193
152.07167 11740
153.0675 957
153.07956 959
Name: Valeramide
PrecursorMZ: 102.0923
PrecursorType: [M+H]+
IonMode: Positive
Formula: C5H11NO
SMILES: CCCCC(=O)N
InChI: 
InChIKey: IPWFJLQDVFKJDU-UHFFFAOYSA-N
RetentionTime: 3.2566
CCS: 
CollisionEnergy: 20-40 eV
InstrumentType: UPLC-QTOF-MS
Comment: PI: Cristina Nerin; Data collector: QiZhi Su, GUIA, University of Zaragoza, Spain; Collision energy: 20-40 V; Instrument: Waters HPLC-QTOF-MS (Xevo G2 QTof); Ionization: ESI; Deconvoluted by MS-DIAL; Column: Waters AtlantisTM premier BEH C18 AX column (2.1 × 100mm x 1.7μm); Flow rate: 0.3mL/min; Mobile phase A and B are water and methnaol, respectively, both with 0.1% formic acid; Gradient elution: from A/B (95/5) to A/B (100/0) in 7min, kept for 4 min, then back to A/B (95/5) in 0.1 min, and maintained for additional 1.9 min (13min in total).; Injection volume: 10 μL
Num peaks: 81
51.69992 55
55.93536 80
56.97003 44
57.07173 305
58.07472 55
59.04852 26
60.04585 29
65.03286 40
65.04076 24
66.04674 160
66.05157 68
67.04581 34
67.05238 20
68.04903 53
68.05227 20
68.05894 45
68.98174 24
69.03201 21
69.06818 23
70.95578 28
73.94833 21
74.06122 444
77.04041 74
78.00113 26
78.03384 233
78.04102 60
78.98483 57
79.03225 54
79.04118 22
79.05485 33
80.04714 20
80.96919 22
81.05406 20
81.07033 181
81.94682 22
81.95831 27
81.96429 30
82.75934 24
82.95818 46
83.05091 49
84.08086 133
84.2384 81
84.94852 22
84.96233 285
85.06522 198
85.93928 24
86.01805 20
86.95575 28
86.96832 20
86.97938 66
87.51845 28
88.53132 58
90.03175 44
91.05768 56
91.33894 23
92.04809 84
92.05326 222
92.82159 22
93.05849 228
94.06461 371
95.07993 28
96.04552 25
96.93639 26
96.96181 43
96.96774 28
97.10089 20
97.53854 21
98.95944 20
98.97174 44
98.97709 37
99.05935 60
99.937 22
100.93067 70
100.93634 20
100.95879 106
100.96759 22
101.30758 66
101.93383 79
101.95191 34
101.97121 34
102.09254 1875
Name: Piperonyl butoxide
PrecursorMZ: 361.2001
PrecursorType: [M+Na]+
IonMode: Positive
Formula: C19H30O5
SMILES: CCCCOCCOCCOCC1=CC2=C(C=C1CCC)OCO2
InChI: 
InChIKey: FIPWRIJSWJWJAI-UHFFFAOYSA-N
RetentionTime: 7.662034
CCS: 
CollisionEnergy: 20-40 eV
InstrumentType: UPLC-QTOF-MS
Comment: PI: Cristina Nerin; Data collector: QiZhi Su, GUIA, University of Zaragoza, Spain; Collision energy: 20-40 V; Instrument: Waters HPLC-QTOF-MS (Xevo G2 QTof); Ionization: ESI; Deconvoluted by MS-DIAL; Column: Waters AtlantisTM premier BEH C18 AX column (2.1 × 100mm x 1.7μm); Flow rate: 0.3mL/min; Mobile phase A and B are water and methnaol, respectively, both with 0.1% formic acid; Gradient elution: from A/B (95/5) to A/B (100/0) in 7min, kept for 4 min, then back to A/B (95/5) in 0.1 min, and maintained for additional 1.9 min (13min in total).; Injection volume: 10 μL
Num peaks: 14
91.05499 2654
119.08646 25992
120.07314 2180
120.08963 2290
129.05186 1764
129.07091 1747
147.08139 22204
148.08531 2366
149.06064 18969
150.06444 1769
177.09212 92168
178.09575 9724
217.05403 1567
361.19876 133067
Name: Piperonyl butoxide
PrecursorMZ: 699.41
PrecursorType: [2M+Na]+
IonMode: Positive
Formula: C19H30O5
SMILES: CCCCOCCOCCOCC1=CC2=C(C=C1CCC)OCO2
InChI: 
InChIKey: FIPWRIJSWJWJAI-UHFFFAOYSA-N
RetentionTime: 7.662034
CCS: 
CollisionEnergy: 20-40 eV
InstrumentType: UPLC-QTOF-MS
Comment: PI: Cristina Nerin; Data collector: QiZhi Su, GUIA, University of Zaragoza, Spain; Collision energy: 20-40 V; Instrument: Waters HPLC-QTOF-MS (Xevo G2 QTof); Ionization: ESI; Deconvoluted by MS-DIAL; Column: Waters AtlantisTM premier BEH C18 AX column (2.1 × 100mm x 1.7μm); Flow rate: 0.3mL/min; Mobile phase A and B are water and methnaol, respectively, both with 0.1% formic acid; Gradient elution: from A/B (95/5) to A/B (100/0) in 7min, kept for 4 min, then back to A/B (95/5) in 0.1 min, and maintained for additional 1.9 min (13min in total).; Injection volume: 10 μL
Num peaks: 16
91.05499 2654
119.08646 25992
120.07314 2180
120.08963 2290
129.05186 1764
129.07091 1747
147.08139 22204
148.08531 2366
149.06064 18969
150.06444 1769
177.09212 92168
178.09575 9724
217.05403 1567
356.24249 954
361.19876 26270
362.20285 5192
Name: Piperonyl butoxide
PrecursorMZ: 356.2444
PrecursorType: [M+NH4]+
IonMode: Positive
Formula: C19H30O5
SMILES: CCCCOCCOCCOCC1=CC2=C(C=C1CCC)OCO2
InChI: 
InChIKey: FIPWRIJSWJWJAI-UHFFFAOYSA-N
RetentionTime: 7.66585
CCS: 
CollisionEnergy: 20-40 eV
InstrumentType: UPLC-QTOF-MS
Comment: PI: Cristina Nerin; Data collector: QiZhi Su, GUIA, University of Zaragoza, Spain; Collision energy: 20-40 V; Instrument: Waters HPLC-QTOF-MS (Xevo G2 QTof); Ionization: ESI; Deconvoluted by MS-DIAL; Column: Waters AtlantisTM premier BEH C18 AX column (2.1 × 100mm x 1.7μm); Flow rate: 0.3mL/min; Mobile phase A and B are water and methnaol, respectively, both with 0.1% formic acid; Gradient elution: from A/B (95/5) to A/B (100/0) in 7min, kept for 4 min, then back to A/B (95/5) in 0.1 min, and maintained for additional 1.9 min (13min in total).; Injection volume: 10 μL
Num peaks: 14
119.0865 12454
120.09 1127
129.05423 795
129.07082 750
129.08929 658
147.08131 10587
148.08453 1083
149.06058 8848
150.06401 581
177.09206 42591
178.09552 4380
207.10669 690
218.04178 569
356.24518 1758
Name: Piperonyl butoxide
PrecursorMZ: 694.4538
PrecursorType: [2M+NH4]+
IonMode: Positive
Formula: C19H30O5
SMILES: CCCCOCCOCCOCC1=CC2=C(C=C1CCC)OCO2
InChI: 
InChIKey: FIPWRIJSWJWJAI-UHFFFAOYSA-N
RetentionTime: 7.66585
CCS: 
CollisionEnergy: 20-40 eV
InstrumentType: UPLC-QTOF-MS
Comment: PI: Cristina Nerin; Data collector: QiZhi Su, GUIA, University of Zaragoza, Spain; Collision energy: 20-40 V; Instrument: Waters HPLC-QTOF-MS (Xevo G2 QTof); Ionization: ESI; Deconvoluted by MS-DIAL; Column: Waters AtlantisTM premier BEH C18 AX column (2.1 × 100mm x 1.7μm); Flow rate: 0.3mL/min; Mobile phase A and B are water and methnaol, respectively, both with 0.1% formic acid; Gradient elution: from A/B (95/5) to A/B (100/0) in 7min, kept for 4 min, then back to A/B (95/5) in 0.1 min, and maintained for additional 1.9 min (13min in total).; Injection volume: 10 μL
Num peaks: 14
119.0865 14882
120.09 1308
129.05423 963
129.07082 928
129.08929 816
147.08131 12984
148.08453 1329
149.06058 10737
150.06401 696
177.09206 54745
178.09552 5674
207.10669 673
361.19882 10518
362.2019 1721
Name: Piperonyl butoxide
PrecursorMZ: 377.1743
PrecursorType: [M+K]+
IonMode: Positive
Formula: C19H30O5
SMILES: CCCCOCCOCCOCC1=CC2=C(C=C1CCC)OCO2
InChI: 
InChIKey: FIPWRIJSWJWJAI-UHFFFAOYSA-N
RetentionTime: 7.681083
CCS: 
CollisionEnergy: 20-40 eV
InstrumentType: UPLC-QTOF-MS
Comment: PI: Cristina Nerin; Data collector: QiZhi Su, GUIA, University of Zaragoza, Spain; Collision energy: 20-40 V; Instrument: Waters HPLC-QTOF-MS (Xevo G2 QTof); Ionization: ESI; Deconvoluted by MS-DIAL; Column: Waters AtlantisTM premier BEH C18 AX column (2.1 × 100mm x 1.7μm); Flow rate: 0.3mL/min; Mobile phase A and B are water and methnaol, respectively, both with 0.1% formic acid; Gradient elution: from A/B (95/5) to A/B (100/0) in 7min, kept for 4 min, then back to A/B (95/5) in 0.1 min, and maintained for additional 1.9 min (13min in total).; Injection volume: 10 μL
Num peaks: 32
77.01957 1594
119.08659 535
131.04472 681
131.05176 676
136.04953 528
136.05791 577
147.08134 3200
149.06078 3319
153.08051 1320
153.0992 3620
161.07188 400
162.98653 546
162.99649 529
173.01743 543
173.02896 523
177.09225 20368
178.09636 1460
179.09123 562
179.10004 671
185.05061 527
185.06265 638
217.05356 1457
217.06607 1445
218.05681 560
224.10666 407
237.12889 457
237.14362 620
356.24478 545
361.19934 39908
362.2027 6657
363.20535 1242
377.17242 1902
Name: pyritinol
PrecursorMZ: 369.0951
PrecursorType: [M+H]+
IonMode: Positive
Formula: C16H20N2O4S2
SMILES: CC1=NC=C(C(=C1O)CO)CSSCC2=CN=C(C(=C2CO)O)C
InChI: 
InChIKey: SIXLXDIJGIWWFU-UHFFFAOYSA-N
RetentionTime: 1.545733
CCS: 
CollisionEnergy: 20-40 eV
InstrumentType: UPLC-QTOF-MS
Comment: PI: Cristina Nerin; Data collector: QiZhi Su, GUIA, University of Zaragoza, Spain; Collision energy: 20-40 V; Instrument: Waters HPLC-QTOF-MS (Xevo G2 QTof); Ionization: ESI; Deconvoluted by MS-DIAL; Column: Waters AtlantisTM premier BEH C18 AX column (2.1 × 100mm x 1.7μm); Flow rate: 0.3mL/min; Mobile phase A and B are water and methnaol, respectively, both with 0.1% formic acid; Gradient elution: from A/B (95/5) to A/B (100/0) in 7min, kept for 4 min, then back to A/B (95/5) in 0.1 min, and maintained for additional 1.9 min (13min in total).; Injection volume: 10 μL
Num peaks: 55
67.04332 207
67.0613 201
79.04444 523
79.05441 558
80.04839 419
80.05641 419
80.06352 419
81.03969 329
81.0566 399
81.06579 344
81.07178 355
82.06166 195
92.04629 367
92.05476 367
94.06575 391
96.07954 476
96.09157 471
106.06626 4048
107.07465 2486
108.06741 457
108.07625 425
108.08273 425
110.04355 224
110.06114 292
110.07474 279
118.08166 282
118.09234 292
122.06167 534
123.05773 1754
123.06988 1773
124.0768 10773
125.08113 703
134.06084 619
134.07634 625
135.06958 3509
136.07678 965
138.03827 1472
138.05661 1677
150.0567 616
152.0719 4902
153.0799 18064
154.06252 525
154.08487 1469
166.02159 339
166.03546 423
166.04155 422
168.04764 311
199.00369 548
199.02095 572
199.03522 364
200.00034 192
200.02094 415
200.03522 380
217.02921 534
369.095 1126
Name: Benfotiamine
PrecursorMZ: 467.1158
PrecursorType: [M+H]+
IonMode: Positive
Formula: C19H23N4O6PS
SMILES: CC1=NC=C(C(=N1)N)CN(C=O)C(=C(CCOP(=O)(O)O)SC(=O)C2=CC=CC=C2)C
InChI: 
InChIKey: BTNNPSLJPBRMLZ-LGMDPLHJSA-N
RetentionTime: 4.1598
CCS: 
CollisionEnergy: 20-40 eV
InstrumentType: UPLC-QTOF-MS
Comment: PI: Cristina Nerin; Data collector: QiZhi Su, GUIA, University of Zaragoza, Spain; Collision energy: 20-40 V; Instrument: Waters HPLC-QTOF-MS (Xevo G2 QTof); Ionization: ESI; Deconvoluted by MS-DIAL; Column: Waters AtlantisTM premier BEH C18 AX column (2.1 × 100mm x 1.7μm); Flow rate: 0.3mL/min; Mobile phase A and B are water and methnaol, respectively, both with 0.1% formic acid; Gradient elution: from A/B (95/5) to A/B (100/0) in 7min, kept for 4 min, then back to A/B (95/5) in 0.1 min, and maintained for additional 1.9 min (13min in total).; Injection volume: 10 μL
Num peaks: 58
58.06665 3001
67.05583 949
70.06656 9612
71.06776 448
82.06567 5152
84.08141 482
91.05532 1904
94.06586 2459
96.08183 31490
97.08858 8950
105.03408 983
110.09747 5783
115.05587 1589
117.07021 3204
122.07197 6077
129.06961 2847
141.07339 1147
153.07123 2323
154.07849 819
165.07251 460
167.08765 1870
178.07877 1471
179.08379 1065
179.09247 945
182.10207 650
190.07938 1372
191.08704 35041
192.088 3713
192.09749 1677
193.09879 994
196.1136 8159
197.12064 4338
198.12119 495
202.07191 1844
202.08142 3399
203.08618 5548
204.09117 2434
204.10164 1518
205.10242 4112
215.0872 8860
216.09427 6046
217.10265 6624
218.10504 1265
220.08279 1026
228.08929 625
228.10025 622
229.10121 1873
229.11052 766
230.10838 1784
231.11868 1900
232.11757 591
242.11525 507
245.1311 920
288.17587 44692
289.17938 8758
290.18076 1069
387.14737 1233
467.11823 3220
Name: Glutamine
PrecursorMZ: 147.0776
PrecursorType: [M+H]+
IonMode: Positive
Formula: C5H10N2O3
SMILES: C(CC(=O)N)C(C(=O)O)N
InChI: 
InChIKey: ZDXPYRJPNDTMRX-VKHMYHEASA-N
RetentionTime: 0.72625
CCS: 
CollisionEnergy: 20-40 eV
InstrumentType: UPLC-QTOF-MS
Comment: PI: Cristina Nerin; Data collector: QiZhi Su, GUIA, University of Zaragoza, Spain; Collision energy: 20-40 V; Instrument: Waters HPLC-QTOF-MS (Xevo G2 QTof); Ionization: ESI; Deconvoluted by MS-DIAL; Column: Waters AtlantisTM premier BEH C18 AX column (2.1 × 100mm x 1.7μm); Flow rate: 0.3mL/min; Mobile phase A and B are water and methnaol, respectively, both with 0.1% formic acid; Gradient elution: from A/B (95/5) to A/B (100/0) in 7min, kept for 4 min, then back to A/B (95/5) in 0.1 min, and maintained for additional 1.9 min (13min in total).; Injection volume: 10 μL
Num peaks: 13
56.05229 686
84.04523 29454
85.02193 628
85.03148 1876
85.04877 1647
85.06284 848
101.06992 385
101.07491 386
101.07892 387
102.05501 619
102.06451 624
130.05109 4972
147.07748 13287
Name: Glutamine
PrecursorMZ: 293.1469
PrecursorType: [2M+H]+
IonMode: Positive
Formula: C5H10N2O3
SMILES: C(CC(=O)N)C(C(=O)O)N
InChI: 
InChIKey: ZDXPYRJPNDTMRX-VKHMYHEASA-N
RetentionTime: 0.72625
CCS: 
CollisionEnergy: 20-40 eV
InstrumentType: UPLC-QTOF-MS
Comment: PI: Cristina Nerin; Data collector: QiZhi Su, GUIA, University of Zaragoza, Spain; Collision energy: 20-40 V; Instrument: Waters HPLC-QTOF-MS (Xevo G2 QTof); Ionization: ESI; Deconvoluted by MS-DIAL; Column: Waters AtlantisTM premier BEH C18 AX column (2.1 × 100mm x 1.7μm); Flow rate: 0.3mL/min; Mobile phase A and B are water and methnaol, respectively, both with 0.1% formic acid; Gradient elution: from A/B (95/5) to A/B (100/0) in 7min, kept for 4 min, then back to A/B (95/5) in 0.1 min, and maintained for additional 1.9 min (13min in total).; Injection volume: 10 μL
Num peaks: 17
56.05229 686
84.04523 29478
85.02193 628
85.03148 1876
85.04877 1644
85.06284 868
101.06992 385
101.07491 386
101.07892 387
102.05501 620
102.06451 624
130.05109 4985
147.07748 10195
148.07106 598
148.08109 605
148.08659 600
293.14777 5366
Name: Medroxyprogesterone 17-acetate
PrecursorMZ: 387.2545
PrecursorType: [M+H]+
IonMode: Positive
Formula: C24H34O4
SMILES: CC1CC2C(CCC3(C2CCC3(C(=O)C)OC(=O)C)C)C4(C1=CC(=O)CC4)C
InChI: 
InChIKey: PSGAAPLEWMOORI-PEINSRQWSA-N
RetentionTime: 7.27315
CCS: 
CollisionEnergy: 20-40 eV
InstrumentType: UPLC-QTOF-MS
Comment: PI: Cristina Nerin; Data collector: QiZhi Su, GUIA, University of Zaragoza, Spain; Collision energy: 20-40 V; Instrument: Waters HPLC-QTOF-MS (Xevo G2 QTof); Ionization: ESI; Deconvoluted by MS-DIAL; Column: Waters AtlantisTM premier BEH C18 AX column (2.1 × 100mm x 1.7μm); Flow rate: 0.3mL/min; Mobile phase A and B are water and methnaol, respectively, both with 0.1% formic acid; Gradient elution: from A/B (95/5) to A/B (100/0) in 7min, kept for 4 min, then back to A/B (95/5) in 0.1 min, and maintained for additional 1.9 min (13min in total).; Injection volume: 10 μL
Num peaks: 43
95.08625 2746
97.06556 34966
111.08125 4347
111.0883 4349
123.08157 83584
124.08501 5998
137.09709 6344
145.10214 4150
147.11891 4073
157.10274 2827
159.11859 4981
161.13484 4114
171.11848 6411
173.13379 9921
175.14958 12583
187.14902 4522
187.15878 4710
197.13385 4134
199.149 3303
205.1602 7200
211.14085 2816
211.14944 2633
214.13606 15022
217.15024 2720
217.16457 2803
251.18103 2687
266.20456 5670
267.21179 11428
268.21237 3817
268.22556 4394
283.20764 4505
284.21445 2848
285.2226 50855
286.22513 8703
303.12814 4747
303.16019 4788
309.18787 6306
309.21988 10222
327.2327 136663
328.23593 30189
329.23746 3104
345.16174 5696
387.25354 255139
Name: Allylthiourea
PrecursorMZ: 117.0494
PrecursorType: [M+H]+
IonMode: Positive
Formula: C4H8N2S
SMILES: C=CCNC(=S)N
InChI: 
InChIKey: HTKFORQRBXIQHD-UHFFFAOYSA-N
RetentionTime: 2.242917
CCS: 
CollisionEnergy: 20-40 eV
InstrumentType: UPLC-QTOF-MS
Comment: PI: Cristina Nerin; Data collector: QiZhi Su, GUIA, University of Zaragoza, Spain; Collision energy: 20-40 V; Instrument: Waters HPLC-QTOF-MS (Xevo G2 QTof); Ionization: ESI; Deconvoluted by MS-DIAL; Column: Waters AtlantisTM premier BEH C18 AX column (2.1 × 100mm x 1.7μm); Flow rate: 0.3mL/min; Mobile phase A and B are water and methnaol, respectively, both with 0.1% formic acid; Gradient elution: from A/B (95/5) to A/B (100/0) in 7min, kept for 4 min, then back to A/B (95/5) in 0.1 min, and maintained for additional 1.9 min (13min in total).; Injection volume: 10 μL
Num peaks: 171
56.04947 50
57.06524 45
57.07145 62
57.07718 68
57.17009 20
58.06554 284
58.0719 32
59.07331 22
59.17007 29
59.99013 52
64.26296 24
65.52749 23
66.03648 41
67.03838 77
67.06084 73
68.04698 22
68.0574 120
68.60492 27
69.03049 22
69.07275 22
70.06136 151
70.06699 692
70.98602 29
71.06712 75
71.99273 20
72.0415 102
72.07896 28
72.08482 38
72.93031 22
72.98637 26
73.04974 29
77.03528 26
77.45657 54
78.98308 26
79.02193 21
79.04977 20
79.95711 27
80.0144 24
80.0499 66
80.06702 45
80.95313 54
81.04461 23
81.05447 42
81.06919 371
81.08179 35
81.87277 20
82.05592 22
82.0633 69
82.06773 170
82.47005 24
82.98609 23
83.05896 213
83.06439 90
83.07492 87
83.9469 46
83.95309 23
84.03933 40
84.04693 34
84.06552 57
84.08361 761
84.95612 55
84.96476 260
85.05965 21
85.06764 66
85.07857 25
85.08524 24
85.94583 23
86.59147 21
87.09026 39
87.97117 29
88.95399 37
88.97052 44
88.98338 53
89.05946 25
89.5733 22
91.02931 24
91.05251 108
91.84291 27
92.04455 27
92.05735 53
92.68797 64
92.96129 22
93.0517 28
93.07625 22
94.03049 123
94.06419 246
95.03044 82
95.07126 73
95.64525 76
95.97013 37
95.97451 35
96.08363 1821
96.29005 27
96.93182 36
96.96456 33
97.07827 27
97.08775 217
97.09316 219
97.93835 171
97.96909 93
98.01572 40
98.03454 33
98.06283 20
98.57606 43
98.96338 32
98.97517 185
99.04342 86
99.05034 84
99.9531 50
99.97234 24
100.02872 23
100.05107 30
100.92655 25
100.93079 43
100.95766 34
100.99952 21
101.02385 86
101.03865 44
101.9361 43
102.02213 73
102.04061 27
102.09174 560
102.09784 152
102.29264 21
102.91529 27
103.05686 47
103.09 112
103.09605 51
104.04412 51
104.05087 42
104.05886 21
105.03624 30
106.06584 89
106.07301 34
106.23088 49
106.99858 20
107.07455 119
107.20308 26
108.03133 82
108.08551 27
109.04169 53
109.9915 25
110.04446 24
110.05196 36
110.09822 236
110.97525 28
111.09779 55
111.98786 231
112.98003 81
112.99152 23
113.56669 28
113.74946 20
113.98485 55
114.09864 29
114.55836 79
114.56562 84
114.96915 25
114.98851 33
115.03458 82
115.05581 26
115.06361 85
115.8934 45
115.97668 43
115.98248 24
116.00429 26
116.05111 26
116.99911 24
117.04512 207
117.05175 364
117.06769 153
117.07553 68
Name: Medroxyprogesterone 17-acetate
PrecursorMZ: 773.4998
PrecursorType: [2M+H]+
IonMode: Positive
Formula: C24H34O4
SMILES: CC1CC2C(CCC3(C2CCC3(C(=O)C)OC(=O)C)C)C4(C1=CC(=O)CC4)C
InChI: 
InChIKey: PSGAAPLEWMOORI-PEINSRQWSA-N
RetentionTime: 7.27315
CCS: 
CollisionEnergy: 20-40 eV
InstrumentType: UPLC-QTOF-MS
Comment: PI: Cristina Nerin; Data collector: QiZhi Su, GUIA, University of Zaragoza, Spain; Collision energy: 20-40 V; Instrument: Waters HPLC-QTOF-MS (Xevo G2 QTof); Ionization: ESI; Deconvoluted by MS-DIAL; Column: Waters AtlantisTM premier BEH C18 AX column (2.1 × 100mm x 1.7μm); Flow rate: 0.3mL/min; Mobile phase A and B are water and methnaol, respectively, both with 0.1% formic acid; Gradient elution: from A/B (95/5) to A/B (100/0) in 7min, kept for 4 min, then back to A/B (95/5) in 0.1 min, and maintained for additional 1.9 min (13min in total).; Injection volume: 10 μL
Num peaks: 46
95.08625 2742
97.06556 34677
111.08125 3786
111.0883 3782
123.08157 87779
124.08501 6393
137.09709 8599
145.10214 4712
147.11891 4048
157.10274 2943
159.11859 4649
161.13484 4525
171.11848 6551
173.13379 10433
175.14958 14316
187.14902 5424
187.15878 5532
197.13385 3384
199.149 4405
205.1602 7672
211.14085 3102
211.14944 2927
214.13606 4719
215.14282 4263
225.16431 2903
227.18176 3514
251.18103 2707
257.15564 4273
266.20456 4507
267.21179 14913
268.21237 3512
268.22556 3763
283.20764 5655
284.21445 4555
285.2226 50902
286.22513 9308
291.21219 2978
309.21988 12980
310.22623 2809
327.2327 133715
328.23593 29548
329.23746 3240
387.25354 257024
388.25665 63112
389.26254 7889
773.49725 2986
Name: Nitrofurantoin
PrecursorMZ: 256.069
PrecursorType: [M+NH4]+
IonMode: Positive
Formula: C8H6N4O5
SMILES: C1C(=O)NC(=O)N1N=CC2=CC=C(O2)[N+](=O)[O-]
InChI: 
InChIKey: NXFQHRVNIOXGAQ-YCRREMRBSA-N
RetentionTime: 3.4279
CCS: 
CollisionEnergy: 20-40 eV
InstrumentType: UPLC-QTOF-MS
Comment: PI: Cristina Nerin; Data collector: QiZhi Su, GUIA, University of Zaragoza, Spain; Collision energy: 20-40 V; Instrument: Waters HPLC-QTOF-MS (Xevo G2 QTof); Ionization: ESI; Deconvoluted by MS-DIAL; Column: Waters AtlantisTM premier BEH C18 AX column (2.1 × 100mm x 1.7μm); Flow rate: 0.3mL/min; Mobile phase A and B are water and methnaol, respectively, both with 0.1% formic acid; Gradient elution: from A/B (95/5) to A/B (100/0) in 7min, kept for 4 min, then back to A/B (95/5) in 0.1 min, and maintained for additional 1.9 min (13min in total).; Injection volume: 10 μL
Num peaks: 338
52.03398 62
55.01754 57
57.02214 87
57.07842 185
58.06195 165
58.0664 808
62.06604 73
64.0211 165
65.0217 53
65.03989 115
66.02232 56
66.03396 202
66.03786 52
67.00457 149
67.01112 63
67.04243 1594
67.05486 270
67.06097 177
68.04078 114
68.05361 100
69.06876 79
70.06687 2219
70.64365 53
72.07441 78
73.0265 54
78.55533 49
78.84198 51
79.01851 620
79.02686 61
79.05715 200
80.01023 50
80.01403 128
80.01961 115
80.04863 49
80.05481 170
81.02216 58
81.0444 86
81.0586 49
81.07057 1195
81.07784 257
81.95993 83
81.9669 59
82.00229 181
82.00638 83
82.01387 62
82.02296 111
82.02977 145
82.06548 1034
83.02916 47
83.03812 329
83.06142 55
83.08778 67
84.07797 719
84.08383 1056
84.96008 213
84.96387 80
85.06807 94
85.08467 187
85.95162 439
85.95954 154
86.06158 110
86.09675 164
86.95592 132
88.48362 95
89.9902 49
91.05575 576
92.56228 48
93.01159 199
93.02157 102
93.0427 166
93.04929 218
94.02678 326
94.05379 454
94.06539 146
94.4956 106
95.03161 229
95.03825 1030
95.05128 53
95.05951 94
95.06735 84
95.08479 245
95.09429 64
95.99151 57
96.00515 62
96.01051 108
96.03178 67
96.0387 207
96.05019 66
96.08156 3893
97.08784 1094
97.10226 58
97.93075 74
97.95612 51
98.03597 633
98.49657 211
98.96478 52
99.04763 862
99.05834 127
99.95447 85
100.02808 756
100.07172 51
101.02187 162
101.0296 192
102.09212 1175
102.84544 113
103.49866 146
104.99454 58
105.49684 77
106.06062 53
106.06909 96
107.01766 97
107.07191 68
108.08296 58
109.06458 52
110.01951 62
110.02915 97
110.04984 58
110.09625 1024
110.98995 60
111.03274 821
111.1018 118
112.50468 175
114.56218 194
115.03288 50
115.04373 75
115.05595 345
117.00269 57
117.07261 493
117.69456 155
118.07223 68
118.0843 190
120.98239 68
121.03396 185
121.04041 713
121.05165 174
122.01282 3553
122.03979 101
122.05254 140
122.07078 446
122.07849 80
122.94829 76
123.01511 207
123.07352 66
123.11926 3319
124.00648 59
124.06462 77
124.07528 452
124.08303 128
124.12216 351
124.92786 53
125.38022 55
126.02724 69
126.03461 109
126.0485 53
126.05586 133
128.06396 178
128.10115 65
128.10963 52
128.11479 59
129.06891 242
131.09042 73
134.06021 61
135.03815 161
135.07239 203
135.97322 51
136.08717 55
137.01752 47
137.02359 108
137.03452 187
138.03955 157
138.05991 120
138.99269 455
139.01285 1264
139.02122 256
140.00963 85
140.13742 81
140.14764 56
141.00974 49
141.032 287
141.07111 420
141.08105 57
143.09348 1951
143.59734 191
143.60881 143
144.09885 80
144.1214 59
145.04953 1616
145.06189 223
146.05444 172
146.98692 58
147.08572 55
147.9996 131
148.98967 89
149.03371 347
151.0378 214
151.05284 55
152.04514 48
152.05785 127
152.07027 77
153.07109 360
153.07925 666
154.07976 138
154.09328 56
154.95518 213
156.09094 52
156.10135 233
156.59874 89
159.06706 397
159.07365 261
159.12529 138
161.06758 73
162.06844 113
162.07515 159
162.08548 58
164.04454 73
165.00935 67
165.06332 52
165.07225 119
166.16118 484
167.03416 72
167.0842 143
167.09488 98
167.173 65
168.04207 1862
168.0873 85
169.03714 72
169.10587 78
170.07948 101
171.06183 57
171.15787 50
178.08174 128
178.96297 58
178.97475 79
179.0899 310
180.09021 47
183.95592 64
184.10422 100
184.12076 182
184.13213 519
184.14569 170
184.17393 87
184.63776 80
185.04701 60
185.058 244
185.17609 56
188.10031 47
189.07574 51
190.07761 154
190.12599 113
191.08704 4131
191.77798 75
192.01955 66
192.09067 414
192.09897 234
193.10654 83
193.12965 53
193.14453 111
194.10043 61
194.97504 94
196.11378 1451
197.11926 244
197.1273 283
198.11613 83
198.12483 64
199.26736 55
200.02367 87
201.08095 76
202.07562 509
202.10944 4650
202.14662 55
202.99133 84
203.08823 639
203.10924 611
204.09392 795
205.09802 230
205.10692 188
206.11067 61
207.11252 52
209.13416 67
215.08769 1558
216.0851 396
216.09656 595
216.11824 673
216.12895 626
217.10043 668
217.11568 232
217.13165 75
217.47615 55
222.02594 92
222.03502 112
222.05125 143
223.04091 130
223.81941 79
225.17513 53
227.13602 603
227.17879 113
228.08456 55
228.10262 255
228.12473 350
229.09143 110
229.10466 249
230.11189 212
231.11748 404
232.117 74
233.98877 71
234.18161 195
234.67216 47
234.68437 77
235.07776 57
235.97932 63
236.08452 54
238.03006 71
239.04121 1006
239.05779 147
239.49284 67
240.04945 82
240.06265 139
241.15897 72
242.1284 54
243.14688 164
245.0473 51
245.13666 88
245.14542 305
245.15764 94
246.14058 52
246.44341 109
247.15788 73
248.99802 571
249.98749 52
250.00349 56
250.02267 298
250.03795 47
250.14798 109
250.16039 309
250.52956 54
250.99739 92
256.06516 568
256.10205 79
Name: Nitrofurantoin
PrecursorMZ: 239.0426
PrecursorType: [M+H]+
IonMode: Positive
Formula: C8H6N4O5
SMILES: C1C(=O)NC(=O)N1N=CC2=CC=C(O2)[N+](=O)[O-]
InChI: 
InChIKey: NXFQHRVNIOXGAQ-YCRREMRBSA-N
RetentionTime: 3.450733
CCS: 
CollisionEnergy: 20-40 eV
InstrumentType: UPLC-QTOF-MS
Comment: PI: Cristina Nerin; Data collector: QiZhi Su, GUIA, University of Zaragoza, Spain; Collision energy: 20-40 V; Instrument: Waters HPLC-QTOF-MS (Xevo G2 QTof); Ionization: ESI; Deconvoluted by MS-DIAL; Column: Waters AtlantisTM premier BEH C18 AX column (2.1 × 100mm x 1.7μm); Flow rate: 0.3mL/min; Mobile phase A and B are water and methnaol, respectively, both with 0.1% formic acid; Gradient elution: from A/B (95/5) to A/B (100/0) in 7min, kept for 4 min, then back to A/B (95/5) in 0.1 min, and maintained for additional 1.9 min (13min in total).; Injection volume: 10 μL
Num peaks: 301
54.00721 100
54.01075 106
54.02252 101
57.06687 39
57.07225 40
58.06136 354
58.06724 354
64.01656 63
65.02048 121
65.02773 128
65.03769 150
65.04272 177
66.02332 275
66.03397 277
66.05247 220
67.0066 156
67.01675 163
67.04308 1240
67.04752 1252
67.05647 1247
68.00053 58
68.00749 75
68.0146 80
68.02328 140
68.02682 144
68.03918 229
68.04774 226
68.05352 216
69.07133 51
69.07706 47
70.06059 657
70.06614 656
72.00661 62
72.01083 69
72.02779 40
72.08167 56
79.01853 559
79.05556 66
79.06216 60
79.99699 173
80.01164 221
80.0164 226
81.03425 117
81.04591 58
81.05802 457
81.06984 334
81.0751 302
81.96021 101
82.00245 190
82.01604 375
82.02954 277
82.036 233
82.05033 602
82.06417 454
82.06944 438
82.07896 464
82.94836 33
82.95786 36
83.03751 391
83.04272 402
83.05156 425
83.07257 61
83.9547 33
84.03451 40
84.03925 38
84.08298 470
84.9556 76
84.96278 77
85.06925 149
85.08504 111
85.9455 90
85.95734 97
85.97064 107
92.04987 32
92.55223 69
93.00887 167
93.02435 163
93.04489 709
94.00884 86
94.01523 190
94.02165 189
94.0311 213
94.05303 499
94.06361 479
94.07472 297
95.03744 803
95.05958 211
95.06945 66
95.08405 53
95.99357 95
95.99745 95
96.00525 123
96.01202 171
96.02521 295
96.03274 249
96.0523 157
96.08182 1842
97.07614 668
97.08802 690
97.93082 41
97.93703 47
98.03411 444
98.04121 449
98.0603 41
98.08762 51
99.04108 98
100.02576 652
100.03663 650
101.02756 63
101.03667 61
103.09538 51
103.10265 53
103.48505 86
103.49656 91
105.48658 49
107.02978 46
107.07362 85
107.08535 87
107.99162 32
108.00558 36
108.01282 42
108.02975 32
108.04062 37
110.01456 161
110.02443 169
110.04783 37
110.09672 340
111.03215 642
111.10329 31
114.56182 152
114.57133 152
115.03062 47
115.03664 94
115.04613 145
115.06021 169
117.05366 179
117.06831 249
117.08008 249
118.08356 71
121.04099 471
122.01192 3011
122.03817 137
122.04729 163
122.05818 344
122.06853 253
122.07539 202
123.00855 273
123.01823 278
123.04368 73
123.11808 581
124.0339 83
124.05604 50
125.02655 34
126.03162 219
126.05392 138
126.06828 82
127.03942 33
127.06498 37
128.10732 31
129.06195 125
129.07251 158
131.00624 38
131.01033 38
136.04579 31
136.95457 34
137.01949 237
137.03441 251
138.03557 137
138.04591 117
138.05876 107
138.98779 643
138.99455 883
139.00221 1454
139.01642 1231
139.03902 41
139.49673 106
139.99837 33
140.00865 60
140.02003 52
141.01163 137
141.0285 198
141.07028 120
143.09547 564
144.06654 38
144.08127 46
145.03802 477
145.05118 462
145.06868 696
146.0556 92
146.97691 208
146.98828 209
147.98979 64
148.00119 112
148.01256 123
148.03008 32
149.03464 465
149.04576 480
151.02917 82
151.03979 91
151.05038 85
154.06886 45
154.08604 69
154.95122 87
154.96199 91
156.09436 133
156.10481 136
156.1132 129
156.99733 38
157.00958 34
159.05988 190
159.07236 193
162.06808 124
162.07672 122
164.04247 51
164.05225 44
165.05167 91
165.07001 127
165.084 117
166.15941 117
166.16956 67
167.0818 128
167.09274 129
168.0397 1125
169.03699 75
169.04774 78
170.08511 32
178.08128 52
178.97098 42
179.08347 72
179.09496 70
184.0945 35
184.11436 427
184.1342 264
184.16223 44
184.16898 34
184.63872 31
185.05125 75
185.06532 72
189.08391 37
190.08028 97
190.09186 100
190.11674 69
191.08626 1871
191.09467 1822
192.09465 399
193.08698 81
193.0985 67
193.63304 48
194.01968 36
194.03247 41
194.95894 61
194.97458 58
196.11324 508
197.11441 187
197.1246 188
198.1255 92
202.08018 270
202.10913 1121
203.08643 342
203.10306 273
203.11171 150
204.09633 186
205.08502 229
205.09721 305
205.10358 346
215.08556 403
216.0959 363
216.12354 314
217.09515 587
217.11282 519
217.12143 372
217.13731 51
218.09705 65
218.11711 52
220.07639 37
221.06712 33
221.0844 32
222.03693 487
222.05849 187
222.50117 41
222.52217 70
223.01561 44
223.02858 65
223.0437 58
227.08324 59
227.10136 46
227.1413 129
228.09404 159
228.10631 116
228.11681 193
228.12805 165
229.09676 172
229.10875 193
230.11478 168
231.10403 43
231.12262 113
232.1268 31
234.17917 34
237.96259 49
238.03203 44
239.043 2030
Name: Nitrofurantoin
PrecursorMZ: 477.0766
PrecursorType: [2M+H]+
IonMode: Positive
Formula: C8H6N4O5
SMILES: C1C(=O)NC(=O)N1N=CC2=CC=C(O2)[N+](=O)[O-]
InChI: 
InChIKey: NXFQHRVNIOXGAQ-YCRREMRBSA-N
RetentionTime: 3.45835
CCS: 
CollisionEnergy: 20-40 eV
InstrumentType: UPLC-QTOF-MS
Comment: PI: Cristina Nerin; Data collector: QiZhi Su, GUIA, University of Zaragoza, Spain; Collision energy: 20-40 V; Instrument: Waters HPLC-QTOF-MS (Xevo G2 QTof); Ionization: ESI; Deconvoluted by MS-DIAL; Column: Waters AtlantisTM premier BEH C18 AX column (2.1 × 100mm x 1.7μm); Flow rate: 0.3mL/min; Mobile phase A and B are water and methnaol, respectively, both with 0.1% formic acid; Gradient elution: from A/B (95/5) to A/B (100/0) in 7min, kept for 4 min, then back to A/B (95/5) in 0.1 min, and maintained for additional 1.9 min (13min in total).; Injection volume: 10 μL
Num peaks: 235
58.0644 57
58.0691 57
64.0219 127
65.02533 102
65.03912 103
66.01826 257
66.02704 281
66.03299 279
67.00493 143
67.00967 143
67.04275 1215
67.05788 1204
68.00635 45
68.01485 90
68.02573 157
68.03323 258
68.04037 251
68.04634 237
68.05164 206
68.05873 133
70.06418 307
70.06767 306
77.04005 47
77.04548 47
79.01802 377
80.01452 283
80.02265 288
80.03322 303
81.04404 85
81.05035 159
81.94611 103
81.95559 136
81.962 134
81.96877 130
82.00796 380
82.01819 542
82.03152 331
82.04777 459
82.06093 187
82.06695 177
83.03638 472
83.04396 484
84.02808 45
85.95509 96
93.00436 215
93.01079 266
93.02261 328
93.03439 809
93.0453 566
93.05334 519
93.06708 139
93.07046 46
94.01833 298
94.03042 343
94.04846 406
94.0553 355
94.06347 339
94.06906 292
95.01747 488
95.02322 1083
95.03977 1077
95.05242 1084
95.05922 256
95.99375 118
96.00446 139
96.012 197
96.03202 227
96.03812 247
96.04482 196
96.0824 825
97.07468 295
97.08947 289
98.03551 481
98.04093 478
100.02842 830
100.04653 826
102.09047 150
102.09882 149
103.49723 45
107.01352 74
107.02158 71
107.02911 66
109.03722 79
110.01329 114
110.0302 187
110.04154 140
110.05503 46
111.03017 528
111.03524 531
111.04593 527
112.50114 60
112.50994 60
116.04955 42
117.0668 101
117.07675 105
119.9557 71
121.03828 527
121.05099 512
121.51001 41
122.01204 3680
122.02702 3819
122.03873 199
122.04948 174
122.0603 216
122.0717 114
122.07635 107
122.08546 103
123.01149 294
123.02422 305
123.03066 292
123.05016 103
124.01507 110
124.02192 101
124.03249 103
126.01976 289
126.02673 277
126.03681 256
137.01991 175
137.03044 160
137.0377 144
138.04079 140
138.05351 104
138.05951 74
138.98108 374
138.99483 997
139.00378 1500
139.01807 1353
140.0058 89
140.01392 91
140.02641 67
141.03035 141
146.05371 84
146.06007 76
146.98032 175
146.98749 174
149.02049 489
149.03835 522
149.04996 477
151.04323 162
153.0723 126
153.08131 134
154.06769 40
154.95703 187
155.98943 62
156.08832 81
164.04012 89
164.05237 90
164.95482 40
164.96091 45
168.04149 1064
168.05095 1018
169.05228 43
185.04338 43
191.08669 619
192.06586 93
192.09122 201
192.1077 264
196.09859 299
196.11357 308
197.11981 45
202.07277 177
202.0826 432
203.08063 171
205.08488 153
205.09573 162
205.11229 171
205.1216 88
206.10481 51
215.08501 192
216.08167 165
216.09088 159
216.10034 82
217.09601 226
217.10445 180
218.09979 58
222.0314 631
222.04089 649
222.05336 546
222.06682 60
222.51552 77
223.03477 66
223.49405 51
229.09431 63
229.10724 44
230.1084 69
238.03178 86
238.0419 89
239.04274 1527
240.04816 133
241.04327 40
241.09921 50
243.10909 46
243.12863 41
245.11432 45
248.99284 344
249.00128 364
250.01631 98
250.02649 149
250.52118 61
250.53152 61
251.02237 46
256.05905 251
256.07382 193
258.01532 2380
258.51828 414
259.01025 77
259.01993 79
264.96899 107
265.5054 63
266.00186 612
266.49136 131
266.50409 136
266.98633 52
267.00256 156
267.49069 45
284.20972 159
288.1752 957
289.16034 154
289.17694 99
292.96603 149
304.06039 50
323.98325 70
323.99973 67
324.19391 99
327.22665 67
327.24426 68
335.96344 40
338.96136 45
338.97351 39
377.03445 141
377.05362 46
385.02551 78
467.10501 54
477.08005 530
477.1044 108
Name: Diphenyl sulfone
PrecursorMZ: 219.0486
PrecursorType: [M+H]+
IonMode: Positive
Formula: C12H10O2S
SMILES: C1=CC=C(C=C1)S(=O)(=O)C2=CC=CC=C2
InChI: 
InChIKey: KZTYYGOKRVBIMI-UHFFFAOYSA-N
RetentionTime: 6.022917
CCS: 
CollisionEnergy: 20-40 eV
InstrumentType: UPLC-QTOF-MS
Comment: PI: Cristina Nerin; Data collector: QiZhi Su, GUIA, University of Zaragoza, Spain; Collision energy: 20-40 V; Instrument: Waters HPLC-QTOF-MS (Xevo G2 QTof); Ionization: ESI; Deconvoluted by MS-DIAL; Column: Waters AtlantisTM premier BEH C18 AX column (2.1 × 100mm x 1.7μm); Flow rate: 0.3mL/min; Mobile phase A and B are water and methnaol, respectively, both with 0.1% formic acid; Gradient elution: from A/B (95/5) to A/B (100/0) in 7min, kept for 4 min, then back to A/B (95/5) in 0.1 min, and maintained for additional 1.9 min (13min in total).; Injection volume: 10 μL
Num peaks: 30
68.97881 39
70.96428 50
70.97813 55
77.03955 3861
78.04478 268
78.04988 268
94.04296 176
94.05252 183
97.01243 49
97.02916 96
126.02026 48
132.99458 54
133.08444 66
133.10384 85
138.02518 44
138.99817 48
140.99947 867
141.01427 828
154.07185 50
154.08524 51
159.02136 39
176.02414 43
179.93022 53
180.96315 73
180.99492 48
184.0321 40
209.04735 49
210.01314 100
219.0408 95
219.05333 250
Name: Benfotiamine
PrecursorMZ: 467.1159
PrecursorType: [M+H]+
IonMode: Positive
Formula: C19H23N4O6PS
SMILES: CC1=NC=C(C(=N1)N)CN(C=O)C(=C(CCOP(=O)(O)O)SC(=O)C2=CC=CC=C2)C
InChI: 
InChIKey: BTNNPSLJPBRMLZ-LGMDPLHJSA-N
RetentionTime: 4.186467
CCS: 
CollisionEnergy: 20-40 eV
InstrumentType: UPLC-QTOF-MS
Comment: PI: Cristina Nerin; Data collector: QiZhi Su, GUIA, University of Zaragoza, Spain; Collision energy: 20-40 V; Instrument: Waters HPLC-QTOF-MS (Xevo G2 QTof); Ionization: ESI; Deconvoluted by MS-DIAL; Column: Waters AtlantisTM premier BEH C18 AX column (2.1 × 100mm x 1.7μm); Flow rate: 0.3mL/min; Mobile phase A and B are water and methnaol, respectively, both with 0.1% formic acid; Gradient elution: from A/B (95/5) to A/B (100/0) in 7min, kept for 4 min, then back to A/B (95/5) in 0.1 min, and maintained for additional 1.9 min (13min in total).; Injection volume: 10 μL
Num peaks: 47
81.03162 736
81.04627 681
81.05896 862
84.08344 569
84.09554 570
105.03516 4789
106.03761 392
122.072 36243
123.06547 3216
123.07762 3249
123.10166 944
123.11738 895
124.0704 529
126.04034 864
126.05943 423
143.07828 593
143.09575 881
145.05128 669
154.04585 576
202.07523 538
202.11002 1756
220.0806 6127
221.06383 599
221.0835 993
221.09604 864
222.06761 432
222.07916 486
222.08858 415
226.09496 383
226.10802 384
248.07407 1353
248.0918 1329
261.94415 477
261.95407 700
261.97031 702
285.18811 387
300.03094 501
300.052 667
345.06937 1419
345.08215 1422
369.13785 1980
370.13461 492
370.15305 437
387.14944 5143
388.1398 859
388.15692 1179
467.11545 33640
Name: Benfotiamine
PrecursorMZ: 933.2257
PrecursorType: [2M+H]+
IonMode: Positive
Formula: C19H23N4O6PS
SMILES: CC1=NC=C(C(=N1)N)CN(C=O)C(=C(CCOP(=O)(O)O)SC(=O)C2=CC=CC=C2)C
InChI: 
InChIKey: BTNNPSLJPBRMLZ-LGMDPLHJSA-N
RetentionTime: 4.186467
CCS: 
CollisionEnergy: 20-40 eV
InstrumentType: UPLC-QTOF-MS
Comment: PI: Cristina Nerin; Data collector: QiZhi Su, GUIA, University of Zaragoza, Spain; Collision energy: 20-40 V; Instrument: Waters HPLC-QTOF-MS (Xevo G2 QTof); Ionization: ESI; Deconvoluted by MS-DIAL; Column: Waters AtlantisTM premier BEH C18 AX column (2.1 × 100mm x 1.7μm); Flow rate: 0.3mL/min; Mobile phase A and B are water and methnaol, respectively, both with 0.1% formic acid; Gradient elution: from A/B (95/5) to A/B (100/0) in 7min, kept for 4 min, then back to A/B (95/5) in 0.1 min, and maintained for additional 1.9 min (13min in total).; Injection volume: 10 μL
Num peaks: 87
58.0662 2073
67.05446 1340
70.06623 5900
81.04627 736
81.07294 1276
82.06671 4635
84.08344 1601
91.05573 1439
94.06579 1720
96.08192 22776
97.08775 3627
97.09374 2135
98.09576 528
102.09344 874
103.29775 587
105.03516 5494
110.09785 4013
115.05756 460
117.07152 2152
122.072 41626
123.07762 3465
123.11738 2637
126.04034 1049
128.06068 507
129.0708 1949
141.07138 688
143.09575 1461
145.05128 1457
150.06606 467
153.07359 1464
153.08099 444
154.04585 716
165.07158 622
167.08792 1392
178.07817 1243
179.08801 1463
184.13022 561
184.13683 1042
184.63715 490
190.07977 758
191.08676 22591
192.08937 3629
193.09737 632
196.11273 4923
197.1217 3130
202.07523 3276
202.11002 5406
203.08582 3366
203.0983 566
203.11563 450
204.09386 2538
205.1017 3029
215.08746 5361
216.09459 3940
216.12277 588
217.101 4460
218.10533 502
220.0806 7228
221.0835 908
229.09651 803
229.10617 855
230.10944 1509
231.11612 1239
245.1393 1173
248.07407 1703
261.97031 419
284.19104 1187
284.68677 1113
285.18811 814
288.17645 28874
289.17966 7200
290.17929 604
300.052 1067
341.14789 561
345.06937 546
345.08215 2149
369.13785 2460
387.14944 6637
388.1398 654
388.15692 1162
467.11545 33640
468.11874 6687
469.10922 1566
469.13391 1214
485.28333 710
933.19067 635
933.22644 1088
Name: Diphenyl sulfone
PrecursorMZ: 236.0758
PrecursorType: [M+NH4]+
IonMode: Positive
Formula: C12H10O2S
SMILES: C1=CC=C(C=C1)S(=O)(=O)C2=CC=CC=C2
InChI: 
InChIKey: KZTYYGOKRVBIMI-UHFFFAOYSA-N
RetentionTime: 6.022917
CCS: 
CollisionEnergy: 20-40 eV
InstrumentType: UPLC-QTOF-MS
Comment: PI: Cristina Nerin; Data collector: QiZhi Su, GUIA, University of Zaragoza, Spain; Collision energy: 20-40 V; Instrument: Waters HPLC-QTOF-MS (Xevo G2 QTof); Ionization: ESI; Deconvoluted by MS-DIAL; Column: Waters AtlantisTM premier BEH C18 AX column (2.1 × 100mm x 1.7μm); Flow rate: 0.3mL/min; Mobile phase A and B are water and methnaol, respectively, both with 0.1% formic acid; Gradient elution: from A/B (95/5) to A/B (100/0) in 7min, kept for 4 min, then back to A/B (95/5) in 0.1 min, and maintained for additional 1.9 min (13min in total).; Injection volume: 10 μL
Num peaks: 33
68.97881 39
70.96428 50
70.97813 55
77.03955 3861
78.04478 268
78.04988 268
94.04296 176
94.05252 183
97.01243 49
97.02916 96
126.02026 48
132.99458 54
133.08444 66
133.10384 85
138.02518 44
138.99817 48
140.99947 867
141.01427 828
154.07185 50
154.08524 51
159.02136 39
176.02414 43
179.93022 53
180.96315 73
180.99492 48
184.0321 40
209.04735 49
210.01314 100
219.0408 298
219.05333 319
219.07918 67
225.07047 58
236.07791 44
Name: Diphenyl sulfone
PrecursorMZ: 241.0297
PrecursorType: [M+Na]+
IonMode: Positive
Formula: C12H10O2S
SMILES: C1=CC=C(C=C1)S(=O)(=O)C2=CC=CC=C2
InChI: 
InChIKey: KZTYYGOKRVBIMI-UHFFFAOYSA-N
RetentionTime: 6.022917
CCS: 
CollisionEnergy: 20-40 eV
InstrumentType: UPLC-QTOF-MS
Comment: PI: Cristina Nerin; Data collector: QiZhi Su, GUIA, University of Zaragoza, Spain; Collision energy: 20-40 V; Instrument: Waters HPLC-QTOF-MS (Xevo G2 QTof); Ionization: ESI; Deconvoluted by MS-DIAL; Column: Waters AtlantisTM premier BEH C18 AX column (2.1 × 100mm x 1.7μm); Flow rate: 0.3mL/min; Mobile phase A and B are water and methnaol, respectively, both with 0.1% formic acid; Gradient elution: from A/B (95/5) to A/B (100/0) in 7min, kept for 4 min, then back to A/B (95/5) in 0.1 min, and maintained for additional 1.9 min (13min in total).; Injection volume: 10 μL
Num peaks: 36
68.97881 39
70.96428 50
70.97813 55
77.03955 3861
78.04478 268
78.04988 268
94.04296 176
94.05252 183
97.01243 49
97.02916 96
126.02026 48
132.99458 54
133.08444 66
133.10384 85
138.02518 44
138.99817 48
140.99947 867
141.01427 828
154.07185 50
154.08524 51
159.02136 39
176.02414 43
179.93022 53
180.96315 73
180.99492 48
184.0321 40
209.04735 49
210.01314 100
219.0408 298
219.05333 319
219.07918 67
225.07047 58
239.01453 108
239.02124 110
241.02759 430
241.4416 113
Name: Diphenyl sulfone
PrecursorMZ: 241.0314
PrecursorType: [M+Na]+
IonMode: Positive
Formula: C12H10O2S
SMILES: C1=CC=C(C=C1)S(=O)(=O)C2=CC=CC=C2
InChI: 
InChIKey: KZTYYGOKRVBIMI-UHFFFAOYSA-N
RetentionTime: 6.01165
CCS: 
CollisionEnergy: 20-40 eV
InstrumentType: UPLC-QTOF-MS
Comment: PI: Cristina Nerin; Data collector: QiZhi Su, GUIA, University of Zaragoza, Spain; Collision energy: 20-40 V; Instrument: Waters HPLC-QTOF-MS (Xevo G2 QTof); Ionization: ESI; Deconvoluted by MS-DIAL; Column: Waters AtlantisTM premier BEH C18 AX column (2.1 × 100mm x 1.7μm); Flow rate: 0.3mL/min; Mobile phase A and B are water and methnaol, respectively, both with 0.1% formic acid; Gradient elution: from A/B (95/5) to A/B (100/0) in 7min, kept for 4 min, then back to A/B (95/5) in 0.1 min, and maintained for additional 1.9 min (13min in total).; Injection volume: 10 μL
Num peaks: 218
51.02285 429
53.03943 385
65.04277 192
65.05533 164
68.98264 138
75.63626 391
75.68014 123
75.6927 88
77.03954 302
77.22466 109
77.2303 147
77.24672 112
77.33054 92
77.34789 94
77.36066 101
77.38569 99
77.39669 137
77.45943 106
77.51438 98
77.52341 113
77.61839 121
77.64439 123
77.65223 82
77.67603 176
77.69387 123
77.82281 124
77.83157 111
77.83691 121
77.87238 97
77.88676 108
77.94844 115
78.12422 94
78.29842 94
78.34923 123
78.36636 101
78.6094 114
78.61946 81
78.89162 86
79.01719 81
79.02417 255
79.11568 109
79.12514 115
79.17018 81
79.99903 97
80.03402 134
80.04117 174
80.04705 138
80.05718 129
81.03385 623
81.04328 646
81.0502 694
81.05744 716
81.07127 374
94.04221 5842
94.06142 5955
94.07281 119
95.0441 936
95.05004 1003
95.05574 954
96.05622 112
97.01198 2278
97.03012 2808
98.99532 485
99.00546 549
99.01224 551
99.01709 534
99.04539 225
103.92599 182
105.06666 109
106.05347 282
106.06371 297
106.07076 293
107.0789 210
109.0302 82
117.00108 448
122.06187 157
123.06678 180
123.07503 182
123.11624 910
123.12419 914
124.07551 851
124.12108 115
125.00684 2055
125.08244 100
125.09308 94
125.99948 1271
126.01344 2206
126.04206 143
127.05049 102
127.05843 108
127.99474 134
128.04823 267
129.00195 805
129.02176 373
129.49571 167
129.50252 167
130.06279 91
130.99754 85
131.00914 83
132.97568 826
132.99718 656
133.0081 710
135.0679 318
135.07503 327
138.00775 449
138.04764 89
138.49812 127
138.50732 135
139.009 101
141.06679 175
141.07881 172
143.09303 197
143.10129 357
143.98882 149
144.00041 152
144.0097 152
144.0392 85
147.01115 106
147.02708 106
152.04678 404
152.05708 588
152.06842 579
153.06363 1923
153.0789 2042
153.08784 1542
154.07564 1016
154.08336 1006
154.09605 914
156.02682 90
156.03665 115
156.10399 179
159.06679 115
159.08568 129
163.96266 100
166.02934 140
166.03937 124
167.07069 121
169.05322 154
169.06328 170
171.02046 90
171.03186 97
171.04239 83
173.05029 85
175.02159 97
175.04178 92
176.01567 161
176.02376 230
176.51262 100
176.52147 100
179.93156 784
180.93201 102
180.93945 103
180.9641 7959
180.98451 3244
181.95578 143
181.96599 588
181.97377 618
182.95433 392
182.9731 362
183.01781 105
183.03122 115
184.02361 238
184.04108 180
184.12628 127
184.1335 155
184.52034 162
184.53201 146
191.50183 392
198.96471 102
198.97198 119
201.02934 251
201.03653 243
201.04648 242
202.03214 103
202.082 203
202.10164 1306
204.09856 103
204.1136 86
205.10905 85
206.03249 160
206.04222 106
208.01599 127
208.0305 128
209.00941 202
209.03429 90
209.98688 96
210.00273 474
210.01736 526
210.99391 416
211.0018 426
211.01265 523
211.02271 422
212.99745 119
213.01227 150
216.10692 265
216.14178 263
221.03711 575
221.04901 217
222.05276 128
222.50949 94
222.52849 84
223.02008 93
225.00029 108
226.04062 83
226.05911 122
226.06975 187
226.08955 158
228.95848 94
228.97058 92
230.0298 1921
230.04109 1921
230.53528 1018
230.54501 1000
231.03426 740
231.53798 171
236.03168 265
241.02328 949
241.03473 1446
Name: Diphenyl sulfone
PrecursorMZ: 459.0719
PrecursorType: [2M+Na]+
IonMode: Positive
Formula: C12H10O2S
SMILES: C1=CC=C(C=C1)S(=O)(=O)C2=CC=CC=C2
InChI: 
InChIKey: KZTYYGOKRVBIMI-UHFFFAOYSA-N
RetentionTime: 6.01165
CCS: 
CollisionEnergy: 20-40 eV
InstrumentType: UPLC-QTOF-MS
Comment: PI: Cristina Nerin; Data collector: QiZhi Su, GUIA, University of Zaragoza, Spain; Collision energy: 20-40 V; Instrument: Waters HPLC-QTOF-MS (Xevo G2 QTof); Ionization: ESI; Deconvoluted by MS-DIAL; Column: Waters AtlantisTM premier BEH C18 AX column (2.1 × 100mm x 1.7μm); Flow rate: 0.3mL/min; Mobile phase A and B are water and methnaol, respectively, both with 0.1% formic acid; Gradient elution: from A/B (95/5) to A/B (100/0) in 7min, kept for 4 min, then back to A/B (95/5) in 0.1 min, and maintained for additional 1.9 min (13min in total).; Injection volume: 10 μL
Num peaks: 308
66.04398 429
66.04785 429
68.97813 112
68.98264 114
75.61961 108
75.64188 181
76.62648 76
76.96843 75
76.97534 82
76.99699 132
77.01138 115
77.08601 1315
77.09782 1362
77.11893 1553
77.12736 1572
77.13683 1642
77.15516 329
77.18182 985
77.19141 1012
77.19931 1026
77.20891 648
77.21546 458
77.22466 123
77.24672 112
77.41155 129
77.42049 97
77.61839 149
77.66142 154
77.72716 130
77.73901 134
77.7487 138
77.76224 119
77.76658 113
77.78544 93
77.7925 99
77.80189 92
77.8086 101
77.98317 96
78.04424 601
78.06887 76
78.07456 85
78.10011 90
78.16526 81
78.17129 89
78.18578 93
78.21461 113
78.27555 103
78.29842 107
78.6094 106
78.76207 95
78.76915 87
78.78091 88
78.84518 81
78.85078 85
78.86112 77
78.94995 79
79.01719 76
79.02417 315
79.02858 569
79.04917 688
79.06061 531
79.11568 125
79.12514 120
79.16461 86
79.17018 91
79.22677 76
79.99903 81
80.03402 79
80.04117 85
81.05744 682
81.07127 285
84.07687 476
84.08252 478
84.09172 480
85.08611 76
91.05283 77
91.05956 75
94.04221 5809
94.06142 5909
95.02961 830
96.04874 130
96.05622 137
98.01167 335
98.02018 370
98.07718 75
101.04072 84
102.08862 224
102.09436 221
103.92599 179
105.03065 143
105.03794 160
105.0509 155
105.06666 74
106.0406 75
107.04897 113
107.06789 315
109.07452 112
115.04512 221
115.05627 205
118.07098 105
122.05375 92
122.06187 147
122.0773 117
122.08714 103
123.11624 870
123.12419 869
125.00684 7313
125.99948 2346
126.01344 2509
126.05875 102
126.99548 288
127.01406 147
127.02077 464
127.04233 106
127.05049 92
127.99474 136
128.04823 210
128.0618 227
129.49571 162
129.50252 162
130.06279 77
134.0596 92
138.49812 145
138.50732 127
139.0484 152
139.05875 161
139.07687 83
140.14232 86
141.00156 2770
141.98845 1981
142.00252 2123
142.0101 2232
143.02274 176
143.09303 457
143.10129 264
145.03416 702
145.04869 689
145.06255 696
151.05696 84
152.04678 215
153.06363 1995
153.0789 2016
153.08784 1755
154.07564 1233
154.08336 1258
154.09605 1030
155.06497 158
155.08076 182
155.0983 160
156.02682 100
156.03665 118
159.06679 113
159.08568 119
160.06003 106
163.94267 77
163.96266 101
166.01831 113
166.02934 137
166.03937 111
167.08961 116
168.05455 156
169.06328 172
169.07401 84
169.08527 129
173.03494 84
173.05029 81
178.08681 78
179.06415 87
179.08253 114
181.95578 585
181.96599 606
183.01781 96
183.03122 109
183.06497 74
183.07574 79
184.07288 2221
184.08145 2229
184.12628 105
184.1335 116
184.95406 114
184.9671 110
185.02731 128
185.04648 185
185.07268 274
185.08397 271
186.08083 74
197.05923 142
197.0779 91
201.03653 239
201.04648 233
202.04761 97
202.082 161
202.10164 1199
202.10948 1188
203.11632 197
205.09824 80
205.10905 94
207.04558 80
208.01599 119
209.98688 75
210.00273 464
210.01736 527
216.10692 305
216.12199 323
216.14178 327
219.04886 7391
220.05269 942
221.03711 266
221.04901 435
222.01683 138
222.03819 136
222.05276 131
222.06346 100
222.50949 93
222.52849 94
223.03761 91
223.05615 79
225.04958 261
225.05887 258
226.05911 132
226.06975 207
227.1438 128
228.11415 110
228.12773 96
230.53528 1031
230.54501 1027
231.03426 704
231.53798 148
236.03168 264
236.04239 246
240.01851 606
241.99995 110
243.02553 378
243.13521 85
243.14931 90
244.02695 377
245.12848 115
245.14682 94
245.15901 102
247.00867 3257
247.0313 758
249.01198 79
250.99449 128
251.00546 119
252.00278 107
254.01997 99
254.03349 132
255.01256 172
256.98489 193
257.15695 74
270.95938 87
274.00305 241
275.02106 255
276.00793 103
276.96677 152
280.96466 82
284.17209 79
284.19141 117
284.67593 211
284.68466 210
285.18484 194
287.0195 81
287.03885 139
288.16415 220
288.18005 164
290.96213 176
292.98291 118
303.02713 187
305.98117 78
313.97137 110
319.97958 698
321.06052 129
321.9498 102
324.22025 120
325.69531 90
325.70642 113
345.22723 113
347.03827 5934
347.05048 5963
347.54172 2369
348.53406 145
348.55179 376
349.53455 74
351.06424 162
352.00134 220
353.01599 541
354.0127 222
354.03104 222
355.52478 384
355.54144 434
358.99576 204
359.02792 80
359.03876 133
362.14407 116
362.15408 109
363.0062 134
369.08673 2006
377.08719 109
383.05753 91
384.02118 100
384.04456 89
384.7301 100
384.74792 118
399.99698 508
400.03769 101
402.97885 84
402.99951 104
414.9935 113
Name: Diphenyl sulfone
PrecursorMZ: 219.0503
PrecursorType: [M+H]+
IonMode: Positive
Formula: C12H10O2S
SMILES: C1=CC=C(C=C1)S(=O)(=O)C2=CC=CC=C2
InChI: 
InChIKey: KZTYYGOKRVBIMI-UHFFFAOYSA-N
RetentionTime: 6.01545
CCS: 
CollisionEnergy: 20-40 eV
InstrumentType: UPLC-QTOF-MS
Comment: PI: Cristina Nerin; Data collector: QiZhi Su, GUIA, University of Zaragoza, Spain; Collision energy: 20-40 V; Instrument: Waters HPLC-QTOF-MS (Xevo G2 QTof); Ionization: ESI; Deconvoluted by MS-DIAL; Column: Waters AtlantisTM premier BEH C18 AX column (2.1 × 100mm x 1.7μm); Flow rate: 0.3mL/min; Mobile phase A and B are water and methnaol, respectively, both with 0.1% formic acid; Gradient elution: from A/B (95/5) to A/B (100/0) in 7min, kept for 4 min, then back to A/B (95/5) in 0.1 min, and maintained for additional 1.9 min (13min in total).; Injection volume: 10 μL
Num peaks: 98
51.0242 398
51.03518 413
53.03746 385
53.04109 385
65.03742 192
65.04249 192
75.62583 212
75.63122 305
75.66812 182
77.03948 230
77.05666 535
77.66984 189
79.02424 255
81.03487 635
81.05434 754
81.06844 676
81.0751 641
94.04253 5870
95.04733 1703
95.05579 1617
95.06059 1771
95.0726 293
96.06026 358
96.10256 308
97.01188 3018
99.00262 550
99.01346 551
99.01991 533
99.04478 225
103.92625 182
103.93491 178
106.06654 305
107.06285 318
107.07061 311
107.07559 233
107.08735 216
114.55349 224
116.98523 377
116.99822 448
117.00607 425
123.0643 188
123.07693 182
123.08227 195
123.118 910
124.07446 851
124.08112 848
125.00682 1138
126.01377 2248
126.02071 2191
129.00177 805
132.96747 481
132.97641 826
132.99474 1087
133.00874 699
135.06764 318
135.08398 362
138.00449 450
138.01309 452
139.06795 180
141.0015 1948
141.05995 180
142.99654 213
143.08411 810
143.10022 351
144.00014 247
152.06013 575
152.06953 579
152.07825 519
153.06621 2013
153.07986 2033
154.07903 1263
156.10037 178
176.01952 295
179.9357 786
179.94922 771
180.96558 7992
181.96268 210
181.97299 369
182.94781 352
182.96483 387
182.9756 289
184.02776 313
184.04021 320
184.12048 182
191.4978 392
191.50813 395
201.02553 230
201.03929 241
209.01334 211
209.02374 201
209.99893 457
210.01376 536
210.02286 467
211.00661 482
211.01843 492
216.10777 256
216.11998 270
219.04887 17341
Name: Diphenyl sulfone
PrecursorMZ: 236.0761
PrecursorType: [M+NH4]+
IonMode: Positive
Formula: C12H10O2S
SMILES: C1=CC=C(C=C1)S(=O)(=O)C2=CC=CC=C2
InChI: 
InChIKey: KZTYYGOKRVBIMI-UHFFFAOYSA-N
RetentionTime: 6.023067
CCS: 
CollisionEnergy: 20-40 eV
InstrumentType: UPLC-QTOF-MS
Comment: PI: Cristina Nerin; Data collector: QiZhi Su, GUIA, University of Zaragoza, Spain; Collision energy: 20-40 V; Instrument: Waters HPLC-QTOF-MS (Xevo G2 QTof); Ionization: ESI; Deconvoluted by MS-DIAL; Column: Waters AtlantisTM premier BEH C18 AX column (2.1 × 100mm x 1.7μm); Flow rate: 0.3mL/min; Mobile phase A and B are water and methnaol, respectively, both with 0.1% formic acid; Gradient elution: from A/B (95/5) to A/B (100/0) in 7min, kept for 4 min, then back to A/B (95/5) in 0.1 min, and maintained for additional 1.9 min (13min in total).; Injection volume: 10 μL
Num peaks: 8
77.03949 547447
77.05544 547524
78.04388 45457
97.01138 8306
97.02982 9070
124.98765 6958
141.00124 59996
219.04794 17139
Name: Diphenyl sulfone
PrecursorMZ: 437.0874
PrecursorType: [2M+H]+
IonMode: Positive
Formula: C12H10O2S
SMILES: C1=CC=C(C=C1)S(=O)(=O)C2=CC=CC=C2
InChI: 
InChIKey: KZTYYGOKRVBIMI-UHFFFAOYSA-N
RetentionTime: 6.023067
CCS: 
CollisionEnergy: 20-40 eV
InstrumentType: UPLC-QTOF-MS
Comment: PI: Cristina Nerin; Data collector: QiZhi Su, GUIA, University of Zaragoza, Spain; Collision energy: 20-40 V; Instrument: Waters HPLC-QTOF-MS (Xevo G2 QTof); Ionization: ESI; Deconvoluted by MS-DIAL; Column: Waters AtlantisTM premier BEH C18 AX column (2.1 × 100mm x 1.7μm); Flow rate: 0.3mL/min; Mobile phase A and B are water and methnaol, respectively, both with 0.1% formic acid; Gradient elution: from A/B (95/5) to A/B (100/0) in 7min, kept for 4 min, then back to A/B (95/5) in 0.1 min, and maintained for additional 1.9 min (13min in total).; Injection volume: 10 μL
Num peaks: 8
77.03949 544959
77.05544 544918
78.04388 44560
94.04241 5743
97.01138 10201
97.02982 10215
141.00124 59757
219.04794 17038
Name: Pinosylvin
PrecursorMZ: 213.0924
PrecursorType: [M+H]+
IonMode: Positive
Formula: C14H12O2
SMILES: C1=CC=C(C=C1)C=CC2=CC(=CC(=C2)O)O
InChI: 
InChIKey: YCVPRTHEGLPYPB-VOTSOKGWSA-N
RetentionTime: 6.415683
CCS: 
CollisionEnergy: 20-40 eV
InstrumentType: UPLC-QTOF-MS
Comment: PI: Cristina Nerin; Data collector: QiZhi Su, GUIA, University of Zaragoza, Spain; Collision energy: 20-40 V; Instrument: Waters HPLC-QTOF-MS (Xevo G2 QTof); Ionization: ESI; Deconvoluted by MS-DIAL; Column: Waters AtlantisTM premier BEH C18 AX column (2.1 × 100mm x 1.7μm); Flow rate: 0.3mL/min; Mobile phase A and B are water and methnaol, respectively, both with 0.1% formic acid; Gradient elution: from A/B (95/5) to A/B (100/0) in 7min, kept for 4 min, then back to A/B (95/5) in 0.1 min, and maintained for additional 1.9 min (13min in total).; Injection volume: 10 μL
Num peaks: 72
77.03945 4467
77.05512 4609
79.0549 3436
79.05937 3448
81.03209 1370
81.03773 1414
81.05927 2608
91.05511 15447
92.04814 1142
92.05863 1143
92.07109 1155
93.03326 727
93.03918 693
93.05324 603
96.0662 469
96.08173 499
96.0899 556
98.9586 592
103.0551 8224
104.06119 2843
105.03568 1453
105.0666 713
105.08383 643
107.04984 44190
107.0695 45625
107.08171 633
108.05432 3190
109.02703 3044
109.03277 3064
115.03979 1729
115.04974 1877
115.05712 1876
115.06829 1870
117.07029 840
121.0274 3856
121.03426 3846
124.07252 2169
127.04826 939
127.05549 936
128.06194 3793
129.05276 2035
129.07071 2934
130.0643 1072
130.07404 1066
131.05025 505
131.0584 538
135.04472 676
136.05093 1213
141.06775 3169
141.07558 3142
142.07452 1166
142.08398 1175
143.07558 826
152.06244 14394
153.06937 2057
155.09261 459
158.05858 690
158.06767 693
165.07083 16024
166.07736 7869
167.08603 1809
168.07652 1128
168.09175 1089
176.06294 6200
177.07077 2821
178.07706 691
194.07382 1677
195.08238 1390
197.06148 478
198.06082 669
198.07231 767
213.09174 13153
Name: pyritinol
PrecursorMZ: 369.0944
PrecursorType: [M+H]+
IonMode: Positive
Formula: C16H20N2O4S2
SMILES: CC1=NC=C(C(=C1O)CO)CSSCC2=CN=C(C(=C2CO)O)C
InChI: 
InChIKey: SIXLXDIJGIWWFU-UHFFFAOYSA-N
RetentionTime: 0.8557
CCS: 
CollisionEnergy: 20-40 eV
InstrumentType: UPLC-QTOF-MS
Comment: PI: Cristina Nerin; Data collector: QiZhi Su, GUIA, University of Zaragoza, Spain; Collision energy: 20-40 V; Instrument: Waters HPLC-QTOF-MS (Xevo G2 QTof); Ionization: ESI; Deconvoluted by MS-DIAL; Column: Waters AtlantisTM premier BEH C18 AX column (2.1 × 100mm x 1.7μm); Flow rate: 0.3mL/min; Mobile phase A and B are water and methnaol, respectively, both with 0.1% formic acid; Gradient elution: from A/B (95/5) to A/B (100/0) in 7min, kept for 4 min, then back to A/B (95/5) in 0.1 min, and maintained for additional 1.9 min (13min in total).; Injection volume: 10 μL
Num peaks: 111
67.04111 583
67.04736 571
67.05615 571
79.04212 1409
79.05268 1435
79.05779 1426
80.05087 834
81.04314 1015
81.05666 3613
81.07159 3414
82.06367 587
82.07005 549
84.08087 2438
84.09406 2470
85.07217 483
85.08072 510
92.05086 1108
94.06499 664
95.07113 821
95.08688 814
96.07951 1218
96.08504 1210
99.0458 2141
99.05392 2123
102.09241 4310
106.06643 10832
107.07475 6665
108.04324 498
108.08112 1324
110.0538 518
110.06419 519
114.56695 961
114.57662 963
115.03414 1300
115.04263 1274
115.05395 1403
122.05228 1457
122.06077 1460
122.07149 1480
123.0695 6312
123.11682 4091
123.12437 4076
124.05855 29429
124.07678 29356
125.08038 2233
126.05907 535
126.06911 553
134.06018 1760
135.06859 10283
136.07538 3204
137.07487 539
137.0844 543
138.03958 4039
138.05588 4133
143.0941 2753
143.10188 2749
145.05066 2449
150.05693 1529
150.07468 1489
152.07199 11968
153.07938 47168
154.08366 3843
159.06531 2478
159.07378 1995
166.03308 2088
166.03944 2104
167.03474 560
167.04544 524
168.03687 1239
168.04895 1264
168.06213 1153
178.06906 2316
178.08038 2349
179.0771 5610
180.08347 939
180.097 837
184.03687 528
184.04536 530
184.13231 794
184.1405 817
184.15703 641
184.16702 526
184.17549 513
193.09151 530
199.00655 1464
199.01411 1469
199.02344 1473
200.02101 1309
202.10802 4550
216.12531 4965
217.0088 1072
217.0247 1068
217.11928 785
217.12723 783
217.13799 766
218.04045 477
227.13931 572
284.68271 556
284.69592 567
285.17514 752
285.19156 741
285.20181 654
298.1958 504
311.13065 825
312.13388 2091
313.13016 1703
313.15057 1350
316.21219 496
324.21609 511
324.22949 514
369.09583 1578
Name: Chlormadinone acetate
PrecursorMZ: 427.1678
PrecursorType: [M+Na]+
IonMode: Positive
Formula: C23H29ClO4
SMILES: CC(=O)C1(CCC2C1(CCC3C2C=C(C4=CC(=O)CCC34C)Cl)C)OC(=O)C
InChI: 
InChIKey: QMBJSIBWORFWQT-DFXBJWIESA-N
RetentionTime: 7.261833
CCS: 
CollisionEnergy: 20-40 eV
InstrumentType: UPLC-QTOF-MS
Comment: PI: Cristina Nerin; Data collector: QiZhi Su, GUIA, University of Zaragoza, Spain; Collision energy: 20-40 V; Instrument: Waters HPLC-QTOF-MS (Xevo G2 QTof); Ionization: ESI; Deconvoluted by MS-DIAL; Column: Waters AtlantisTM premier BEH C18 AX column (2.1 × 100mm x 1.7μm); Flow rate: 0.3mL/min; Mobile phase A and B are water and methnaol, respectively, both with 0.1% formic acid; Gradient elution: from A/B (95/5) to A/B (100/0) in 7min, kept for 4 min, then back to A/B (95/5) in 0.1 min, and maintained for additional 1.9 min (13min in total).; Injection volume: 10 μL
Num peaks: 159
83.04679 1424
83.05315 1427
83.05762 1424
83.06376 1370
93.07088 2995
95.08627 2837
97.06595 7624
97.0822 7583
99.0804 1892
99.09192 1879
105.05294 2348
105.07139 1962
107.0871 3381
109.1017 4616
119.06724 4073
119.08667 3776
119.10117 3774
121.10232 2936
121.11862 2980
123.08125 11187
131.08629 4191
133.10234 16006
134.10242 1895
134.10927 1889
137.09665 2374
137.1026 2375
143.0871 3236
145.10269 8687
146.09081 1416
146.10573 1383
147.11757 6087
155.08691 3414
155.10294 3403
157.10172 3187
159.11856 2287
159.13319 2351
161.0983 1498
169.08434 3496
169.1017 2990
171.082 5531
171.11823 4132
173.09708 3915
173.13478 4579
175.11288 6936
175.14458 1484
175.15126 1503
175.1615 1824
181.10313 2165
183.11836 5807
184.11963 1382
184.13033 1362
185.11308 1373
185.13197 1598
189.04884 1602
193.10287 2644
193.11172 2493
195.04298 1680
195.05927 1822
195.11821 2547
197.09525 1844
197.11006 2051
197.1324 2304
205.10269 1487
207.05907 6230
207.11868 5190
207.12842 5121
208.11938 1433
208.12933 1330
209.04802 1828
209.05836 2228
209.07332 2312
209.08665 1790
209.0988 1590
209.13394 7044
210.14047 3103
210.15353 3196
211.11357 3339
211.14825 1693
213.07289 1878
213.09148 2110
213.10396 2148
213.12944 1697
214.13731 2823
215.11003 3181
219.11536 1407
221.13365 1662
223.11276 2290
223.14946 9283
224.1541 2139
225.12799 3037
225.16359 2053
231.10664 1479
233.13345 4525
234.13875 1927
234.15559 1872
235.09111 2161
235.14926 1642
237.1293 1675
239.14287 1397
243.0966 2700
245.11017 6323
246.09869 1508
246.11169 1526
247.10808 2018
247.14969 5021
247.16872 5177
248.15462 3692
249.16501 15040
250.13152 2423
250.14172 2958
250.16814 3195
251.14536 13976
252.14835 3883
257.10983 2654
257.15628 1391
265.16016 25379
266.1669 24208
267.17563 74551
267.2153 1814
268.17993 14259
269.18698 2381
273.16626 2795
285.12711 4734
285.14105 3780
285.20795 7228
285.2196 7910
285.23511 7806
286.23447 1386
287.1217 5525
289.12015 2161
291.17685 12141
292.17355 2637
292.18576 2779
301.13687 58877
302.14297 31959
303.14371 40482
304.14404 12776
305.14917 6585
306.15244 1449
309.1861 83898
309.22607 1447
310.19006 16865
311.19318 1629
327.15295 5577
327.23306 21160
328.23523 4426
329.14578 2024
329.16409 1745
345.16245 49955
346.16617 10145
347.16104 16280
348.16516 3053
387.25446 52869
388.25879 12410
405.18347 132263
406.18671 29770
407.18143 44133
408.18396 9284
427.16586 4102
Name: Chlormadinone acetate
PrecursorMZ: 405.1842
PrecursorType: [M+H]+
IonMode: Positive
Formula: C23H29ClO4
SMILES: CC(=O)C1(CCC2C1(CCC3C2C=C(C4=CC(=O)CCC34C)Cl)C)OC(=O)C
InChI: 
InChIKey: QMBJSIBWORFWQT-DFXBJWIESA-N
RetentionTime: 7.265633
CCS: 
CollisionEnergy: 20-40 eV
InstrumentType: UPLC-QTOF-MS
Comment: PI: Cristina Nerin; Data collector: QiZhi Su, GUIA, University of Zaragoza, Spain; Collision energy: 20-40 V; Instrument: Waters HPLC-QTOF-MS (Xevo G2 QTof); Ionization: ESI; Deconvoluted by MS-DIAL; Column: Waters AtlantisTM premier BEH C18 AX column (2.1 × 100mm x 1.7μm); Flow rate: 0.3mL/min; Mobile phase A and B are water and methnaol, respectively, both with 0.1% formic acid; Gradient elution: from A/B (95/5) to A/B (100/0) in 7min, kept for 4 min, then back to A/B (95/5) in 0.1 min, and maintained for additional 1.9 min (13min in total).; Injection volume: 10 μL
Num peaks: 81
109.10127 3329
109.10731 3379
131.06729 2036
131.08607 2072
133.08202 5112
133.10229 11484
143.08572 1652
145.10185 2703
147.11728 1704
155.08696 2836
171.08139 5465
173.09666 4131
175.1122 5020
175.12086 4860
181.10306 1636
183.1169 3894
189.04726 1899
193.10205 2221
195.05269 1675
195.06252 1763
195.11981 1804
195.13441 2042
197.09616 1904
205.08507 2444
205.10303 1969
207.05853 5879
207.1179 4704
209.05824 2190
209.08038 2038
209.0932 1889
209.10419 1638
209.13402 5705
210.13939 2534
211.11186 3048
213.09259 1866
215.10843 3208
221.13359 1641
223.11322 2169
223.15039 8003
225.1277 2927
233.13411 3954
235.08661 1934
235.1006 2504
243.09445 2287
245.1109 5975
247.10056 2060
247.11441 1975
247.15013 4479
248.15659 3386
249.16533 13937
250.1362 2058
250.16931 2709
251.14507 13242
252.14995 3853
257.11185 2092
265.15964 25255
266.16675 24052
267.17523 71704
268.17896 14097
273.1647 2894
285.14078 3505
287.11987 4911
287.13235 4868
289.12006 2113
291.17593 11671
292.1788 2527
301.13687 58650
302.14297 31939
303.14334 38583
304.1423 12250
304.15622 14149
305.14874 6176
309.18582 81201
310.18918 16405
327.15253 5505
329.15033 2062
345.1615 48352
346.16605 10069
347.16034 16331
348.16284 2919
405.18307 161068
Name: Chlormadinone acetate
PrecursorMZ: 809.3596
PrecursorType: [2M+H]+
IonMode: Positive
Formula: C23H29ClO4
SMILES: CC(=O)C1(CCC2C1(CCC3C2C=C(C4=CC(=O)CCC34C)Cl)C)OC(=O)C
InChI: 
InChIKey: QMBJSIBWORFWQT-DFXBJWIESA-N
RetentionTime: 7.265633
CCS: 
CollisionEnergy: 20-40 eV
InstrumentType: UPLC-QTOF-MS
Comment: PI: Cristina Nerin; Data collector: QiZhi Su, GUIA, University of Zaragoza, Spain; Collision energy: 20-40 V; Instrument: Waters HPLC-QTOF-MS (Xevo G2 QTof); Ionization: ESI; Deconvoluted by MS-DIAL; Column: Waters AtlantisTM premier BEH C18 AX column (2.1 × 100mm x 1.7μm); Flow rate: 0.3mL/min; Mobile phase A and B are water and methnaol, respectively, both with 0.1% formic acid; Gradient elution: from A/B (95/5) to A/B (100/0) in 7min, kept for 4 min, then back to A/B (95/5) in 0.1 min, and maintained for additional 1.9 min (13min in total).; Injection volume: 10 μL
Num peaks: 127
93.07115 2071
95.08698 1902
97.06556 4461
99.06804 1340
99.08224 1503
105.05097 1645
105.07034 1995
107.07078 2398
107.08588 2552
109.10127 3757
109.10731 3787
119.0861 2125
121.10007 1811
121.10725 1825
123.08058 4390
131.06729 4274
131.08607 3466
133.08202 5112
133.10229 14333
134.10539 1614
137.09367 1609
137.10194 1593
143.08572 2325
145.10185 6205
147.11728 4495
155.08696 3102
157.10295 2188
161.0965 1564
161.11052 1416
169.10165 1719
171.08139 5618
171.11856 3264
173.09666 3840
173.13297 2635
175.1122 6044
175.12086 5978
181.10306 1921
183.1169 4740
189.04726 1661
193.10205 2574
194.11002 1412
195.05269 1767
195.06252 1853
195.11981 2298
195.13441 2360
196.14098 1375
197.09616 1852
197.12816 1581
197.13986 1550
205.05978 1387
205.08507 1979
205.10303 1380
207.05853 6337
207.1179 5174
209.05824 2231
209.08038 1933
209.0932 2021
209.10419 1416
209.13402 6521
210.13939 2918
211.11186 3245
213.09259 2134
213.12674 1451
215.10843 3184
223.11322 2428
223.15039 8870
224.15529 1862
225.1277 2949
231.10741 1498
233.13411 4443
234.13774 1833
235.08661 2237
235.1006 2789
237.12823 1713
237.13751 1558
243.09445 2639
245.1109 6407
246.10385 1361
246.11279 1422
247.10056 2214
247.11441 1969
247.15013 5069
248.15659 3640
249.16533 14803
250.1362 2567
250.16931 3112
251.14507 14116
252.14995 3878
257.11185 2603
265.15964 26136
266.16675 24720
267.17523 75490
268.17896 14346
269.18497 1728
273.1647 2808
285.14078 3787
285.2222 3485
286.12396 1429
287.11987 5462
287.13235 5626
289.10822 1693
289.12006 2189
289.12985 1821
291.17593 12390
292.1788 2668
301.13687 59479
302.14297 32309
303.14334 40689
304.1423 12949
304.15622 14443
305.14874 6537
306.15088 1451
306.16251 1411
309.18582 85016
310.18918 17059
311.19427 1589
327.15253 5606
329.15033 2043
345.1615 50193
346.16605 10247
347.16034 16079
348.16284 3035
405.18307 132305
406.18671 30100
407.18103 44212
408.18359 9299
809.35583 6609
Name: Ethinyl estradiol
PrecursorMZ: 314.2118
PrecursorType: [M+NH4]+
IonMode: Positive
Formula: C20H24O2
SMILES: CC12CCC3C(C1CCC2(C#C)O)CCC4=C3C=CC(=C4)O
InChI: 
InChIKey: BFPYWIDHMRZLRN-SLHNCBLASA-N
RetentionTime: 4.114183
CCS: 
CollisionEnergy: 20-40 eV
InstrumentType: UPLC-QTOF-MS
Comment: PI: Cristina Nerin; Data collector: QiZhi Su, GUIA, University of Zaragoza, Spain; Collision energy: 20-40 V; Instrument: Waters HPLC-QTOF-MS (Xevo G2 QTof); Ionization: ESI; Deconvoluted by MS-DIAL; Column: Waters AtlantisTM premier BEH C18 AX column (2.1 × 100mm x 1.7μm); Flow rate: 0.3mL/min; Mobile phase A and B are water and methnaol, respectively, both with 0.1% formic acid; Gradient elution: from A/B (95/5) to A/B (100/0) in 7min, kept for 4 min, then back to A/B (95/5) in 0.1 min, and maintained for additional 1.9 min (13min in total).; Injection volume: 10 μL
Num peaks: 32
84.08199 4346
85.08475 751
85.09212 755
86.09342 1705
86.09881 1705
86.11893 345
91.05486 30272
91.07322 30273
92.05824 2478
100.07423 356
100.08537 356
105.06519 767
105.06969 765
105.07774 765
107.03644 3204
107.04961 3347
107.05949 3346
107.06898 3405
130.12311 4370
131.12064 448
131.12984 449
131.13722 448
133.06595 354
135.08099 1480
178.12292 3098
179.12045 315
179.13202 332
222.14835 1498
268.17072 2199
269.17395 402
314.20001 902
314.21323 3793
Name: 4'-Methylacetanilide
PrecursorMZ: 150.0918
PrecursorType: [M+H]+
IonMode: Positive
Formula: C9H11NO
SMILES: CC1=CC=C(C=C1)NC(=O)C
InChI: 
InChIKey: YICAMJWHIUMFDI-UHFFFAOYSA-N
RetentionTime: 4.929367
CCS: 
CollisionEnergy: 20-40 eV
InstrumentType: UPLC-QTOF-MS
Comment: PI: Cristina Nerin; Data collector: QiZhi Su, GUIA, University of Zaragoza, Spain; Collision energy: 20-40 V; Instrument: Waters HPLC-QTOF-MS (Xevo G2 QTof); Ionization: ESI; Deconvoluted by MS-DIAL; Column: Waters AtlantisTM premier BEH C18 AX column (2.1 × 100mm x 1.7μm); Flow rate: 0.3mL/min; Mobile phase A and B are water and methnaol, respectively, both with 0.1% formic acid; Gradient elution: from A/B (95/5) to A/B (100/0) in 7min, kept for 4 min, then back to A/B (95/5) in 0.1 min, and maintained for additional 1.9 min (13min in total).; Injection volume: 10 μL
Num peaks: 17
77.03874 243
84.96127 1188
91.05483 2101
92.05967 275
93.05806 14461
94.06045 661
94.06575 239
106.06617 2948
106.0815 241
107.06799 261
107.07435 595
108.08114 20887
109.08505 1394
114.12462 221
121.10602 273
150.08513 873
150.09256 3258
Name: 4'-Methylacetanilide
PrecursorMZ: 150.0918
PrecursorType: [M+H]+
IonMode: Positive
Formula: C9H11NO
SMILES: CC1=CC=C(C=C1)NC(=O)C
InChI: 
InChIKey: YICAMJWHIUMFDI-UHFFFAOYSA-N
RetentionTime: 5.020733
CCS: 
CollisionEnergy: 20-40 eV
InstrumentType: UPLC-QTOF-MS
Comment: PI: Cristina Nerin; Data collector: QiZhi Su, GUIA, University of Zaragoza, Spain; Collision energy: 20-40 V; Instrument: Waters HPLC-QTOF-MS (Xevo G2 QTof); Ionization: ESI; Deconvoluted by MS-DIAL; Column: Waters AtlantisTM premier BEH C18 AX column (2.1 × 100mm x 1.7μm); Flow rate: 0.3mL/min; Mobile phase A and B are water and methnaol, respectively, both with 0.1% formic acid; Gradient elution: from A/B (95/5) to A/B (100/0) in 7min, kept for 4 min, then back to A/B (95/5) in 0.1 min, and maintained for additional 1.9 min (13min in total).; Injection volume: 10 μL
Num peaks: 20
77.04024 333
93.05798 15802
94.04661 978
94.06128 1054
94.07242 1037
103.52861 318
103.53532 317
106.06461 2982
107.0563 742
107.07236 846
107.08156 804
108.06244 23818
108.08133 24089
108.09954 24091
108.1106 277
109.08379 1854
109.10345 2248
112.53294 308
112.54143 308
150.09186 8221
Name: 4'-Methylacetanilide
PrecursorMZ: 172.0743
PrecursorType: [M+Na]+
IonMode: Positive
Formula: C9H11NO
SMILES: CC1=CC=C(C=C1)NC(=O)C
InChI: 
InChIKey: YICAMJWHIUMFDI-UHFFFAOYSA-N
RetentionTime: 5.02455
CCS: 
CollisionEnergy: 20-40 eV
InstrumentType: UPLC-QTOF-MS
Comment: PI: Cristina Nerin; Data collector: QiZhi Su, GUIA, University of Zaragoza, Spain; Collision energy: 20-40 V; Instrument: Waters HPLC-QTOF-MS (Xevo G2 QTof); Ionization: ESI; Deconvoluted by MS-DIAL; Column: Waters AtlantisTM premier BEH C18 AX column (2.1 × 100mm x 1.7μm); Flow rate: 0.3mL/min; Mobile phase A and B are water and methnaol, respectively, both with 0.1% formic acid; Gradient elution: from A/B (95/5) to A/B (100/0) in 7min, kept for 4 min, then back to A/B (95/5) in 0.1 min, and maintained for additional 1.9 min (13min in total).; Injection volume: 10 μL
Num peaks: 25
77.03989 313
77.04367 313
79.05457 221
84.9613 405
84.96961 413
93.05822 14028
94.0602 914
94.52375 240
103.52762 347
106.06595 2436
107.0675 726
107.07377 715
108.08146 21335
109.08352 1612
109.09326 1643
112.52348 382
112.53303 380
148.06837 224
150.09171 5198
151.09407 442
169.06494 2664
169.07481 2666
169.55771 542
169.56822 549
172.07137 221
Name: 4'-Methylacetanilide
PrecursorMZ: 299.1766
PrecursorType: [2M+H]+
IonMode: Positive
Formula: C9H11NO
SMILES: CC1=CC=C(C=C1)NC(=O)C
InChI: 
InChIKey: YICAMJWHIUMFDI-UHFFFAOYSA-N
RetentionTime: 5.02455
CCS: 
CollisionEnergy: 20-40 eV
InstrumentType: UPLC-QTOF-MS
Comment: PI: Cristina Nerin; Data collector: QiZhi Su, GUIA, University of Zaragoza, Spain; Collision energy: 20-40 V; Instrument: Waters HPLC-QTOF-MS (Xevo G2 QTof); Ionization: ESI; Deconvoluted by MS-DIAL; Column: Waters AtlantisTM premier BEH C18 AX column (2.1 × 100mm x 1.7μm); Flow rate: 0.3mL/min; Mobile phase A and B are water and methnaol, respectively, both with 0.1% formic acid; Gradient elution: from A/B (95/5) to A/B (100/0) in 7min, kept for 4 min, then back to A/B (95/5) in 0.1 min, and maintained for additional 1.9 min (13min in total).; Injection volume: 10 μL
Num peaks: 13
84.9613 793
84.96961 797
93.05822 20894
94.0602 1395
106.06595 4076
107.0675 371
108.08146 31799
109.08352 566
109.09326 634
112.52348 445
112.53303 445
169.06494 881
169.07481 938
Name: 4'-Methylacetanilide
PrecursorMZ: 321.1566
PrecursorType: [2M+Na]+
IonMode: Positive
Formula: C9H11NO
SMILES: CC1=CC=C(C=C1)NC(=O)C
InChI: 
InChIKey: YICAMJWHIUMFDI-UHFFFAOYSA-N
RetentionTime: 5.02835
CCS: 
CollisionEnergy: 20-40 eV
InstrumentType: UPLC-QTOF-MS
Comment: PI: Cristina Nerin; Data collector: QiZhi Su, GUIA, University of Zaragoza, Spain; Collision energy: 20-40 V; Instrument: Waters HPLC-QTOF-MS (Xevo G2 QTof); Ionization: ESI; Deconvoluted by MS-DIAL; Column: Waters AtlantisTM premier BEH C18 AX column (2.1 × 100mm x 1.7μm); Flow rate: 0.3mL/min; Mobile phase A and B are water and methnaol, respectively, both with 0.1% formic acid; Gradient elution: from A/B (95/5) to A/B (100/0) in 7min, kept for 4 min, then back to A/B (95/5) in 0.1 min, and maintained for additional 1.9 min (13min in total).; Injection volume: 10 μL
Num peaks: 29
77.0386 288
84.95985 907
84.96889 907
93.05788 9510
93.07849 357
94.06191 504
103.52627 189
103.53352 191
106.06553 1963
107.05349 534
107.07177 795
107.08295 697
108.08105 15033
108.09229 15069
108.1049 389
109.08562 1787
110.07996 153
112.52747 455
112.53777 455
114.12025 153
114.12877 155
114.13514 155
150.09145 2856
151.09312 311
151.1046 305
169.06619 1049
172.07458 155
206.01141 244
206.026 261
Name: Pellidol
PrecursorMZ: 310.1554
PrecursorType: [M+H]+
IonMode: Positive
Formula: C18H19N3O2
SMILES: CC1=CC=CC=C1N=NC2=CC(=C(C=C2)N(C(=O)C)C(=O)C)C
InChI: 
InChIKey: YIEDSISPYKQADU-UHFFFAOYSA-N
RetentionTime: 6.4499
CCS: 
CollisionEnergy: 20-40 eV
InstrumentType: UPLC-QTOF-MS
Comment: PI: Cristina Nerin; Data collector: QiZhi Su, GUIA, University of Zaragoza, Spain; Collision energy: 20-40 V; Instrument: Waters HPLC-QTOF-MS (Xevo G2 QTof); Ionization: ESI; Deconvoluted by MS-DIAL; Column: Waters AtlantisTM premier BEH C18 AX column (2.1 × 100mm x 1.7μm); Flow rate: 0.3mL/min; Mobile phase A and B are water and methnaol, respectively, both with 0.1% formic acid; Gradient elution: from A/B (95/5) to A/B (100/0) in 7min, kept for 4 min, then back to A/B (95/5) in 0.1 min, and maintained for additional 1.9 min (13min in total).; Injection volume: 10 μL
Num peaks: 173
65.03349 537
65.04064 537
65.04419 537
77.03912 2139
77.05072 2139
77.05653 2180
78.03267 196
78.04234 194
79.05512 5382
80.05336 355
80.05834 355
83.01244 321
85.07174 119
91.04047 9209
91.05495 9197
92.0544 886
92.05937 888
93.03215 530
93.04007 584
93.0552 471
93.06987 158
93.07774 135
94.06349 2236
94.06969 2233
95.04955 736
95.06293 791
95.06789 770
95.07808 198
95.08817 125
103.05644 158
106.06622 5934
107.04883 5514
107.06389 6176
107.07241 763
107.08546 660
108.04195 473
108.0563 534
108.06528 767
108.0726 778
108.08216 377
118.05868 172
118.06796 220
119.04185 359
119.05781 587
119.06277 583
120.0618 1561
120.08121 2791
121.02884 1344
121.07689 10566
122.05918 116
122.08028 1259
122.0937 1224
130.04846 240
130.06416 294
131.04782 118
131.07254 463
131.084 424
132.07706 201
132.08557 191
132.99417 544
133.00032 543
133.07542 1744
134.0562 908
134.06413 997
134.07916 838
134.09393 139
139.0388 539
148.07588 9401
149.02249 412
149.05807 313
149.0775 1021
149.08878 1030
149.09941 372
150.07574 166
150.0925 188
150.09862 192
153.54497 122
162.09152 659
163.08664 901
163.09767 864
163.10841 291
164.09386 427
164.10611 370
165.06705 123
165.07581 148
165.0903 130
167.06915 313
167.07928 308
175.08646 3032
175.09656 3099
176.08258 536
176.0961 529
176.98711 3245
177.0154 159
177.98947 283
178.00027 269
181.06726 153
181.08127 259
181.09134 264
182.08237 449
182.09557 521
183.09749 270
183.11159 267
192.06451 132
192.07487 260
192.08649 237
194.07605 936
194.08836 943
194.10258 777
195.06709 141
195.08096 398
195.09065 435
195.10287 437
196.07835 152
196.09775 173
197.09048 160
197.10687 197
199.12164 290
208.08057 227
208.09843 508
209.10802 5229
209.12842 961
210.09235 1251
210.10225 1545
210.1129 1470
211.07776 266
211.0927 447
211.10732 408
211.11632 270
211.12679 258
212.08418 146
212.10002 190
224.1132 183
224.12244 162
224.13002 148
225.09512 162
225.11055 283
225.12717 170
226.13391 1777
227.11922 1223
227.13748 1032
228.12314 151
233.09424 237
233.10493 207
233.11775 215
234.10518 161
238.08755 260
238.10002 309
250.13504 11091
251.12057 1997
251.13927 2340
252.11061 372
252.12433 465
252.14394 255
253.10178 343
253.1151 828
253.12329 814
254.12096 124
265.13803 124
268.14468 11464
269.14673 1796
269.16693 1053
270.15146 183
272.11868 832
287.11353 351
287.13669 248
287.62006 166
306.08499 482
306.10211 462
307.08853 130
308.11844 251
308.63013 145
310.15106 588
Name: Pellidol
PrecursorMZ: 641.2836
PrecursorType: [2M+Na]+
IonMode: Positive
Formula: C18H19N3O2
SMILES: CC1=CC=CC=C1N=NC2=CC(=C(C=C2)N(C(=O)C)C(=O)C)C
InChI: 
InChIKey: YIEDSISPYKQADU-UHFFFAOYSA-N
RetentionTime: 6.4499
CCS: 
CollisionEnergy: 20-40 eV
InstrumentType: UPLC-QTOF-MS
Comment: PI: Cristina Nerin; Data collector: QiZhi Su, GUIA, University of Zaragoza, Spain; Collision energy: 20-40 V; Instrument: Waters HPLC-QTOF-MS (Xevo G2 QTof); Ionization: ESI; Deconvoluted by MS-DIAL; Column: Waters AtlantisTM premier BEH C18 AX column (2.1 × 100mm x 1.7μm); Flow rate: 0.3mL/min; Mobile phase A and B are water and methnaol, respectively, both with 0.1% formic acid; Gradient elution: from A/B (95/5) to A/B (100/0) in 7min, kept for 4 min, then back to A/B (95/5) in 0.1 min, and maintained for additional 1.9 min (13min in total).; Injection volume: 10 μL
Num peaks: 190
65.03349 537
65.04064 537
65.04419 537
77.03912 2139
77.05072 2139
77.05653 2180
78.03267 196
78.04234 194
79.05512 5382
80.05336 355
80.05834 355
83.01244 321
85.07174 119
91.04047 9209
91.05495 9197
92.0544 886
92.05937 888
93.03215 530
93.04007 584
93.0552 471
93.06987 158
93.07774 135
94.06349 2236
94.06969 2233
95.04955 736
95.06293 791
95.06789 770
95.07808 198
95.08817 125
103.05644 158
106.06622 5934
107.04883 5514
107.06389 6176
107.07241 763
107.08546 660
108.04195 473
108.0563 534
108.06528 767
108.0726 778
108.08216 377
118.05868 172
118.06796 220
119.04185 359
119.05781 587
119.06277 583
120.0618 1561
120.08121 2791
121.02884 1344
121.07689 10566
122.05918 116
122.08028 1259
122.0937 1224
130.04846 240
130.06416 294
131.04782 118
131.07254 463
131.084 424
132.07706 201
132.08557 191
132.99417 544
133.00032 543
133.07542 1744
134.0562 908
134.06413 997
134.07916 838
134.09393 139
139.0388 539
148.07588 9401
149.02249 412
149.05807 313
149.0775 1021
149.08878 1030
149.09941 372
150.07574 166
150.0925 188
150.09862 192
153.54497 122
162.09152 659
163.08664 901
163.09767 864
163.10841 291
164.09386 427
164.10611 370
165.06705 123
165.07581 148
165.0903 130
167.06915 313
167.07928 308
175.08646 3032
175.09656 3099
176.08258 536
176.0961 529
176.98711 3245
177.0154 159
177.98947 283
178.00027 269
181.06726 153
181.08127 259
181.09134 264
182.08237 449
182.09557 521
183.09749 270
183.11159 267
192.06451 132
192.07487 260
192.08649 237
194.07605 936
194.08836 943
194.10258 777
195.06709 141
195.08096 398
195.09065 435
195.10287 437
196.07835 152
196.09775 173
197.09048 160
197.10687 197
199.12164 290
208.08057 227
208.09843 508
209.10802 5229
209.12842 961
210.09235 1251
210.10225 1545
210.1129 1470
211.07776 266
211.0927 447
211.10732 408
211.11632 270
211.12679 258
212.08418 146
212.10002 190
224.1132 183
224.12244 162
224.13002 148
225.09512 162
225.11055 283
225.12717 170
226.13391 1777
227.11922 1223
227.13748 1032
228.12314 151
233.09424 237
233.10493 207
233.11775 215
234.10518 161
238.08755 260
238.10002 309
250.13504 11091
251.12057 1997
251.13927 2340
252.11061 372
252.12433 465
252.14394 255
253.10178 343
253.1151 828
253.12329 814
254.12096 124
265.13803 124
268.14468 11464
269.14673 1796
269.16693 1053
270.15146 183
272.11868 832
287.11353 351
287.13669 248
287.62006 166
306.08499 482
306.10211 462
307.08853 130
308.11844 251
308.63013 145
310.15106 657
315.00958 231
315.02011 255
316.15866 235
316.17093 223
332.13669 5849
333.12119 459
333.14383 1230
334.1351 209
334.14951 159
357.0546 250
357.06845 246
366.09793 203
366.11679 136
394.10559 276
408.11725 296
486.12927 215
486.14459 201
Name: Pellidol
PrecursorMZ: 332.1371
PrecursorType: [M+Na]+
IonMode: Positive
Formula: C18H19N3O2
SMILES: CC1=CC=CC=C1N=NC2=CC(=C(C=C2)N(C(=O)C)C(=O)C)C
InChI: 
InChIKey: YIEDSISPYKQADU-UHFFFAOYSA-N
RetentionTime: 6.4537
CCS: 
CollisionEnergy: 20-40 eV
InstrumentType: UPLC-QTOF-MS
Comment: PI: Cristina Nerin; Data collector: QiZhi Su, GUIA, University of Zaragoza, Spain; Collision energy: 20-40 V; Instrument: Waters HPLC-QTOF-MS (Xevo G2 QTof); Ionization: ESI; Deconvoluted by MS-DIAL; Column: Waters AtlantisTM premier BEH C18 AX column (2.1 × 100mm x 1.7μm); Flow rate: 0.3mL/min; Mobile phase A and B are water and methnaol, respectively, both with 0.1% formic acid; Gradient elution: from A/B (95/5) to A/B (100/0) in 7min, kept for 4 min, then back to A/B (95/5) in 0.1 min, and maintained for additional 1.9 min (13min in total).; Injection volume: 10 μL
Num peaks: 177
65.03867 537
77.03934 2139
78.04308 212
79.05584 5369
80.05797 355
83.01209 321
83.01871 322
85.06956 118
91.05485 9177
92.05932 887
93.03537 572
93.05762 232
93.06579 194
93.07123 187
93.07609 145
94.06499 2141
94.07298 2130
95.04898 675
95.05598 762
95.06944 709
95.08252 137
103.059 168
106.06593 5934
107.0506 5533
107.06334 6173
107.07178 941
107.08685 716
108.03984 435
108.05272 541
108.06145 636
108.07291 773
108.07997 475
108.08679 374
109.06001 141
109.06863 178
117.05334 126
118.04763 134
118.05539 176
118.06364 175
119.06018 585
119.07254 566
119.0805 212
120.08109 2752
121.02859 1344
121.04084 1331
121.07685 10369
122.06627 1207
122.08309 1263
123.6251 125
130.05603 221
130.06891 267
130.07791 221
131.06729 516
131.07915 398
132.05898 140
132.06946 205
132.08467 203
132.99135 546
132.99942 543
133.01657 267
133.07701 1791
134.05467 897
134.06052 950
134.0704 1015
134.0811 709
139.0345 532
139.04179 555
139.05931 246
148.07678 9417
148.09494 9534
149.02022 412
149.02808 424
149.03555 424
149.07877 1006
149.09129 1022
150.07547 161
150.08844 183
153.55283 125
162.09212 652
163.08449 913
163.09509 859
163.1091 291
164.08554 417
164.09612 416
165.0784 176
167.07393 326
167.08771 325
175.08676 3016
176.08525 531
176.09276 530
176.98651 3245
176.99469 3242
177.9843 283
177.99361 274
181.0728 145
181.08321 239
181.09499 197
182.08704 523
182.09923 531
183.10092 270
183.11156 270
192.08017 254
193.0759 146
193.0865 136
194.07529 927
194.08794 917
195.0667 115
195.0938 387
196.08383 171
196.09825 173
197.08757 164
197.11313 200
198.10451 121
199.12402 220
199.13649 203
207.09351 167
208.10065 496
209.10785 5301
210.0851 676
210.10316 1680
210.11461 1405
210.12947 648
211.0831 132
211.10753 396
212.09184 187
212.11128 177
224.11819 166
224.13252 163
225.09203 160
225.10695 270
225.12511 142
226.1281 1726
226.13873 1784
227.119 1236
227.13762 1079
228.11668 179
228.13364 198
233.10599 211
234.09868 158
234.11098 181
235.10924 124
238.10112 303
250.13461 11091
251.11569 860
251.12924 2515
251.14159 2208
251.15569 1413
252.10722 289
252.11879 356
252.14638 194
253.11945 824
253.13396 754
254.11133 128
254.12881 120
265.13931 117
268.1442 11464
269.12656 406
269.14914 1855
270.15732 179
272.11694 803
287.12012 372
287.13 359
287.61545 166
304.08194 121
306.08527 464
306.09796 450
307.07211 129
307.0853 125
308.11935 251
310.14664 662
310.16245 688
311.15637 135
315.00165 143
315.01837 248
315.03464 213
316.16202 228
332.13675 7237
Name: Pellidol
PrecursorMZ: 348.1093
PrecursorType: [M+K]+
IonMode: Positive
Formula: C18H19N3O2
SMILES: CC1=CC=CC=C1N=NC2=CC(=C(C=C2)N(C(=O)C)C(=O)C)C
InChI: 
InChIKey: YIEDSISPYKQADU-UHFFFAOYSA-N
RetentionTime: 6.457517
CCS: 
CollisionEnergy: 20-40 eV
InstrumentType: UPLC-QTOF-MS
Comment: PI: Cristina Nerin; Data collector: QiZhi Su, GUIA, University of Zaragoza, Spain; Collision energy: 20-40 V; Instrument: Waters HPLC-QTOF-MS (Xevo G2 QTof); Ionization: ESI; Deconvoluted by MS-DIAL; Column: Waters AtlantisTM premier BEH C18 AX column (2.1 × 100mm x 1.7μm); Flow rate: 0.3mL/min; Mobile phase A and B are water and methnaol, respectively, both with 0.1% formic acid; Gradient elution: from A/B (95/5) to A/B (100/0) in 7min, kept for 4 min, then back to A/B (95/5) in 0.1 min, and maintained for additional 1.9 min (13min in total).; Injection volume: 10 μL
Num peaks: 137
77.03934 512
78.04062 240
79.05518 5436
79.06651 5439
80.04514 376
80.05925 174
85.07139 101
91.05514 8817
92.0407 832
93.0344 602
93.05025 765
95.05029 864
95.06917 714
100.98553 189
103.05595 187
106.0667 716
107.04997 4982
107.06831 1659
107.08133 1064
108.05306 544
108.06142 634
108.08042 477
109.05828 202
109.06541 217
109.08218 151
117.05689 94
117.0649 105
119.04933 563
119.05934 609
120.06689 1162
121.02782 774
121.04028 612
122.07131 1311
122.08272 1350
122.10234 692
123.63406 167
130.08301 236
131.06488 532
132.06708 199
132.07858 224
132.08861 186
132.97398 181
133.05521 164
133.07607 1743
134.05521 916
134.06386 990
134.08025 660
139.04947 168
144.07332 93
145.0639 104
146.09145 111
148.07693 1745
148.09726 476
149.02505 259
149.03389 320
149.08163 1022
149.095 993
150.0827 202
150.09486 215
150.10756 156
151.10448 92
163.06509 213
163.08592 530
163.09918 927
165.07663 180
165.09607 125
167.06783 346
167.07681 350
175.08739 1422
181.07707 252
182.08615 154
182.09766 241
183.10301 326
183.11166 323
191.06992 90
193.07959 196
193.09364 199
194.98689 112
194.99904 110
195.06227 97
196.07857 138
196.09961 152
207.08386 174
208.0943 512
209.10757 5323
210.10789 1656
211.06233 89
211.07375 234
211.12245 373
219.03302 104
223.11943 115
223.12894 113
224.10132 158
224.12015 210
225.07838 113
225.09425 181
225.10522 271
226.13483 924
227.13611 1162
228.12366 245
234.09135 145
234.10413 170
234.11751 156
235.09406 100
235.11937 102
238.11716 260
239.09515 145
239.10776 156
250.13516 3915
251.11473 903
251.12466 2511
251.14163 2185
251.16353 92
252.09291 114
252.10535 294
265.13156 156
268.14505 1909
269.108 100
269.12625 372
269.14389 526
269.15625 1111
270.16809 159
281.03015 93
281.04211 96
287.12244 414
287.13989 272
287.61661 181
287.63065 181
304.07047 132
304.08859 126
307.08575 135
311.16281 156
315.02728 261
316.1701 246
332.13812 4484
333.14182 1185
334.14221 218
Name: Phenoxybenzamine
PrecursorMZ: 304.1476
PrecursorType: [M+H]+
IonMode: Positive
Formula: C18H22ClNO
SMILES: CC(COC1=CC=CC=C1)N(CCCl)CC2=CC=CC=C2
InChI: 
InChIKey: QZVCTJOXCFMACW-UHFFFAOYSA-N
RetentionTime: 6.259583
CCS: 
CollisionEnergy: 20-40 eV
InstrumentType: UPLC-QTOF-MS
Comment: PI: Cristina Nerin; Data collector: QiZhi Su, GUIA, University of Zaragoza, Spain; Collision energy: 20-40 V; Instrument: Waters HPLC-QTOF-MS (Xevo G2 QTof); Ionization: ESI; Deconvoluted by MS-DIAL; Column: Waters AtlantisTM premier BEH C18 AX column (2.1 × 100mm x 1.7μm); Flow rate: 0.3mL/min; Mobile phase A and B are water and methnaol, respectively, both with 0.1% formic acid; Gradient elution: from A/B (95/5) to A/B (100/0) in 7min, kept for 4 min, then back to A/B (95/5) in 0.1 min, and maintained for additional 1.9 min (13min in total).; Injection volume: 10 μL
Num peaks: 8
91.05494 684706
91.07133 684889
92.05801 44892
107.04953 10958
120.05789 161600
121.04504 8931
122.05474 51575
304.14722 8942
Name: Aminophenazone
PrecursorMZ: 232.1461
PrecursorType: [M+H]+
IonMode: Positive
Formula: C13H17N3O
SMILES: CC1=C(C(=O)N(N1C)C2=CC=CC=C2)N(C)C
InChI: 
InChIKey: RMMXTBMQSGEXHJ-UHFFFAOYSA-N
RetentionTime: 0.9394333
CCS: 
CollisionEnergy: 20-40 eV
InstrumentType: UPLC-QTOF-MS
Comment: PI: Cristina Nerin; Data collector: QiZhi Su, GUIA, University of Zaragoza, Spain; Collision energy: 20-40 V; Instrument: Waters HPLC-QTOF-MS (Xevo G2 QTof); Ionization: ESI; Deconvoluted by MS-DIAL; Column: Waters AtlantisTM premier BEH C18 AX column (2.1 × 100mm x 1.7μm); Flow rate: 0.3mL/min; Mobile phase A and B are water and methnaol, respectively, both with 0.1% formic acid; Gradient elution: from A/B (95/5) to A/B (100/0) in 7min, kept for 4 min, then back to A/B (95/5) in 0.1 min, and maintained for additional 1.9 min (13min in total).; Injection volume: 10 μL
Num peaks: 56
56.04912 453
56.05341 453
58.06693 1070
70.06616 2315
71.06667 146
71.07845 154
72.08174 1829
82.06603 346
82.07304 339
91.05486 278
96.06068 121
97.07793 4403
98.0658 2968
98.08628 3919
99.07648 659
99.09398 694
111.0928 3937
112.0947 289
112.10154 290
112.10945 284
113.10858 2427
114.10217 178
114.10868 208
114.11444 115
117.05846 214
117.06692 219
118.0612 560
118.06762 559
119.07285 125
125.01777 255
127.00815 204
127.0148 205
149.1053 166
159.08229 382
159.09482 416
159.10487 405
167.07425 5450
168.0779 643
180.08333 513
194.08075 544
194.09775 440
195.10339 215
201.03697 559
202.0433 623
204.03531 226
204.04993 244
204.05765 220
216.11955 134
216.13158 129
230.07451 10994
231.07869 2039
231.12991 151
231.13814 151
232.07254 2991
232.1368 177
232.31418 163
Name: Pellidol
PrecursorMZ: 310.1546
PrecursorType: [M+H]+
IonMode: Positive
Formula: C18H19N3O2
SMILES: CC1=CC=CC=C1N=NC2=CC(=C(C=C2)N(C(=O)C)C(=O)C)C
InChI: 
InChIKey: YIEDSISPYKQADU-UHFFFAOYSA-N
RetentionTime: 7.37985
CCS: 
CollisionEnergy: 20-40 eV
InstrumentType: UPLC-QTOF-MS
Comment: PI: Cristina Nerin; Data collector: QiZhi Su, GUIA, University of Zaragoza, Spain; Collision energy: 20-40 V; Instrument: Waters HPLC-QTOF-MS (Xevo G2 QTof); Ionization: ESI; Deconvoluted by MS-DIAL; Column: Waters AtlantisTM premier BEH C18 AX column (2.1 × 100mm x 1.7μm); Flow rate: 0.3mL/min; Mobile phase A and B are water and methnaol, respectively, both with 0.1% formic acid; Gradient elution: from A/B (95/5) to A/B (100/0) in 7min, kept for 4 min, then back to A/B (95/5) in 0.1 min, and maintained for additional 1.9 min (13min in total).; Injection volume: 10 μL
Num peaks: 133
77.0387 3463
79.05439 13770
80.04905 1089
80.05627 1095
80.06362 1083
81.05426 3252
81.06977 2921
83.00955 1011
83.04966 2597
85.06515 2227
91.05482 39330
92.05753 3321
92.06984 3325
93.05754 1707
93.06951 1672
94.06463 6013
94.07095 6102
94.08112 6152
95.06962 2149
95.086 1982
95.09639 1420
97.04599 89166
97.06529 88877
98.06922 5826
105.05872 2061
105.0707 2008
106.06615 12925
107.04959 10678
107.07005 1460
107.08577 3550
108.07892 898
108.08525 895
109.06501 84382
109.10104 1241
110.06911 6008
119.05868 1406
119.08596 2409
120.08129 6183
121.07614 27139
121.1024 1807
122.06102 2720
122.08041 2176
123.06277 6212
123.08057 6624
131.06841 2666
131.08318 2482
131.09579 2247
132.06429 1038
132.07394 1168
132.08321 1183
133.07669 4077
134.05937 2103
134.08025 2122
134.09508 975
135.11455 1334
135.1208 1334
145.10161 2500
147.11586 2229
147.12415 2198
148.07597 23861
149.07776 2996
149.09799 2746
157.10243 1022
159.11661 3518
161.13226 1222
161.14413 1248
162.09221 2175
163.0775 1502
163.08781 1226
163.11157 1378
164.09357 916
164.11282 950
171.11728 1892
173.13252 2301
175.08691 9260
176.0773 1066
176.09085 1073
177.12756 1058
182.0938 1084
182.10254 1126
183.09996 1417
183.1144 1647
185.12978 1175
185.13821 1208
185.15076 920
187.14989 1346
189.12738 932
194.08546 2263
195.07799 1119
197.11345 1015
197.12567 1423
197.13419 960
199.14635 941
201.1552 1410
201.16396 1434
201.17287 1431
208.09682 1237
208.10663 1223
209.1077 14452
210.09175 3577
210.10989 5086
210.13431 1001
211.09689 1183
213.16336 1446
213.18158 1193
223.13824 920
223.14992 994
226.13287 5191
227.12218 4033
227.17659 923
238.08636 912
238.10139 1032
239.17415 2271
239.18266 2302
250.1342 22918
251.13504 4559
252.11148 1067
252.12556 1263
253.11421 2107
253.12552 2089
253.19522 1051
255.21057 2439
268.1441 46768
269.14786 7982
272.11633 3051
273.22046 1034
279.2099 3326
297.22064 7229
298.2131 1688
298.22855 1787
308.11438 1123
308.12473 1346
310.15414 11970
Name: Diphenylamine
PrecursorMZ: 170.0977
PrecursorType: [M+H]+
IonMode: Positive
Formula: C12H11N
SMILES: C1=CC=C(C=C1)NC2=CC=CC=C2
InChI: 
InChIKey: DMBHHRLKUKUOEG-UHFFFAOYSA-N
RetentionTime: 6.9758
CCS: 
CollisionEnergy: 20-40 eV
InstrumentType: UPLC-QTOF-MS
Comment: PI: Cristina Nerin; Data collector: QiZhi Su, GUIA, University of Zaragoza, Spain; Collision energy: 20-40 V; Instrument: Waters HPLC-QTOF-MS (Xevo G2 QTof); Ionization: ESI; Deconvoluted by MS-DIAL; Column: Waters AtlantisTM premier BEH C18 AX column (2.1 × 100mm x 1.7μm); Flow rate: 0.3mL/min; Mobile phase A and B are water and methnaol, respectively, both with 0.1% formic acid; Gradient elution: from A/B (95/5) to A/B (100/0) in 7min, kept for 4 min, then back to A/B (95/5) in 0.1 min, and maintained for additional 1.9 min (13min in total).; Injection volume: 10 μL
Num peaks: 22
65.02557 7168
65.03914 7160
66.04517 2979
66.05001 2975
66.06174 2960
77.03997 2978
92.0502 60953
93.05776 164245
93.07535 164354
94.04495 10246
94.06178 10008
128.06274 2637
133.09431 3443
152.0631 8481
153.06921 5460
153.08543 5623
154.06654 1976
155.07718 1668
167.07365 21986
168.08078 18153
169.08723 7566
170.09709 53890
Name: Pellidol
PrecursorMZ: 348.1099
PrecursorType: [M+K]+
IonMode: Positive
Formula: C18H19N3O2
SMILES: CC1=CC=CC=C1N=NC2=CC(=C(C=C2)N(C(=O)C)C(=O)C)C
InChI: 
InChIKey: YIEDSISPYKQADU-UHFFFAOYSA-N
RetentionTime: 7.37985
CCS: 
CollisionEnergy: 20-40 eV
InstrumentType: UPLC-QTOF-MS
Comment: PI: Cristina Nerin; Data collector: QiZhi Su, GUIA, University of Zaragoza, Spain; Collision energy: 20-40 V; Instrument: Waters HPLC-QTOF-MS (Xevo G2 QTof); Ionization: ESI; Deconvoluted by MS-DIAL; Column: Waters AtlantisTM premier BEH C18 AX column (2.1 × 100mm x 1.7μm); Flow rate: 0.3mL/min; Mobile phase A and B are water and methnaol, respectively, both with 0.1% formic acid; Gradient elution: from A/B (95/5) to A/B (100/0) in 7min, kept for 4 min, then back to A/B (95/5) in 0.1 min, and maintained for additional 1.9 min (13min in total).; Injection volume: 10 μL
Num peaks: 103
77.0387 2502
79.05439 9336
80.04905 878
81.05426 2305
81.06977 1798
83.04966 1883
85.06515 1868
91.05482 31038
92.05753 2702
92.06984 2626
93.05754 940
94.06463 4168
94.07095 4237
94.08112 4316
95.06962 1356
95.086 1085
97.04599 58064
97.06529 58307
98.06922 4135
106.06615 9009
107.04959 7048
107.08577 2664
109.06501 53258
109.10104 1192
110.06911 3864
119.08596 1462
120.08129 3939
121.07614 20407
121.1024 1242
122.06102 2536
122.08041 1218
123.06277 4360
123.08057 4196
131.06841 1738
131.08318 1452
131.09579 1501
132.06429 960
132.07394 1078
132.08321 1020
133.07669 2938
134.05937 1943
134.08025 1919
134.09508 911
145.10161 1570
147.11586 1393
147.12415 1372
148.07597 17296
149.07776 2667
149.09799 2012
159.11661 2807
161.13226 942
161.14413 952
162.09221 1450
163.0775 945
163.11157 928
171.11728 1163
173.13252 1688
175.08691 7194
183.09996 906
183.1144 1263
185.13821 914
187.14989 1049
194.08546 1580
195.07799 890
197.12567 1163
201.1552 1095
201.16396 1150
201.17287 1170
208.09682 902
209.1077 11095
210.09175 2931
210.10989 4170
211.09689 887
213.16336 1058
213.18158 980
226.13287 3859
227.12218 2624
239.17415 1804
239.18266 1872
250.1342 11840
251.13504 2129
252.11148 1004
252.12556 1005
253.11421 1553
253.12552 1605
255.21057 1636
268.1441 35838
269.14786 6179
272.11633 1871
279.2099 2310
297.22064 5300
298.2131 1646
298.22855 1743
308.11438 1055
308.12473 1165
310.15414 9194
311.15814 2065
315.23102 87076
316.23322 17995
317.23846 1999
332.13611 16040
333.13864 2803
337.21362 2186
Name: Progesterone
PrecursorMZ: 629.4534
PrecursorType: [2M+H]+
IonMode: Positive
Formula: C21H30O2
SMILES: CC(=O)C1CCC2C1(CCC3C2CCC4=CC(=O)CCC34C)C
InChI: 
InChIKey: RJKFOVLPORLFTN-LEKSSAKUSA-N
RetentionTime: 7.37985
CCS: 
CollisionEnergy: 20-40 eV
InstrumentType: UPLC-QTOF-MS
Comment: PI: Cristina Nerin; Data collector: QiZhi Su, GUIA, University of Zaragoza, Spain; Collision energy: 20-40 V; Instrument: Waters HPLC-QTOF-MS (Xevo G2 QTof); Ionization: ESI; Deconvoluted by MS-DIAL; Column: Waters AtlantisTM premier BEH C18 AX column (2.1 × 100mm x 1.7μm); Flow rate: 0.3mL/min; Mobile phase A and B are water and methnaol, respectively, both with 0.1% formic acid; Gradient elution: from A/B (95/5) to A/B (100/0) in 7min, kept for 4 min, then back to A/B (95/5) in 0.1 min, and maintained for additional 1.9 min (13min in total).; Injection volume: 10 μL
Num peaks: 92
77.0387 1993
79.05439 7486
81.05426 1578
81.06977 1143
83.04966 1574
85.06515 1644
91.05482 27069
92.05753 2290
92.06984 2260
94.06463 3674
94.07095 3788
94.08112 3847
95.06962 899
95.086 883
97.04599 46306
97.06529 46509
98.06922 3360
106.06615 7326
107.04959 5712
107.08577 1724
109.06501 41756
109.10104 963
110.06911 2659
119.08596 933
120.08129 2755
121.07614 18068
121.1024 1111
122.06102 2549
123.06277 3374
123.08057 3437
131.06841 1366
131.08318 1128
131.09579 1421
132.06429 960
133.07669 2483
134.05937 1599
134.08025 1730
134.09508 922
137.08751 1098
147.11586 1317
147.12415 1265
148.07597 14373
149.07776 2581
149.09799 1480
159.11661 2416
162.09221 1182
163.0775 978
171.11728 904
173.13252 1191
175.08691 6860
183.1144 1027
185.13821 985
185.15076 985
187.14989 1003
194.08546 1201
195.07799 917
197.13419 979
201.1552 901
201.16396 990
201.17287 994
209.1077 10098
210.09175 2570
210.10989 3590
226.13287 3238
227.12218 1757
239.17415 1808
239.18266 1885
250.1342 6641
252.11148 984
252.12556 936
253.11421 1170
253.12552 1129
255.21057 1537
268.1441 31299
269.14786 5227
272.11633 1345
279.2099 1993
297.22064 4858
298.2131 1646
298.22855 1743
308.11438 1085
308.12473 1162
310.15414 9146
311.15814 2002
315.23102 87077
316.23322 17995
317.23846 2080
332.13611 8956
333.13864 1477
488.77841 1579
489.2796 1488
496.76376 1310
Name: Pellidol
PrecursorMZ: 641.2823
PrecursorType: [2M+Na]+
IonMode: Positive
Formula: C18H19N3O2
SMILES: CC1=CC=CC=C1N=NC2=CC(=C(C=C2)N(C(=O)C)C(=O)C)C
InChI: 
InChIKey: YIEDSISPYKQADU-UHFFFAOYSA-N
RetentionTime: 7.38365
CCS: 
CollisionEnergy: 20-40 eV
InstrumentType: UPLC-QTOF-MS
Comment: PI: Cristina Nerin; Data collector: QiZhi Su, GUIA, University of Zaragoza, Spain; Collision energy: 20-40 V; Instrument: Waters HPLC-QTOF-MS (Xevo G2 QTof); Ionization: ESI; Deconvoluted by MS-DIAL; Column: Waters AtlantisTM premier BEH C18 AX column (2.1 × 100mm x 1.7μm); Flow rate: 0.3mL/min; Mobile phase A and B are water and methnaol, respectively, both with 0.1% formic acid; Gradient elution: from A/B (95/5) to A/B (100/0) in 7min, kept for 4 min, then back to A/B (95/5) in 0.1 min, and maintained for additional 1.9 min (13min in total).; Injection volume: 10 μL
Num peaks: 154
77.0289 3166
77.03934 3159
79.05488 13314
80.04391 1056
80.05829 1078
80.06883 1047
81.07067 2779
83.00865 954
83.01441 954
83.05043 2474
85.06718 2201
91.05489 38756
92.05064 3193
92.0584 3206
93.05639 1150
93.07017 1378
94.06587 5132
94.07858 5187
95.06821 2644
95.08652 2306
97.06541 82316
98.04955 5769
98.06863 5747
105.06386 1811
105.06924 1798
105.07986 1814
106.06522 12104
107.04932 10375
107.07533 3446
107.08693 3522
109.04713 77948
109.065 77924
109.10129 1192
110.06831 5599
119.05595 1408
119.06666 3852
119.08607 1610
120.08099 5927
120.09151 5719
121.0761 25361
121.10367 1446
122.06653 2966
122.0805 2737
123.06424 6863
123.08131 6805
131.06979 2534
131.08466 2279
132.06667 953
132.08047 1159
132.0918 1116
133.07617 4018
133.10028 1025
133.12048 1901
134.06198 2096
134.07765 2229
135.11703 1230
137.09882 940
145.10268 2471
147.11296 1854
147.12001 1850
148.07605 23227
149.06203 2044
149.08093 2560
149.09521 3029
157.08792 1103
157.10167 959
159.11731 3131
161.11765 1090
161.12979 1127
161.13907 1197
162.09122 1857
163.08806 1125
163.11325 1623
163.13029 1849
164.09557 889
164.10684 998
171.11607 1860
171.12338 1662
173.13359 2241
175.08589 8104
176.08284 1073
176.09152 1059
176.10109 1063
177.12747 1092
182.09109 1253
182.10362 1234
183.1096 1618
185.13246 909
185.14062 1018
187.14713 1343
187.15959 1339
189.12271 920
189.1347 962
194.08447 1835
195.09317 947
197.11827 1377
199.1315 1529
199.16553 940
201.14867 1468
201.16557 1437
208.09607 1061
208.11299 1091
209.10786 13551
210.08424 1873
210.09377 3198
210.11226 4264
211.09799 1190
213.1487 1326
213.16072 1301
213.1714 1396
215.16837 978
226.11476 4196
226.13454 5033
227.11761 3700
227.13905 2969
238.09373 886
239.17818 2163
250.13408 22425
251.11774 5095
251.13676 4296
252.11089 1005
252.13307 952
253.12132 2070
253.19252 1044
255.21182 2046
268.14432 42293
269.14694 7520
272.11597 2947
273.22424 935
279.21121 3222
297.22116 6918
298.21762 1745
298.22781 1743
308.12506 1064
310.15256 9106
310.16391 9105
311.16147 2072
315.23093 87077
316.23526 17992
317.23785 1991
329.12213 876
332.13568 26429
333.14008 4921
337.21341 4905
338.20352 959
338.21964 931
481.28989 888
488.75931 2569
488.77695 2282
488.79358 2427
489.27573 1441
496.7468 1226
496.76773 1541
497.76996 942
Name: Pellidol
PrecursorMZ: 332.1364
PrecursorType: [M+Na]+
IonMode: Positive
Formula: C18H19N3O2
SMILES: CC1=CC=CC=C1N=NC2=CC(=C(C=C2)N(C(=O)C)C(=O)C)C
InChI: 
InChIKey: YIEDSISPYKQADU-UHFFFAOYSA-N
RetentionTime: 7.38745
CCS: 
CollisionEnergy: 20-40 eV
InstrumentType: UPLC-QTOF-MS
Comment: PI: Cristina Nerin; Data collector: QiZhi Su, GUIA, University of Zaragoza, Spain; Collision energy: 20-40 V; Instrument: Waters HPLC-QTOF-MS (Xevo G2 QTof); Ionization: ESI; Deconvoluted by MS-DIAL; Column: Waters AtlantisTM premier BEH C18 AX column (2.1 × 100mm x 1.7μm); Flow rate: 0.3mL/min; Mobile phase A and B are water and methnaol, respectively, both with 0.1% formic acid; Gradient elution: from A/B (95/5) to A/B (100/0) in 7min, kept for 4 min, then back to A/B (95/5) in 0.1 min, and maintained for additional 1.9 min (13min in total).; Injection volume: 10 μL
Num peaks: 166
65.0396 332
69.07106 364
69.07597 364
79.05487 4925
81.06937 1235
81.07475 1227
91.05461 5369
92.07336 293
93.05402 1100
93.06905 981
93.07437 925
94.06544 2096
95.05235 344
95.08688 1921
97.06528 21889
98.06879 815
98.08365 721
105.07092 995
106.06564 3697
106.08627 433
107.04998 3434
107.06939 1332
108.05195 484
108.08192 363
109.06521 27149
110.06847 1654
111.06949 493
111.07915 457
117.08852 448
118.0546 350
118.06778 365
119.08516 1188
120.08098 2565
121.07626 4731
121.1 1513
121.10607 1342
121.11073 1373
122.0554 483
122.06364 789
122.07514 784
122.08262 1038
122.09484 853
122.10607 305
123.0806 3289
131.05746 339
131.07449 1394
131.08412 1229
131.09306 946
133.05206 390
133.07112 2135
133.07782 2329
133.10167 2483
135.05504 273
135.11382 287
135.11977 279
135.12613 279
137.09564 366
143.08783 322
145.10077 1081
145.11011 1144
147.07018 307
147.07971 340
147.11679 1064
148.0762 4508
148.11412 288
149.08224 931
149.09952 615
156.09314 287
157.08456 607
157.10062 880
157.11414 753
158.09857 383
158.11592 310
159.11511 674
159.12177 662
161.10913 375
161.13231 340
161.14214 348
162.0743 1699
162.09239 925
162.10768 1290
163.08704 1288
163.10948 580
169.08095 273
169.10138 287
171.11345 442
171.12328 612
173.13199 740
173.14934 1521
175.08643 2497
175.11108 330
177.12721 1182
181.07739 297
181.10271 286
184.11752 378
189.18129 276
194.07458 1240
194.08612 910
195.08423 581
195.09499 535
196.07874 333
196.09572 274
197.13281 303
198.10397 386
198.13536 287
199.12807 867
199.14754 1057
208.08601 320
208.09686 337
208.10884 362
208.12006 427
209.10722 2641
210.09976 925
210.11327 567
211.11266 526
211.1474 354
211.16322 623
212.09338 304
213.16293 387
215.1801 1601
215.19034 1500
223.14461 395
223.15677 569
225.11723 463
225.13095 434
226.13499 762
227.11867 549
227.14674 644
227.17316 380
227.18161 296
228.19099 272
233.10803 274
235.12003 293
238.09569 356
238.10855 346
241.13855 293
241.1539 462
250.1337 8493
251.11876 778
251.13504 2637
251.17958 331
251.19574 352
252.13571 833
252.15363 421
254.13713 280
255.1732 389
255.21086 1004
255.22112 753
256.19797 361
267.13705 416
268.14459 11327
269.14792 1460
272.11545 341
272.13159 635
273.12042 464
273.13171 501
273.19586 333
273.21387 676
273.22824 487
279.21005 559
297.22171 1292
308.10617 521
308.11874 517
308.63232 274
310.15457 1863
332.13687 25580
Name: Progesterone
PrecursorMZ: 651.4367
PrecursorType: [2M+Na]+
IonMode: Positive
Formula: C21H30O2
SMILES: CC(=O)C1CCC2C1(CCC3C2CCC4=CC(=O)CCC34C)C
InChI: 
InChIKey: RJKFOVLPORLFTN-LEKSSAKUSA-N
RetentionTime: 7.38745
CCS: 
CollisionEnergy: 20-40 eV
InstrumentType: UPLC-QTOF-MS
Comment: PI: Cristina Nerin; Data collector: QiZhi Su, GUIA, University of Zaragoza, Spain; Collision energy: 20-40 V; Instrument: Waters HPLC-QTOF-MS (Xevo G2 QTof); Ionization: ESI; Deconvoluted by MS-DIAL; Column: Waters AtlantisTM premier BEH C18 AX column (2.1 × 100mm x 1.7μm); Flow rate: 0.3mL/min; Mobile phase A and B are water and methnaol, respectively, both with 0.1% formic acid; Gradient elution: from A/B (95/5) to A/B (100/0) in 7min, kept for 4 min, then back to A/B (95/5) in 0.1 min, and maintained for additional 1.9 min (13min in total).; Injection volume: 10 μL
Num peaks: 191
65.0396 331
77.03938 504
79.05487 4910
81.06937 1187
81.07475 1180
91.05461 5382
92.07336 294
93.05402 1086
93.06905 939
93.07437 886
94.06544 2092
95.05235 338
95.08688 1825
97.06528 21934
98.06879 818
98.08365 724
105.07092 1018
106.06564 3707
106.08627 426
107.04998 3435
107.06939 1321
108.05195 490
108.08192 362
109.06521 27178
110.06847 1662
111.06949 480
111.07915 435
117.08852 454
118.0546 345
118.06778 363
119.08516 1191
120.08098 2581
121.07626 4762
121.1 1487
121.10607 1312
121.11073 1342
122.0554 475
122.06364 792
122.07514 794
122.08262 1050
122.09484 852
122.10607 305
123.0806 3288
131.05746 345
131.07449 1392
131.08412 1230
131.09306 949
133.05206 384
133.07112 2122
133.07782 2301
133.10167 2476
135.05504 276
135.11382 279
135.11977 272
137.09564 379
143.08783 306
145.10077 1091
145.11011 1157
147.07018 307
147.07971 340
147.11679 1072
148.0762 4543
148.11412 288
149.08224 921
149.09952 620
156.09314 287
157.08456 608
157.10062 881
157.11414 751
158.09857 383
158.11592 311
159.11511 681
159.12177 663
161.10913 377
161.13231 328
161.14214 336
162.0743 1699
162.09239 924
162.10768 1291
163.08704 1284
163.10948 567
167.08206 280
169.08095 277
169.10138 294
171.11345 441
171.12328 604
173.13199 739
173.14934 1522
175.08643 2512
175.11108 330
177.12721 1188
181.07739 286
181.10271 287
184.11752 378
185.13345 275
189.18129 278
194.07458 1238
194.08612 909
195.08423 584
195.09499 537
196.07874 338
196.09572 277
197.13281 308
198.10397 388
198.13536 287
199.12807 870
199.14754 1059
208.08601 319
208.09686 336
208.10884 360
208.12006 420
209.10722 2663
210.09976 935
210.11327 572
211.11266 533
211.1474 370
211.16322 635
212.09338 304
213.16293 394
215.1801 1609
215.19034 1506
223.14461 403
223.15677 577
225.11723 469
225.13095 434
226.13499 764
227.11867 560
227.14674 644
227.17316 381
227.18161 295
228.19099 272
233.10803 278
235.12003 294
238.09569 355
238.10855 348
241.13855 292
241.1539 460
250.1337 8521
251.11876 779
251.13504 2646
251.17958 334
251.19574 350
252.13571 833
252.15363 421
254.13713 273
255.1732 389
255.21086 1004
255.22112 752
256.19797 361
267.13705 418
268.14459 11362
269.14792 1467
272.11545 338
272.13159 633
273.12042 462
273.13171 503
273.19586 333
273.21387 670
273.22824 484
279.21005 547
297.22171 1299
308.10617 519
308.11874 518
308.63232 275
310.15457 1863
332.13687 8262
333.14047 1822
334.13351 620
334.15027 566
337.10559 455
337.11703 376
337.21368 1936
338.12659 301
338.22012 634
371.16531 280
399.17093 470
399.18643 460
408.11337 329
415.1535 412
480.78961 347
480.80643 781
486.23563 749
488.77579 859
489.27588 766
489.78986 317
496.76135 540
497.78366 301
498.76013 279
499.3046 440
499.80676 424
651.42395 349
Name: Progesterone
PrecursorMZ: 337.2131
PrecursorType: [M+Na]+
IonMode: Positive
Formula: C21H30O2
SMILES: CC(=O)C1CCC2C1(CCC3C2CCC4=CC(=O)CCC34C)C
InChI: 
InChIKey: RJKFOVLPORLFTN-LEKSSAKUSA-N
RetentionTime: 7.391267
CCS: 
CollisionEnergy: 20-40 eV
InstrumentType: UPLC-QTOF-MS
Comment: PI: Cristina Nerin; Data collector: QiZhi Su, GUIA, University of Zaragoza, Spain; Collision energy: 20-40 V; Instrument: Waters HPLC-QTOF-MS (Xevo G2 QTof); Ionization: ESI; Deconvoluted by MS-DIAL; Column: Waters AtlantisTM premier BEH C18 AX column (2.1 × 100mm x 1.7μm); Flow rate: 0.3mL/min; Mobile phase A and B are water and methnaol, respectively, both with 0.1% formic acid; Gradient elution: from A/B (95/5) to A/B (100/0) in 7min, kept for 4 min, then back to A/B (95/5) in 0.1 min, and maintained for additional 1.9 min (13min in total).; Injection volume: 10 μL
Num peaks: 147
79.0547 6524
81.05205 1727
81.07089 1733
83.00645 749
83.01081 757
83.04973 751
83.05848 868
91.05468 10516
92.05421 820
92.06077 807
93.05579 1632
93.07101 1395
94.04774 2736
94.06575 2226
94.0811 2174
94.08462 1735
95.06822 1594
95.08577 1452
95.09623 1554
97.06511 39559
97.08172 39723
98.04922 1181
98.06877 2219
105.05736 1092
105.0696 1207
106.06499 5534
107.05004 5148
107.07142 1166
107.08562 1603
107.09729 859
108.05455 550
109.06522 42277
110.06934 3292
119.05736 642
119.06431 1303
119.08502 1693
120.08112 3849
120.0881 3752
121.07547 8094
121.09782 641
121.1036 876
122.05546 804
122.06802 2054
122.07542 2212
122.08277 2207
123.08141 3843
131.07292 1469
131.08482 1365
132.09915 576
133.07645 2094
133.10199 2458
134.04843 524
134.06111 528
134.08063 731
135.11676 644
137.09641 1029
143.08661 555
143.10355 446
145.0833 1839
145.10144 1832
147.11763 1153
148.07582 8667
149.06444 547
149.07991 1096
149.09453 1295
149.10565 530
149.12515 715
149.13388 552
157.10176 827
159.11664 1129
159.12437 1091
161.12819 501
161.13757 437
162.07918 1019
162.0923 1146
163.08771 1051
163.10669 902
163.11606 1017
164.09453 587
171.11523 1000
173.1328 1380
173.15121 1662
175.08772 2609
175.12408 465
177.12935 1342
181.09477 557
182.0955 670
182.10907 641
183.10527 438
183.11711 452
189.12413 712
189.13097 697
191.14252 515
191.15074 457
194.08485 999
194.1057 672
197.12679 614
197.13728 827
199.1447 1107
199.15347 1030
201.16406 461
201.17543 423
208.10147 607
209.10756 4182
210.10849 1488
211.11438 525
211.12526 493
213.16156 695
213.17375 649
215.18019 857
223.1441 474
223.15363 455
226.13428 1669
226.1514 1469
227.11856 1873
227.14223 909
238.09598 475
239.18085 441
241.13663 448
241.15007 438
250.13449 16271
251.1049 1613
251.1243 4314
251.1389 4267
252.13721 671
252.15146 489
253.10126 935
253.12108 971
255.2093 1029
255.21895 1059
267.1391 500
268.14517 14937
269.14722 2566
272.116 1360
273.20926 636
273.22183 682
279.2106 1091
280.21078 504
280.21994 431
297.22223 2360
310.15494 1045
329.11728 575
329.1301 569
332.13678 18293
333.14008 3663
334.14307 691
337.21317 5615
Name: Clioquinol
PrecursorMZ: 305.9175
PrecursorType: [M+H]+
IonMode: Positive
Formula: C9H5ClINO
SMILES: C1=CC2=C(C(=C(C=C2Cl)I)O)N=C1
InChI: 
InChIKey: QCDFBFJGMNKBDO-UHFFFAOYSA-N
RetentionTime: 7.459784
CCS: 
CollisionEnergy: 20-40 eV
InstrumentType: UPLC-QTOF-MS
Comment: PI: Cristina Nerin; Data collector: QiZhi Su, GUIA, University of Zaragoza, Spain; Collision energy: 20-40 V; Instrument: Waters HPLC-QTOF-MS (Xevo G2 QTof); Ionization: ESI; Deconvoluted by MS-DIAL; Column: Waters AtlantisTM premier BEH C18 AX column (2.1 × 100mm x 1.7μm); Flow rate: 0.3mL/min; Mobile phase A and B are water and methnaol, respectively, both with 0.1% formic acid; Gradient elution: from A/B (95/5) to A/B (100/0) in 7min, kept for 4 min, then back to A/B (95/5) in 0.1 min, and maintained for additional 1.9 min (13min in total).; Injection volume: 10 μL
Num peaks: 15
116.05058 7740
116.06342 7773
149.02344 1642
151.01865 74027
152.02145 6049
153.01633 22054
154.00963 1862
154.02019 1874
154.02609 1874
178.00862 1069
179.01379 101472
180.01698 9093
181.01096 31370
182.01387 2594
305.91751 71275
Name: Chlorpheniramine
PrecursorMZ: 275.1333
PrecursorType: [M+H]+
IonMode: Positive
Formula: C16H19ClN2
SMILES: CN(C)CCC(C1=CC=C(C=C1)Cl)C2=CC=CC=N2
InChI: 
InChIKey: SOYKEARSMXGVTM-UHFFFAOYSA-N
RetentionTime: 0.9546667
CCS: 
CollisionEnergy: 20-40 eV
InstrumentType: UPLC-QTOF-MS
Comment: PI: Cristina Nerin; Data collector: QiZhi Su, GUIA, University of Zaragoza, Spain; Collision energy: 20-40 V; Instrument: Waters HPLC-QTOF-MS (Xevo G2 QTof); Ionization: ESI; Deconvoluted by MS-DIAL; Column: Waters AtlantisTM premier BEH C18 AX column (2.1 × 100mm x 1.7μm); Flow rate: 0.3mL/min; Mobile phase A and B are water and methnaol, respectively, both with 0.1% formic acid; Gradient elution: from A/B (95/5) to A/B (100/0) in 7min, kept for 4 min, then back to A/B (95/5) in 0.1 min, and maintained for additional 1.9 min (13min in total).; Injection volume: 10 μL
Num peaks: 36
84.06824 491
84.08083 462
84.09224 471
91.05502 4762
92.05084 371
92.06219 374
107.04971 430
107.06737 406
118.06606 1342
119.06941 477
119.07706 483
119.08649 436
125.00386 917
125.0174 897
167.0746 16243
168.07713 1988
180.07124 1344
180.08443 1340
194.09285 1179
194.10239 1195
195.09062 657
195.10144 676
195.11128 658
195.1207 529
201.02783 2028
201.03769 2010
202.04306 1719
203.03584 978
203.05025 1066
204.03802 627
204.05312 562
230.07477 33684
231.07721 4873
232.07266 11066
233.07527 1769
233.08737 1856
Name: 2-Naphthyl benzoate
PrecursorMZ: 249.0914
PrecursorType: [M+H]+
IonMode: Positive
Formula: C17H12O2
SMILES: C1=CC=C(C=C1)C(=O)OC2=CC3=CC=CC=C3C=C2
InChI: 
InChIKey: DWJIJRSTYFPKGD-UHFFFAOYSA-N
RetentionTime: 7.55115
CCS: 
CollisionEnergy: 20-40 eV
InstrumentType: UPLC-QTOF-MS
Comment: PI: Cristina Nerin; Data collector: QiZhi Su, GUIA, University of Zaragoza, Spain; Collision energy: 20-40 V; Instrument: Waters HPLC-QTOF-MS (Xevo G2 QTof); Ionization: ESI; Deconvoluted by MS-DIAL; Column: Waters AtlantisTM premier BEH C18 AX column (2.1 × 100mm x 1.7μm); Flow rate: 0.3mL/min; Mobile phase A and B are water and methnaol, respectively, both with 0.1% formic acid; Gradient elution: from A/B (95/5) to A/B (100/0) in 7min, kept for 4 min, then back to A/B (95/5) in 0.1 min, and maintained for additional 1.9 min (13min in total).; Injection volume: 10 μL
Num peaks: 56
79.05456 310
81.07045 156
93.05623 364
93.06586 218
93.07175 218
97.06544 283
97.07275 302
98.98341 148
98.99012 146
105.03365 13731
105.07139 390
109.06219 262
109.06918 261
109.08201 476
109.10204 171
111.06373 180
115.07069 146
117.07193 163
119.08933 215
120.08053 155
121.06192 184
121.07612 256
121.08434 360
121.10216 259
133.09885 193
135.10052 158
145.07373 158
145.09489 209
145.1046 202
147.034 521
147.04108 513
147.05156 511
147.11188 223
147.11903 226
148.06386 170
148.07811 155
148.08672 141
150.01093 173
152.00714 239
155.08232 143
157.10381 150
157.11078 169
165.05046 212
165.05841 211
165.07114 153
165.08719 158
165.09886 157
170.08765 162
170.09915 343
170.11485 203
175.13405 172
177.11531 179
177.1319 204
180.01529 338
213.98495 340
215.99252 310
Name: 2-Naphthyl benzoate
PrecursorMZ: 271.0726
PrecursorType: [M+Na]+
IonMode: Positive
Formula: C17H12O2
SMILES: C1=CC=C(C=C1)C(=O)OC2=CC3=CC=CC=C3C=C2
InChI: 
InChIKey: DWJIJRSTYFPKGD-UHFFFAOYSA-N
RetentionTime: 7.55115
CCS: 
CollisionEnergy: 20-40 eV
InstrumentType: UPLC-QTOF-MS
Comment: PI: Cristina Nerin; Data collector: QiZhi Su, GUIA, University of Zaragoza, Spain; Collision energy: 20-40 V; Instrument: Waters HPLC-QTOF-MS (Xevo G2 QTof); Ionization: ESI; Deconvoluted by MS-DIAL; Column: Waters AtlantisTM premier BEH C18 AX column (2.1 × 100mm x 1.7μm); Flow rate: 0.3mL/min; Mobile phase A and B are water and methnaol, respectively, both with 0.1% formic acid; Gradient elution: from A/B (95/5) to A/B (100/0) in 7min, kept for 4 min, then back to A/B (95/5) in 0.1 min, and maintained for additional 1.9 min (13min in total).; Injection volume: 10 μL
Num peaks: 61
79.05456 310
81.07045 156
93.05623 364
93.06586 218
93.07175 218
97.06544 283
97.07275 302
98.98341 148
98.99012 146
105.03365 13730
105.07139 390
109.06219 262
109.06918 261
109.08201 476
109.10204 171
111.06373 180
115.07069 146
117.07193 163
119.08933 215
120.08053 155
121.06192 184
121.07612 256
121.08434 360
121.10216 259
133.09885 193
135.10052 158
145.07373 158
145.09489 209
145.1046 202
147.034 521
147.04108 513
147.05156 511
147.11188 223
147.11903 226
148.06386 170
148.07811 155
148.08672 141
150.01093 193
152.00714 280
155.08232 142
157.10381 150
157.11078 169
165.05046 212
165.05841 211
165.07114 153
165.08719 158
165.09886 157
170.08765 162
170.09915 339
170.11485 200
175.13405 172
177.11531 179
177.1319 204
180.01529 385
213.98495 340
215.99252 292
259.17001 211
268.14987 157
268.2634 154
268.27643 175
271.07062 599
Name: 2-Naphthyl benzoate
PrecursorMZ: 287.0454
PrecursorType: [M+K]+
IonMode: Positive
Formula: C17H12O2
SMILES: C1=CC=C(C=C1)C(=O)OC2=CC3=CC=CC=C3C=C2
InChI: 
InChIKey: DWJIJRSTYFPKGD-UHFFFAOYSA-N
RetentionTime: 7.55115
CCS: 
CollisionEnergy: 20-40 eV
InstrumentType: UPLC-QTOF-MS
Comment: PI: Cristina Nerin; Data collector: QiZhi Su, GUIA, University of Zaragoza, Spain; Collision energy: 20-40 V; Instrument: Waters HPLC-QTOF-MS (Xevo G2 QTof); Ionization: ESI; Deconvoluted by MS-DIAL; Column: Waters AtlantisTM premier BEH C18 AX column (2.1 × 100mm x 1.7μm); Flow rate: 0.3mL/min; Mobile phase A and B are water and methnaol, respectively, both with 0.1% formic acid; Gradient elution: from A/B (95/5) to A/B (100/0) in 7min, kept for 4 min, then back to A/B (95/5) in 0.1 min, and maintained for additional 1.9 min (13min in total).; Injection volume: 10 μL
Num peaks: 66
79.05456 310
81.07045 156
93.05623 364
93.06586 218
93.07175 218
97.06544 283
97.07275 302
98.98341 148
98.99012 146
105.03365 13729
105.07139 390
109.06219 262
109.06918 261
109.08201 476
109.10204 171
111.06373 180
115.07069 146
117.07193 163
119.08933 215
120.08053 155
121.06192 184
121.07612 256
121.08434 360
121.10216 259
133.09885 193
135.10052 158
145.07373 158
145.09489 209
145.1046 202
147.034 521
147.04108 513
147.05156 511
147.11188 223
147.11903 226
148.06386 170
148.07811 155
148.08672 141
150.01093 193
152.00714 280
155.08232 142
157.10381 150
157.11078 169
165.05046 212
165.05841 211
165.07114 153
165.08719 158
165.09886 157
170.08765 163
170.09915 348
170.11485 201
175.13405 172
177.11531 179
177.1319 204
180.01529 385
213.98495 340
215.99252 291
259.17001 211
268.14987 157
268.2634 154
268.27643 175
271.05411 606
271.07062 886
272.05713 194
272.07529 193
287.0336 282
287.04764 169
Name: Pellidol
PrecursorMZ: 310.1571
PrecursorType: [M+H]+
IonMode: Positive
Formula: C18H19N3O2
SMILES: CC1=CC=CC=C1N=NC2=CC(=C(C=C2)N(C(=O)C)C(=O)C)C
InChI: 
InChIKey: YIEDSISPYKQADU-UHFFFAOYSA-N
RetentionTime: 7.55115
CCS: 
CollisionEnergy: 20-40 eV
InstrumentType: UPLC-QTOF-MS
Comment: PI: Cristina Nerin; Data collector: QiZhi Su, GUIA, University of Zaragoza, Spain; Collision energy: 20-40 V; Instrument: Waters HPLC-QTOF-MS (Xevo G2 QTof); Ionization: ESI; Deconvoluted by MS-DIAL; Column: Waters AtlantisTM premier BEH C18 AX column (2.1 × 100mm x 1.7μm); Flow rate: 0.3mL/min; Mobile phase A and B are water and methnaol, respectively, both with 0.1% formic acid; Gradient elution: from A/B (95/5) to A/B (100/0) in 7min, kept for 4 min, then back to A/B (95/5) in 0.1 min, and maintained for additional 1.9 min (13min in total).; Injection volume: 10 μL
Num peaks: 69
79.05456 310
81.07045 156
93.05623 364
93.06586 218
93.07175 218
97.06544 283
97.07275 302
98.98341 148
98.99012 146
105.03365 13731
105.07139 390
109.06219 262
109.06918 261
109.08201 476
109.10204 171
111.06373 180
115.04074 146
115.07069 142
117.07193 163
119.08933 215
120.08053 155
121.06192 184
121.07612 256
121.08434 360
121.10216 259
133.09885 193
135.10052 158
145.07373 158
145.09489 209
145.1046 202
147.034 521
147.04108 518
147.05156 511
147.11188 223
147.11903 226
148.06386 170
148.07811 158
148.08672 144
150.01093 195
152.00714 282
155.08232 148
157.10381 150
157.11078 169
165.05046 212
165.05841 211
165.07114 153
165.08719 158
165.09886 157
170.08765 163
170.09915 345
170.11485 202
175.13405 172
177.11531 179
177.1319 204
180.01529 398
213.98495 346
215.99252 289
259.17001 210
268.14987 158
268.2634 161
268.27643 175
271.05411 606
271.07062 886
272.05713 194
272.07529 193
287.04764 437
306.93997 555
310.31488 174
310.32971 451
Name: 2-Naphthyl benzoate
PrecursorMZ: 519.156
PrecursorType: [2M+Na]+
IonMode: Positive
Formula: C17H12O2
SMILES: C1=CC=C(C=C1)C(=O)OC2=CC3=CC=CC=C3C=C2
InChI: 
InChIKey: DWJIJRSTYFPKGD-UHFFFAOYSA-N
RetentionTime: 7.55115
CCS: 
CollisionEnergy: 20-40 eV
InstrumentType: UPLC-QTOF-MS
Comment: PI: Cristina Nerin; Data collector: QiZhi Su, GUIA, University of Zaragoza, Spain; Collision energy: 20-40 V; Instrument: Waters HPLC-QTOF-MS (Xevo G2 QTof); Ionization: ESI; Deconvoluted by MS-DIAL; Column: Waters AtlantisTM premier BEH C18 AX column (2.1 × 100mm x 1.7μm); Flow rate: 0.3mL/min; Mobile phase A and B are water and methnaol, respectively, both with 0.1% formic acid; Gradient elution: from A/B (95/5) to A/B (100/0) in 7min, kept for 4 min, then back to A/B (95/5) in 0.1 min, and maintained for additional 1.9 min (13min in total).; Injection volume: 10 μL
Num peaks: 68
60.08282 147
60.08889 147
77.03994 334
79.05456 310
93.05623 364
98.98341 148
98.99012 146
105.03365 13721
105.07139 390
106.03946 181
109.06918 261
109.08201 264
115.04074 178
115.07069 138
119.08933 215
120.08053 155
121.07612 256
121.08434 360
121.10216 259
133.09885 193
133.11072 174
145.07373 158
145.09489 209
145.1046 202
147.034 521
147.04108 516
147.05156 511
147.11188 223
147.11903 226
148.06386 174
148.07811 157
148.08672 143
150.01093 191
152.00714 310
157.10381 150
157.11078 169
165.05046 212
165.05841 211
165.07114 152
165.08719 149
165.09886 149
170.08765 167
170.09915 319
170.11485 351
170.12234 248
177.11531 179
177.1319 204
213.98495 354
215.97369 288
215.99252 384
259.17001 211
268.14987 156
268.2634 207
268.27643 175
271.07062 882
272.05713 194
272.07529 193
287.04764 437
306.93997 570
310.31488 276
310.32971 209
311.28955 297
311.29907 280
315.21225 158
315.24417 154
365.25299 233
415.13004 144
431.09506 276
Name: 2-Naphthyl benzoate
PrecursorMZ: 266.1176
PrecursorType: [M+NH4]+
IonMode: Positive
Formula: C17H12O2
SMILES: C1=CC=C(C=C1)C(=O)OC2=CC3=CC=CC=C3C=C2
InChI: 
InChIKey: DWJIJRSTYFPKGD-UHFFFAOYSA-N
RetentionTime: 7.55495
CCS: 
CollisionEnergy: 20-40 eV
InstrumentType: UPLC-QTOF-MS
Comment: PI: Cristina Nerin; Data collector: QiZhi Su, GUIA, University of Zaragoza, Spain; Collision energy: 20-40 V; Instrument: Waters HPLC-QTOF-MS (Xevo G2 QTof); Ionization: ESI; Deconvoluted by MS-DIAL; Column: Waters AtlantisTM premier BEH C18 AX column (2.1 × 100mm x 1.7μm); Flow rate: 0.3mL/min; Mobile phase A and B are water and methnaol, respectively, both with 0.1% formic acid; Gradient elution: from A/B (95/5) to A/B (100/0) in 7min, kept for 4 min, then back to A/B (95/5) in 0.1 min, and maintained for additional 1.9 min (13min in total).; Injection volume: 10 μL
Num peaks: 209
60.08241 110
69.01181 51
69.03046 75
69.03671 67
73.05724 34
73.07278 38
77.03875 3191
78.03889 221
78.04538 221
81.03386 84
81.86294 32
84.03536 40
84.95218 43
84.95957 43
85.06465 125
85.07402 122
92.99484 38
93.00077 38
93.05737 323
94.03688 39
95.94968 32
97.06469 318
97.07007 324
97.10292 60
97.96355 51
102.09142 34
102.09725 36
104.96781 48
105.07007 382
105.07668 377
106.03457 103
106.06448 46
106.07343 61
108.04319 44
108.08999 43
109.01105 50
109.02769 55
110.10925 74
111.03732 90
111.04649 98
111.06427 104
114.09437 37
114.14636 69
115.03995 127
115.04729 118
115.0586 209
115.07446 143
119.04807 79
120.07705 60
120.09099 70
121.06486 290
121.08438 266
121.09844 249
121.10479 113
123.11475 57
123.12438 47
124.08555 38
124.99354 60
125.00253 54
125.06816 123
125.08744 76
125.1003 59
126.99249 44
127.00567 32
127.08074 44
132.07156 38
133.04488 53
134.09743 56
134.10408 43
134.11389 53
135.08183 65
137.05847 150
137.07097 116
139.03262 62
139.0432 72
141.07819 91
141.09734 81
142.08458 43
143.11589 59
145.03447 39
145.07835 151
145.12808 42
147.02715 307
147.11378 194
147.1207 188
148.06924 198
148.08185 163
151.0696 42
152.12656 46
153.05342 123
153.07724 53
153.1626 44
154.04108 51
157.07274 33
157.10112 79
157.11382 112
160.12894 39
161.00299 62
163.11108 97
165.04839 208
165.06013 193
165.99889 38
166.05173 57
166.06926 81
166.13611 45
166.14948 59
168.08961 99
169.08655 85
171.05829 37
175.07938 48
175.08749 35
177.1516 57
177.16229 67
178.07608 51
181.10455 100
181.1595 42
181.5336 36
183.01259 177
187.03755 55
187.04846 56
187.07266 42
187.08231 58
187.14038 86
187.15219 88
190.04054 53
193.11366 114
194.03014 83
194.03954 78
194.08275 35
194.09163 35
195.05864 49
195.13292 46
196.05943 48
196.07668 62
197.90176 42
199.14462 42
201.0162 43
201.06764 58
202.10603 126
202.12468 103
203.18001 42
203.19649 45
207.11104 113
207.17581 309
209.13072 81
210.11229 74
210.14626 162
210.15961 152
212.07314 48
212.14854 44
212.17413 35
213.07957 32
213.13193 67
213.95964 149
215.18161 35
215.98279 55
215.99847 146
216.97375 35
216.98689 36
217.16373 48
219.12665 48
219.17995 80
219.19769 90
219.20988 60
221.09343 46
223.13408 58
223.15063 88
224.95584 41
225.12825 37
225.19008 62
226.08366 35
227.10422 40
229.18001 86
233.15541 52
233.18843 47
235.14391 85
235.2113 57
237.09338 202
237.17511 43
238.14883 52
241.07465 39
241.15564 65
241.16975 43
242.45372 37
242.94659 62
242.95839 62
243.17848 80
243.19624 55
245.22502 40
249.18242 35
250.12375 105
250.13573 136
250.14398 79
251.04088 48
255.15866 47
255.17282 125
255.18976 115
255.20856 73
256.17389 47
257.10327 41
259.12357 36
259.13821 67
259.16364 214
259.17169 186
259.20813 36
260.1705 51
263.15497 80
265.1384 238
266.17752 50
Name: Ethinyl estradiol
PrecursorMZ: 314.213
PrecursorType: [M+NH4]+
IonMode: Positive
Formula: C20H24O2
SMILES: CC12CCC3C(C1CCC2(C#C)O)CCC4=C3C=CC(=C4)O
InChI: 
InChIKey: BFPYWIDHMRZLRN-SLHNCBLASA-N
RetentionTime: 0.9737
CCS: 
CollisionEnergy: 20-40 eV
InstrumentType: UPLC-QTOF-MS
Comment: PI: Cristina Nerin; Data collector: QiZhi Su, GUIA, University of Zaragoza, Spain; Collision energy: 20-40 V; Instrument: Waters HPLC-QTOF-MS (Xevo G2 QTof); Ionization: ESI; Deconvoluted by MS-DIAL; Column: Waters AtlantisTM premier BEH C18 AX column (2.1 × 100mm x 1.7μm); Flow rate: 0.3mL/min; Mobile phase A and B are water and methnaol, respectively, both with 0.1% formic acid; Gradient elution: from A/B (95/5) to A/B (100/0) in 7min, kept for 4 min, then back to A/B (95/5) in 0.1 min, and maintained for additional 1.9 min (13min in total).; Injection volume: 10 μL
Num peaks: 49
83.07305 435
83.08509 451
83.09152 434
84.08125 2501
84.08871 2523
85.06799 203
85.07494 535
85.08125 564
85.0869 566
85.09369 563
85.10175 522
86.09808 1067
86.1118 1076
91.0361 19074
91.05564 18690
92.04285 1329
92.05572 1447
92.06239 1463
105.0512 312
105.07014 472
107.04993 1909
107.05489 1899
107.06985 1352
108.05518 196
130.11852 2899
130.12521 2903
130.13986 2679
131.12775 307
133.05705 264
133.0677 317
134.09135 261
134.10172 258
135.08105 1058
135.09435 1079
178.12392 1825
179.11769 213
179.13083 226
182.9519 289
182.97075 416
182.99141 267
222.15019 938
261.88782 576
263.88602 217
265.88397 678
268.16324 1561
268.17474 1549
269.16913 244
269.1825 249
314.21387 2593
Name: Bromhexine
PrecursorMZ: 375.008
PrecursorType: [M+H]+
IonMode: Positive
Formula: C14H20Br2N2
SMILES: CN(CC1=C(C(=CC(=C1)Br)Br)N)C2CCCCC2
InChI: 
InChIKey: OJGDCBLYJGHCIH-UHFFFAOYSA-N
RetentionTime: 0.9927334
CCS: 
CollisionEnergy: 20-40 eV
InstrumentType: UPLC-QTOF-MS
Comment: PI: Cristina Nerin; Data collector: QiZhi Su, GUIA, University of Zaragoza, Spain; Collision energy: 20-40 V; Instrument: Waters HPLC-QTOF-MS (Xevo G2 QTof); Ionization: ESI; Deconvoluted by MS-DIAL; Column: Waters AtlantisTM premier BEH C18 AX column (2.1 × 100mm x 1.7μm); Flow rate: 0.3mL/min; Mobile phase A and B are water and methnaol, respectively, both with 0.1% formic acid; Gradient elution: from A/B (95/5) to A/B (100/0) in 7min, kept for 4 min, then back to A/B (95/5) in 0.1 min, and maintained for additional 1.9 min (13min in total).; Injection volume: 10 μL
Num peaks: 14
83.08658 5105
83.0965 5095
114.1289 132544
115.13251 9936
182.96922 2606
182.98555 2612
184.96727 2302
261.88834 24213
262.89331 1485
263.88589 49989
264.89081 3029
265.88358 22801
266.87961 1386
266.89203 1394
Name: Chlorothiazide
PrecursorMZ: 295.9588
PrecursorType: [M+H]+
IonMode: Positive
Formula: C7H6ClN3O4S2
SMILES: C1=C2C(=CC(=C1Cl)S(=O)(=O)N)S(=O)(=O)N=CN2
InChI: 
InChIKey: JBMKAUGHUNFTOL-UHFFFAOYSA-N
RetentionTime: 1.015583
CCS: 
CollisionEnergy: 20-40 eV
InstrumentType: UPLC-QTOF-MS
Comment: PI: Cristina Nerin; Data collector: QiZhi Su, GUIA, University of Zaragoza, Spain; Collision energy: 20-40 V; Instrument: Waters HPLC-QTOF-MS (Xevo G2 QTof); Ionization: ESI; Deconvoluted by MS-DIAL; Column: Waters AtlantisTM premier BEH C18 AX column (2.1 × 100mm x 1.7μm); Flow rate: 0.3mL/min; Mobile phase A and B are water and methnaol, respectively, both with 0.1% formic acid; Gradient elution: from A/B (95/5) to A/B (100/0) in 7min, kept for 4 min, then back to A/B (95/5) in 0.1 min, and maintained for additional 1.9 min (13min in total).; Injection volume: 10 μL
Num peaks: 25
83.08562 1710
91.05363 509
91.06099 574
114.12875 50876
115.13318 4844
118.06763 848
125.01586 523
167.07475 9100
168.07909 897
182.96559 581
194.09962 837
201.0358 1390
202.04491 897
214.9662 534
230.07457 20374
231.07849 3096
232.07204 5611
233.07735 678
261.88824 8731
262.89441 903
263.8866 17256
264.89291 1668
265.88394 8163
278.93506 522
295.95642 775
Name: Chlorpheniramine
PrecursorMZ: 275.1324
PrecursorType: [M+H]+
IonMode: Positive
Formula: C16H19ClN2
SMILES: CN(C)CCC(C1=CC=C(C=C1)Cl)C2=CC=CC=N2
InChI: 
InChIKey: SOYKEARSMXGVTM-UHFFFAOYSA-N
RetentionTime: 2.5285
CCS: 
CollisionEnergy: 20-40 eV
InstrumentType: UPLC-QTOF-MS
Comment: PI: Cristina Nerin; Data collector: QiZhi Su, GUIA, University of Zaragoza, Spain; Collision energy: 20-40 V; Instrument: Waters HPLC-QTOF-MS (Xevo G2 QTof); Ionization: ESI; Deconvoluted by MS-DIAL; Column: Waters AtlantisTM premier BEH C18 AX column (2.1 × 100mm x 1.7μm); Flow rate: 0.3mL/min; Mobile phase A and B are water and methnaol, respectively, both with 0.1% formic acid; Gradient elution: from A/B (95/5) to A/B (100/0) in 7min, kept for 4 min, then back to A/B (95/5) in 0.1 min, and maintained for additional 1.9 min (13min in total).; Injection volume: 10 μL
Num peaks: 21
117.05914 683
118.06593 2584
125.00542 1622
125.01684 1738
167.0743 30661
168.07689 3582
180.08179 2714
194.09583 2394
194.10596 2396
195.10385 1230
201.03548 3455
202.04219 3656
203.02705 1606
203.03917 1750
203.05148 1498
204.03787 1310
204.04445 1314
230.07446 66883
231.07809 9513
232.07242 21355
233.07687 3084
Name: Phenoxybenzamine
PrecursorMZ: 304.147
PrecursorType: [M+H]+
IonMode: Positive
Formula: C18H22ClNO
SMILES: CC(COC1=CC=CC=C1)N(CCCl)CC2=CC=CC=C2
InChI: 
InChIKey: QZVCTJOXCFMACW-UHFFFAOYSA-N
RetentionTime: 6.309134
CCS: 
CollisionEnergy: 20-40 eV
InstrumentType: UPLC-QTOF-MS
Comment: PI: Cristina Nerin; Data collector: QiZhi Su, GUIA, University of Zaragoza, Spain; Collision energy: 20-40 V; Instrument: Waters HPLC-QTOF-MS (Xevo G2 QTof); Ionization: ESI; Deconvoluted by MS-DIAL; Column: Waters AtlantisTM premier BEH C18 AX column (2.1 × 100mm x 1.7μm); Flow rate: 0.3mL/min; Mobile phase A and B are water and methnaol, respectively, both with 0.1% formic acid; Gradient elution: from A/B (95/5) to A/B (100/0) in 7min, kept for 4 min, then back to A/B (95/5) in 0.1 min, and maintained for additional 1.9 min (13min in total).; Injection volume: 10 μL
Num peaks: 10
91.05505 161685
92.0582 11310
107.04798 3926
107.0537 3919
120.0379 13965
120.05788 37683
121.05746 2071
121.0647 2035
122.05535 11985
304.14902 1918
Name: Aminophenazone
PrecursorMZ: 232.1464
PrecursorType: [M+H]+
IonMode: Positive
Formula: C13H17N3O
SMILES: CC1=C(C(=O)N(N1C)C2=CC=CC=C2)N(C)C
InChI: 
InChIKey: RMMXTBMQSGEXHJ-UHFFFAOYSA-N
RetentionTime: 0.8633
CCS: 
CollisionEnergy: 20-40 eV
InstrumentType: UPLC-QTOF-MS
Comment: PI: Cristina Nerin; Data collector: QiZhi Su, GUIA, University of Zaragoza, Spain; Collision energy: 20-40 V; Instrument: Waters HPLC-QTOF-MS (Xevo G2 QTof); Ionization: ESI; Deconvoluted by MS-DIAL; Column: Waters AtlantisTM premier BEH C18 AX column (2.1 × 100mm x 1.7μm); Flow rate: 0.3mL/min; Mobile phase A and B are water and methnaol, respectively, both with 0.1% formic acid; Gradient elution: from A/B (95/5) to A/B (100/0) in 7min, kept for 4 min, then back to A/B (95/5) in 0.1 min, and maintained for additional 1.9 min (13min in total).; Injection volume: 10 μL
Num peaks: 91
56.04861 2824
56.05306 2824
58.05286 5175
58.067 5173
59.06816 261
59.07646 270
68.05418 344
70.06641 12425
71.06168 847
71.07056 840
71.07498 835
72.08179 10128
73.08401 382
73.09164 376
77.03993 511
82.05283 2040
82.06562 2043
82.07133 2042
83.05334 768
83.06212 779
83.0726 777
84.04175 423
84.04797 434
84.06805 3070
84.08264 2931
85.07184 410
85.08286 417
85.08716 417
87.09277 547
87.10136 547
96.06959 562
96.08387 544
97.05845 25516
97.07733 25461
98.08466 24612
98.10437 24285
99.09157 4314
100.09437 282
104.04801 306
104.05548 306
106.06696 4269
107.07312 272
111.0763 22084
111.09315 22101
112.08968 1845
112.09695 1844
113.10818 16078
114.10645 1022
114.11413 1022
114.12026 1014
118.06711 1496
123.0429 577
123.05635 575
128.0479 363
128.05547 363
130.06042 372
130.06738 381
130.08098 314
132.04492 1050
132.06531 616
132.07822 461
132.08597 453
133.08214 602
134.0464 274
134.06229 357
134.06792 349
134.08134 272
139.08803 306
146.05605 358
146.07417 416
149.1089 955
159.07487 1920
159.09286 2092
159.10097 2044
160.09361 284
160.10603 258
177.10313 758
185.06772 278
185.08037 290
187.07225 492
187.08934 505
187.10451 390
188.09413 434
202.10092 289
216.10512 419
216.11336 448
216.12601 418
217.11475 352
231.13374 575
231.14445 566
232.14746 2643
Name: Sulfacetamide
PrecursorMZ: 215.051
PrecursorType: [M+H]+
IonMode: Positive
Formula: C8H10N2O3S
SMILES: CC(=O)NS(=O)(=O)C1=CC=C(C=C1)N
InChI: 
InChIKey: SKIVFJLNDNKQPD-UHFFFAOYSA-N
RetentionTime: 2.5133
CCS: 
CollisionEnergy: 20-40 eV
InstrumentType: UPLC-QTOF-MS
Comment: PI: Cristina Nerin; Data collector: QiZhi Su, GUIA, University of Zaragoza, Spain; Collision energy: 20-40 V; Instrument: Waters HPLC-QTOF-MS (Xevo G2 QTof); Ionization: ESI; Deconvoluted by MS-DIAL; Column: Waters AtlantisTM premier BEH C18 AX column (2.1 × 100mm x 1.7μm); Flow rate: 0.3mL/min; Mobile phase A and B are water and methnaol, respectively, both with 0.1% formic acid; Gradient elution: from A/B (95/5) to A/B (100/0) in 7min, kept for 4 min, then back to A/B (95/5) in 0.1 min, and maintained for additional 1.9 min (13min in total).; Injection volume: 10 μL
Num peaks: 30
65.04053 1820
66.03183 153
66.03843 145
66.04443 151
66.05057 151
79.02178 90
79.03145 94
80.05015 447
80.05673 447
80.06282 447
92.05108 7105
93.05191 371
93.05708 371
93.06841 341
93.07352 228
108.04546 3479
108.0508 3482
108.06347 3653
109.04753 274
109.05299 270
109.05833 266
109.06715 272
134.9518 213
134.96138 222
134.96768 190
156.01328 1204
163.99532 121
164.99202 95
215.04723 215
215.05629 113
Name: Terbutylazine-2-hydroxy
PrecursorMZ: 212.1516
PrecursorType: [M+H]+
IonMode: Positive
Formula: C9H17N5O
SMILES: CCNC1=NC(=O)NC(=N1)NC(C)(C)C
InChI: 
InChIKey: OYTCZOJKXCTBHG-UHFFFAOYSA-N
RetentionTime: 2.635617
CCS: 
CollisionEnergy: 20-40 eV
InstrumentType: UPLC-QTOF-MS
Comment: PI: Cristina Nerin; Data collector: QiZhi Su, GUIA, University of Zaragoza, Spain; Collision energy: 20-40 V; Instrument: Waters HPLC-QTOF-MS (Xevo G2 QTof); Ionization: ESI; Deconvoluted by MS-DIAL; Column: Waters AtlantisTM premier BEH C18 AX column (2.1 × 100mm x 1.7μm); Flow rate: 0.3mL/min; Mobile phase A and B are water and methnaol, respectively, both with 0.1% formic acid; Gradient elution: from A/B (95/5) to A/B (100/0) in 7min, kept for 4 min, then back to A/B (95/5) in 0.1 min, and maintained for additional 1.9 min (13min in total).; Injection volume: 10 μL
Num peaks: 20
68.99035 13108
69.00935 13088
71.04992 3194
71.06139 3224
85.05077 970
86.03587 38708
86.05406 38780
87.03704 1240
87.04263 1255
97.04084 17348
97.05928 17421
113.08398 1037
113.10113 957
114.0673 23672
114.08566 23704
115.06762 1342
128.05788 2033
156.08856 90035
157.09143 6336
212.15211 12231
Name: Terbutylazine-2-hydroxy
PrecursorMZ: 423.2933
PrecursorType: [2M+H]+
IonMode: Positive
Formula: C9H17N5O
SMILES: CCNC1=NC(=O)NC(=N1)NC(C)(C)C
InChI: 
InChIKey: OYTCZOJKXCTBHG-UHFFFAOYSA-N
RetentionTime: 2.635617
CCS: 
CollisionEnergy: 20-40 eV
InstrumentType: UPLC-QTOF-MS
Comment: PI: Cristina Nerin; Data collector: QiZhi Su, GUIA, University of Zaragoza, Spain; Collision energy: 20-40 V; Instrument: Waters HPLC-QTOF-MS (Xevo G2 QTof); Ionization: ESI; Deconvoluted by MS-DIAL; Column: Waters AtlantisTM premier BEH C18 AX column (2.1 × 100mm x 1.7μm); Flow rate: 0.3mL/min; Mobile phase A and B are water and methnaol, respectively, both with 0.1% formic acid; Gradient elution: from A/B (95/5) to A/B (100/0) in 7min, kept for 4 min, then back to A/B (95/5) in 0.1 min, and maintained for additional 1.9 min (13min in total).; Injection volume: 10 μL
Num peaks: 21
68.99035 13108
69.00935 13088
71.04992 3194
71.06139 3224
85.05077 970
86.03587 38708
86.05406 38780
87.03704 1240
87.04263 1255
97.04084 17348
97.05928 17421
113.08398 1037
113.10113 957
114.0673 23672
114.08566 23704
115.06762 1342
128.05788 2033
156.08856 90035
157.09143 6336
212.15211 12565
213.15558 1335
Name: N-Phenyl-1-naphthalenamine
PrecursorMZ: 220.1127
PrecursorType: [M+H]+
IonMode: Positive
Formula: C16H13N
SMILES: C1=CC=C(C=C1)NC2=CC=CC3=CC=CC=C32
InChI: 
InChIKey: XQVWYOYUZDUNRW-UHFFFAOYSA-N
RetentionTime: 7.494167
CCS: 
CollisionEnergy: 20-40 eV
InstrumentType: UPLC-QTOF-MS
Comment: PI: Cristina Nerin; Data collector: QiZhi Su, GUIA, University of Zaragoza, Spain; Collision energy: 20-40 V; Instrument: Waters HPLC-QTOF-MS (Xevo G2 QTof); Ionization: ESI; Deconvoluted by MS-DIAL; Column: Waters AtlantisTM premier BEH C18 AX column (2.1 × 100mm x 1.7μm); Flow rate: 0.3mL/min; Mobile phase A and B are water and methnaol, respectively, both with 0.1% formic acid; Gradient elution: from A/B (95/5) to A/B (100/0) in 7min, kept for 4 min, then back to A/B (95/5) in 0.1 min, and maintained for additional 1.9 min (13min in total).; Injection volume: 10 μL
Num peaks: 38
65.03949 6191
92.05013 67396
93.0362 5392
93.05631 6249
93.0743 3798
115.05479 40369
115.07489 27621
116.04337 6702
116.06039 6728
117.05672 1247
117.07019 1241
127.05565 1799
127.0739 1410
128.06245 52499
129.06567 5106
142.06529 17489
142.08524 16885
143.07343 51786
144.07683 5421
158.05455 703
158.07167 1284
158.0806 1182
178.07112 1766
178.07991 1755
179.0802 806
191.07155 704
191.08884 763
193.08852 898
193.10176 967
202.07988 4533
203.08571 4511
204.08238 9102
205.08914 8606
206.0937 2378
217.08926 3600
218.09714 7221
219.10324 6166
220.11249 41401
Name: Rutin
PrecursorMZ: 611.16
PrecursorType: [M+H]+
IonMode: Positive
Formula: C27H30O16
SMILES: CC1C(C(C(C(O1)OCC2C(C(C(C(O2)OC3=C(OC4=CC(=CC(=C4C3=O)O)O)C5=CC(=C(C=C5)O)O)O)O)O)O)O)O
InChI: 
InChIKey: IKGXIBQEEMLURG-NVPNHPEKSA-N
RetentionTime: 5.2802
CCS: 
CollisionEnergy: 20-40 eV
InstrumentType: UPLC-QTOF-MS
Comment: PI: Cristina Nerin; Data collector: QiZhi Su, GUIA, University of Zaragoza, Spain; Collision energy: 20-40 V; Instrument: Waters HPLC-QTOF-MS (Xevo G2 QTof); Ionization: ESI; Deconvoluted by MS-DIAL; Column: Waters AtlantisTM premier BEH C18 AX column (2.1 × 100mm x 1.7μm); Flow rate: 0.3mL/min; Mobile phase A and B are water and methnaol, respectively, both with 0.1% formic acid; Gradient elution: from A/B (95/5) to A/B (100/0) in 7min, kept for 4 min, then back to A/B (95/5) in 0.1 min, and maintained for additional 1.9 min (13min in total).; Injection volume: 10 μL
Num peaks: 8
71.05029 2183
85.02895 4381
129.05504 2724
303.05124 93470
304.05569 13799
340.98938 955
465.10364 2962
611.16199 8969
Name: Pyrimethanil
PrecursorMZ: 200.1203
PrecursorType: [M+H]+
IonMode: Positive
Formula: C12H13N3
SMILES: CC1=CC(=NC(=N1)NC2=CC=CC=C2)C
InChI: 
InChIKey: ZLIBICFPKPWGIZ-UHFFFAOYSA-N
RetentionTime: 6.29005
CCS: 
CollisionEnergy: 20-40 eV
InstrumentType: UPLC-QTOF-MS
Comment: PI: Cristina Nerin; Data collector: QiZhi Su, GUIA, University of Zaragoza, Spain; Collision energy: 20-40 V; Instrument: Waters HPLC-QTOF-MS (Xevo G2 QTof); Ionization: ESI; Deconvoluted by MS-DIAL; Column: Waters AtlantisTM premier BEH C18 AX column (2.1 × 100mm x 1.7μm); Flow rate: 0.3mL/min; Mobile phase A and B are water and methnaol, respectively, both with 0.1% formic acid; Gradient elution: from A/B (95/5) to A/B (100/0) in 7min, kept for 4 min, then back to A/B (95/5) in 0.1 min, and maintained for additional 1.9 min (13min in total).; Injection volume: 10 μL
Num peaks: 25
66.03519 3502
67.03022 4401
67.04202 4355
77.03968 6213
82.04884 45199
82.06588 45157
107.06111 76643
107.07983 75813
115.05564 3306
119.06126 8188
142.06482 6636
143.0621 11224
143.07135 12448
156.06519 5444
156.07928 5333
159.09238 5831
166.06595 3483
167.07234 3913
167.08823 3858
168.06865 23816
181.07747 5723
182.0843 11304
183.09221 32993
184.09375 4531
200.11942 316694
Name: Pyrifenox
PrecursorMZ: 295.042
PrecursorType: [M+H]+
IonMode: Positive
Formula: C14H12Cl2N2O
SMILES: CON=C(CC1=CN=CC=C1)C2=C(C=C(C=C2)Cl)Cl
InChI: 
InChIKey: CKPCAYZTYMHQEX-UHFFFAOYSA-N
RetentionTime: 6.37
CCS: 
CollisionEnergy: 20-40 eV
InstrumentType: UPLC-QTOF-MS
Comment: PI: Cristina Nerin; Data collector: QiZhi Su, GUIA, University of Zaragoza, Spain; Collision energy: 20-40 V; Instrument: Waters HPLC-QTOF-MS (Xevo G2 QTof); Ionization: ESI; Deconvoluted by MS-DIAL; Column: Waters AtlantisTM premier BEH C18 AX column (2.1 × 100mm x 1.7μm); Flow rate: 0.3mL/min; Mobile phase A and B are water and methnaol, respectively, both with 0.1% formic acid; Gradient elution: from A/B (95/5) to A/B (100/0) in 7min, kept for 4 min, then back to A/B (95/5) in 0.1 min, and maintained for additional 1.9 min (13min in total).; Injection volume: 10 μL
Num peaks: 3
93.05866 427881
94.06213 24869
295.04224 10946
Name: Pyrifenox
PrecursorMZ: 295.0413
PrecursorType: [M+H]+
IonMode: Positive
Formula: C14H12Cl2N2O
SMILES: CON=C(CC1=CN=CC=C1)C2=C(C=C(C=C2)Cl)Cl
InChI: 
InChIKey: CKPCAYZTYMHQEX-UHFFFAOYSA-N
RetentionTime: 6.545117
CCS: 
CollisionEnergy: 20-40 eV
InstrumentType: UPLC-QTOF-MS
Comment: PI: Cristina Nerin; Data collector: QiZhi Su, GUIA, University of Zaragoza, Spain; Collision energy: 20-40 V; Instrument: Waters HPLC-QTOF-MS (Xevo G2 QTof); Ionization: ESI; Deconvoluted by MS-DIAL; Column: Waters AtlantisTM premier BEH C18 AX column (2.1 × 100mm x 1.7μm); Flow rate: 0.3mL/min; Mobile phase A and B are water and methnaol, respectively, both with 0.1% formic acid; Gradient elution: from A/B (95/5) to A/B (100/0) in 7min, kept for 4 min, then back to A/B (95/5) in 0.1 min, and maintained for additional 1.9 min (13min in total).; Injection volume: 10 μL
Num peaks: 4
93.05849 699176
94.0621 45633
94.08101 45837
295.04199 10915
Name: Propanil
PrecursorMZ: 218.0145
PrecursorType: [M+H]+
IonMode: Positive
Formula: C9H9Cl2NO
SMILES: CCC(=O)NC1=CC(=C(C=C1)Cl)Cl
InChI: 
InChIKey: LFULEKSKNZEWOE-UHFFFAOYSA-N
RetentionTime: 6.960583
CCS: 
CollisionEnergy: 20-40 eV
InstrumentType: UPLC-QTOF-MS
Comment: PI: Cristina Nerin; Data collector: QiZhi Su, GUIA, University of Zaragoza, Spain; Collision energy: 20-40 V; Instrument: Waters HPLC-QTOF-MS (Xevo G2 QTof); Ionization: ESI; Deconvoluted by MS-DIAL; Column: Waters AtlantisTM premier BEH C18 AX column (2.1 × 100mm x 1.7μm); Flow rate: 0.3mL/min; Mobile phase A and B are water and methnaol, respectively, both with 0.1% formic acid; Gradient elution: from A/B (95/5) to A/B (100/0) in 7min, kept for 4 min, then back to A/B (95/5) in 0.1 min, and maintained for additional 1.9 min (13min in total).; Injection volume: 10 μL
Num peaks: 64
57.06964 198
57.07607 198
69.03381 124
69.04102 122
71.08568 162
74.93524 125
78.98659 535
79.00729 486
79.02573 1417
81.06561 770
81.0758 683
90.00681 136
90.01191 167
90.02953 264
93.03866 841
93.05282 203
93.06135 368
93.0767 370
97.06085 378
97.07066 386
100.00878 191
105.00039 179
105.00534 181
105.01367 190
117.09206 148
121.06471 127
126.01155 232
127.019 546
128.00867 1388
128.02193 759
129.017 1407
133.0778 129
133.08775 152
133.09604 144
133.10429 125
134.03195 893
137.48254 193
137.49246 193
138.07405 212
145.10062 130
145.11188 123
146.06213 511
148.08679 370
161.9883 11907
163.98509 8258
164.00496 9047
164.9731 388
164.98824 423
165.00269 406
165.98222 1219
173.12392 389
173.13182 676
175.05 384
175.0629 147
175.08028 337
182.03441 132
183.02278 129
200.00441 263
200.11171 1473
202.0014 185
207.03049 444
207.04268 283
218.01152 916
218.02382 249
Name: Propanil
PrecursorMZ: 239.9964
PrecursorType: [M+Na]+
IonMode: Positive
Formula: C9H9Cl2NO
SMILES: CCC(=O)NC1=CC(=C(C=C1)Cl)Cl
InChI: 
InChIKey: LFULEKSKNZEWOE-UHFFFAOYSA-N
RetentionTime: 6.96445
CCS: 
CollisionEnergy: 20-40 eV
InstrumentType: UPLC-QTOF-MS
Comment: PI: Cristina Nerin; Data collector: QiZhi Su, GUIA, University of Zaragoza, Spain; Collision energy: 20-40 V; Instrument: Waters HPLC-QTOF-MS (Xevo G2 QTof); Ionization: ESI; Deconvoluted by MS-DIAL; Column: Waters AtlantisTM premier BEH C18 AX column (2.1 × 100mm x 1.7μm); Flow rate: 0.3mL/min; Mobile phase A and B are water and methnaol, respectively, both with 0.1% formic acid; Gradient elution: from A/B (95/5) to A/B (100/0) in 7min, kept for 4 min, then back to A/B (95/5) in 0.1 min, and maintained for additional 1.9 min (13min in total).; Injection volume: 10 μL
Num peaks: 51
57.03307 959
57.03758 961
71.05061 599
71.05893 605
71.06461 837
79.00726 2185
79.02074 2176
92.05056 505
93.05852 405
96.05678 2706
103.98869 2284
104.00269 2497
105.98515 835
105.99548 864
106.00136 864
110.0491 800
127.01926 39788
127.03725 40189
128.02219 2094
129.01613 12274
130.00345 879
130.01961 862
146.02025 1708
146.03024 1751
146.04828 678
146.06023 546
146.06973 525
148.00623 699
148.01962 766
148.03214 749
148.0721 631
148.08096 615
161.98868 8161
162.99199 513
163.98598 411
164.97638 454
164.98973 505
165.98538 1209
174.05521 455
175.05959 496
200.00439 775
200.0188 519
201.99342 560
202.00459 555
218.01578 911
237.97525 1273
237.98917 1382
237.99797 1037
238.97394 875
238.9892 809
239.98213 465
Name: Tebuconazole
PrecursorMZ: 308.1554
PrecursorType: [M+H]+
IonMode: Positive
Formula: C16H22ClN3O
SMILES: CC(C)(C)C(CCC1=CC=C(C=C1)Cl)(CN2C=NC=N2)O
InChI: 
InChIKey: PXMNMQRDXWABCY-UHFFFAOYSA-N
RetentionTime: 7.307583
CCS: 
CollisionEnergy: 20-40 eV
InstrumentType: UPLC-QTOF-MS
Comment: PI: Cristina Nerin; Data collector: QiZhi Su, GUIA, University of Zaragoza, Spain; Collision energy: 20-40 V; Instrument: Waters HPLC-QTOF-MS (Xevo G2 QTof); Ionization: ESI; Deconvoluted by MS-DIAL; Column: Waters AtlantisTM premier BEH C18 AX column (2.1 × 100mm x 1.7μm); Flow rate: 0.3mL/min; Mobile phase A and B are water and methnaol, respectively, both with 0.1% formic acid; Gradient elution: from A/B (95/5) to A/B (100/0) in 7min, kept for 4 min, then back to A/B (95/5) in 0.1 min, and maintained for additional 1.9 min (13min in total).; Injection volume: 10 μL
Num peaks: 16
70.04097 573741
71.02475 16629
71.03679 16140
71.04317 16126
71.06219 14686
83.08686 6377
115.05503 9339
116.06227 9481
125.01591 61121
127.01357 18203
139.0321 8194
151.03151 27844
153.02908 8749
153.04675 9005
165.04823 6605
308.15204 66451
Name: N-Phenyl-1-naphthalenamine
PrecursorMZ: 220.1138
PrecursorType: [M+H]+
IonMode: Positive
Formula: C16H13N
SMILES: C1=CC=C(C=C1)NC2=CC=CC3=CC=CC=C32
InChI: 
InChIKey: XQVWYOYUZDUNRW-UHFFFAOYSA-N
RetentionTime: 7.501733
CCS: 
CollisionEnergy: 20-40 eV
InstrumentType: UPLC-QTOF-MS
Comment: PI: Cristina Nerin; Data collector: QiZhi Su, GUIA, University of Zaragoza, Spain; Collision energy: 20-40 V; Instrument: Waters HPLC-QTOF-MS (Xevo G2 QTof); Ionization: ESI; Deconvoluted by MS-DIAL; Column: Waters AtlantisTM premier BEH C18 AX column (2.1 × 100mm x 1.7μm); Flow rate: 0.3mL/min; Mobile phase A and B are water and methnaol, respectively, both with 0.1% formic acid; Gradient elution: from A/B (95/5) to A/B (100/0) in 7min, kept for 4 min, then back to A/B (95/5) in 0.1 min, and maintained for additional 1.9 min (13min in total).; Injection volume: 10 μL
Num peaks: 34
65.03943 13044
65.05611 12993
92.03105 123897
92.05059 123477
92.06735 123622
93.05637 12504
115.0553 70961
116.06092 12280
117.05485 1890
117.06232 2123
117.06997 2161
127.0555 2887
128.04445 94507
128.06294 93996
129.06644 9825
142.06589 31474
143.07356 98541
144.05945 9777
144.07751 9533
158.07332 1296
178.0789 3289
179.07248 1376
179.08649 1439
191.07933 1286
193.10173 1376
202.0795 6289
203.0847 8030
204.0826 15605
205.0891 14886
206.09641 2709
217.08925 4698
218.09712 10594
219.10489 10956
220.11304 83077
Name: Ciprofloxacin
PrecursorMZ: 332.1425
PrecursorType: [M+H]+
IonMode: Positive
Formula: C17H18FN3O3
SMILES: C1CC1N2C=C(C(=O)C3=CC(=C(C=C32)N4CCNCC4)F)C(=O)O
InChI: 
InChIKey: MYSWGUAQZAJSOK-UHFFFAOYSA-N
RetentionTime: 0.8861667
CCS: 
CollisionEnergy: 20-40 eV
InstrumentType: UPLC-QTOF-MS
Comment: PI: Cristina Nerin; Data collector: QiZhi Su, GUIA, University of Zaragoza, Spain; Collision energy: 20-40 V; Instrument: Waters HPLC-QTOF-MS (Xevo G2 QTof); Ionization: ESI; Deconvoluted by MS-DIAL; Column: Waters AtlantisTM premier BEH C18 AX column (2.1 × 100mm x 1.7μm); Flow rate: 0.3mL/min; Mobile phase A and B are water and methnaol, respectively, both with 0.1% formic acid; Gradient elution: from A/B (95/5) to A/B (100/0) in 7min, kept for 4 min, then back to A/B (95/5) in 0.1 min, and maintained for additional 1.9 min (13min in total).; Injection volume: 10 μL
Num peaks: 416
56.05339 25
56.96357 40
58.06434 38
58.98857 145
61.00936 197
61.01382 201
62.02018 537
62.99039 86
62.99707 82
63.00912 104
63.99847 200
64.0141 190
65.99187 32
65.9992 32
67.05544 30
67.99387 121
70.06702 67
70.07189 68
70.93929 31
70.97587 38
72.93523 166
72.93907 171
72.95798 126
77.4973 28
78.00162 194
78.01298 194
78.98505 30
79.0226 2114
79.04025 2144
79.05318 71
80.00988 81
80.02386 80
80.93903 40
80.94331 41
81.01666 65
81.02235 49
81.03415 64
81.07142 76
81.07717 76
81.94963 54
81.95597 54
82.47389 62
82.49737 61
84.05731 43
84.07709 48
84.0881 40
86.09541 26
86.95465 28
88.03841 43
88.04679 42
90.00599 59
90.0126 69
90.48153 289
90.4876 288
90.96301 29
90.98064 154
90.98645 108
91.00693 92
91.02074 54
91.95929 26
92.00003 52
92.0099 50
93.05667 159
93.07182 189
94.06287 80
94.06853 80
95.08592 28
97.97351 99
97.98595 239
97.99408 207
98.46599 75
98.47186 65
98.96593 28
98.98009 31
99.00783 94
99.0142 91
99.48818 388
99.92668 87
99.98714 58
99.99023 109
100.0005 114
100.00818 119
100.02301 48
100.48782 67
100.50157 61
100.50674 55
100.91662 37
100.95222 58
101.9208 406
101.92743 422
102.91821 94
102.93102 109
102.94285 124
102.95178 76
102.95878 40
103.04282 25
103.92051 40
103.92542 34
103.99994 40
104.99846 26
105.01593 35
105.91601 47
105.96674 85
105.97208 83
106.4796 35
106.48824 57
106.49467 43
106.97477 55
106.98251 187
106.99896 339
107.00916 251
107.47222 106
107.4786 96
108.49545 186
108.98804 52
109.01319 52
109.49522 78
109.51104 66
110.94121 95
112.08051 32
113.99535 44
114.00219 34
114.98653 112
114.99634 104
115.06301 103
115.06981 154
115.10267 25
115.93577 109
115.9427 114
115.95194 123
115.95757 89
115.99963 139
116.00814 141
116.01279 137
116.90585 196
116.91301 231
116.92879 109
116.93579 54
116.95118 94
117.91802 95
117.93081 117
117.9429 95
117.95715 90
118.91195 624
118.92737 621
118.94519 544
118.95139 26
118.97195 33
120.91903 88
120.93318 90
120.98079 30
123.0062 98
123.01774 90
123.1186 130
124.01403 31
126.94609 30
126.96365 41
131.94194 44
131.95264 46
131.95927 35
132.08189 27
132.92474 180
132.93564 225
132.94229 314
132.96045 286
132.96974 134
133.91061 38
133.91795 49
133.93608 906
133.95152 848
133.97127 140
134.92162 167
134.93761 1423
134.95094 1399
134.96019 1418
134.98401 127
135.9256 82
135.93323 124
135.946 224
135.96176 182
136.05533 52
136.91545 78
136.92766 114
136.93973 84
136.94736 105
136.95647 68
137.48529 34
138.06995 81
139.00162 46
139.01183 51
140.95061 51
141.96808 51
142.94275 29
142.95993 70
142.96988 52
143.0881 54
143.09828 55
143.93381 37
144.93655 43
144.95987 47
144.97913 78
144.9847 73
145.92776 67
145.93819 63
145.94823 40
146.90623 71
146.9153 77
146.92393 76
146.94632 64
147.94948 54
147.96513 62
148.97458 34
149.92596 86
149.9352 135
149.94585 128
150.9478 152
150.95506 154
151.00165 122
151.01207 115
152.04491 31
152.05634 35
152.07039 48
152.99271 47
156.03969 25
157.04005 67
157.05344 43
159.10211 30
160.91595 37
160.92735 44
160.95049 26
161.9431 155
161.96248 116
162.93452 25
162.94556 92
162.95609 76
162.96986 156
163.94817 157
163.96046 117
164.94485 32
166.9964 83
167.00269 79
168.91159 49
168.92235 49
169.07549 40
171.0746 25
173.93285 53
174.95483 110
174.97491 44
175.06364 64
175.07257 67
175.09708 49
175.9939 31
176.06927 87
176.08495 68
176.91388 34
176.92842 32
177.9326 38
177.94887 64
178.9325 146
178.95055 143
179.96671 38
182.88556 25
185.05591 29
185.91986 30
186.06718 39
186.07857 51
186.09299 28
187.05597 46
187.06883 61
187.07947 49
189.02271 44
189.0457 151
189.08398 81
189.09302 73
190.05629 27
190.06866 36
191.04591 53
191.06143 162
191.06841 266
191.94685 30
191.95998 36
192.06635 26
192.96359 47
192.98012 67
193.94794 82
193.95839 75
193.97034 70
194.08501 29
194.99408 70
195.00607 119
195.9599 49
197.07959 32
198.04825 26
198.07697 76
198.95296 36
199.08818 56
201.10991 30
202.04572 34
202.05145 54
202.06287 57
202.07837 92
202.08731 93
202.09859 170
202.11075 128
203.05783 440
203.07082 455
203.09433 80
204.06966 653
204.08391 597
205.06093 709
205.07579 739
205.08917 689
206.07269 65
206.08852 66
211.07883 30
211.11243 53
211.95502 47
211.97148 47
212.07655 63
212.09364 59
212.14095 288
212.15063 283
213.11646 40
213.93265 27
214.93535 70
214.96037 49
215.10065 72
215.11296 71
215.96243 33
215.98177 35
216.07674 42
216.12732 37
217.07245 104
217.11371 59
218.07907 93
219.0896 117
219.1024 113
220.94424 33
220.96008 34
221.94389 78
221.96492 33
222.93311 59
222.95207 49
223.94458 26
223.95897 50
224.08913 41
225.10123 44
226.09592 50
226.1082 50
227.09566 156
227.10474 162
227.1147 153
227.13332 76
227.1483 39
227.96819 38
227.98053 54
228.08321 34
228.12288 49
229.07095 101
230.07729 101
230.08907 104
231.0368 216
231.05089 728
231.06248 709
231.08966 531
231.09637 543
231.11443 300
232.04991 112
232.05711 116
232.0856 152
232.10127 93
237.13383 26
239.09723 48
239.11247 73
240.11884 55
242.0013 28
245.10907 2453
246.09979 311
246.11148 374
246.13199 138
246.64226 49
247.11546 43
247.12767 30
256.96396 48
257.11359 30
265.0351 33
268.12766 256
268.1478 404
269.13968 129
269.15463 119
270.16168 48
271.08264 42
271.09381 44
272.11511 27
279.90567 47
279.91605 47
284.67679 37
285.19894 45
286.12286 176
286.13763 190
287.13708 43
288.15213 2451
289.15024 516
289.16309 506
290.15051 72
294.1286 102
311.21094 34
314.13406 1106
315.04749 42
315.13855 261
324.21472 38
325.7218 43
326.01657 33
330.11639 26
332.1315 544
332.1441 1724
Name: Terbutylazine-2-hydroxy
PrecursorMZ: 212.1525
PrecursorType: [M+H]+
IonMode: Positive
Formula: C9H17N5O
SMILES: CCNC1=NC(=O)NC(=N1)NC(C)(C)C
InChI: 
InChIKey: OYTCZOJKXCTBHG-UHFFFAOYSA-N
RetentionTime: 0.9090167
CCS: 
CollisionEnergy: 20-40 eV
InstrumentType: UPLC-QTOF-MS
Comment: PI: Cristina Nerin; Data collector: QiZhi Su, GUIA, University of Zaragoza, Spain; Collision energy: 20-40 V; Instrument: Waters HPLC-QTOF-MS (Xevo G2 QTof); Ionization: ESI; Deconvoluted by MS-DIAL; Column: Waters AtlantisTM premier BEH C18 AX column (2.1 × 100mm x 1.7μm); Flow rate: 0.3mL/min; Mobile phase A and B are water and methnaol, respectively, both with 0.1% formic acid; Gradient elution: from A/B (95/5) to A/B (100/0) in 7min, kept for 4 min, then back to A/B (95/5) in 0.1 min, and maintained for additional 1.9 min (13min in total).; Injection volume: 10 μL
Num peaks: 16
68.99048 19385
69.00966 19460
69.02792 19435
71.06191 5024
86.03604 58173
86.0535 58208
97.04094 26899
97.06026 27067
114.06702 36658
115.05923 2023
115.06904 2076
115.07784 2092
128.05891 3392
156.08922 165893
157.09177 11521
212.15189 61273
Name: Testosterone propionate
PrecursorMZ: 367.2254
PrecursorType: [M+Na]+
IonMode: Positive
Formula: C22H32O3
SMILES: CCC(=O)OC1CCC2C1(CCC3C2CCC4=CC(=O)CCC34C)C
InChI: 
InChIKey: PDMMFKSKQVNJMI-BLQWBTBKSA-N
RetentionTime: 7.825883
CCS: 
CollisionEnergy: 20-40 eV
InstrumentType: UPLC-QTOF-MS
Comment: PI: Cristina Nerin; Data collector: QiZhi Su, GUIA, University of Zaragoza, Spain; Collision energy: 20-40 V; Instrument: Waters HPLC-QTOF-MS (Xevo G2 QTof); Ionization: ESI; Deconvoluted by MS-DIAL; Column: Waters AtlantisTM premier BEH C18 AX column (2.1 × 100mm x 1.7μm); Flow rate: 0.3mL/min; Mobile phase A and B are water and methnaol, respectively, both with 0.1% formic acid; Gradient elution: from A/B (95/5) to A/B (100/0) in 7min, kept for 4 min, then back to A/B (95/5) in 0.1 min, and maintained for additional 1.9 min (13min in total).; Injection volume: 10 μL
Num peaks: 22
95.08618 7043
97.06554 137620
98.06978 8422
98.08565 8476
109.06559 112019
110.06967 8007
110.08733 7986
123.08199 9907
145.10152 7257
147.11823 7611
159.118 6913
171.13573 7112
175.14903 16133
253.19603 41641
254.19983 7714
271.20602 55616
272.20978 10976
289.21588 18330
345.24228 662033
346.24564 148720
347.24765 18655
367.22403 177660
Name: Testosterone propionate
PrecursorMZ: 383.1992
PrecursorType: [M+K]+
IonMode: Positive
Formula: C22H32O3
SMILES: CCC(=O)OC1CCC2C1(CCC3C2CCC4=CC(=O)CCC34C)C
InChI: 
InChIKey: PDMMFKSKQVNJMI-BLQWBTBKSA-N
RetentionTime: 7.829683
CCS: 
CollisionEnergy: 20-40 eV
InstrumentType: UPLC-QTOF-MS
Comment: PI: Cristina Nerin; Data collector: QiZhi Su, GUIA, University of Zaragoza, Spain; Collision energy: 20-40 V; Instrument: Waters HPLC-QTOF-MS (Xevo G2 QTof); Ionization: ESI; Deconvoluted by MS-DIAL; Column: Waters AtlantisTM premier BEH C18 AX column (2.1 × 100mm x 1.7μm); Flow rate: 0.3mL/min; Mobile phase A and B are water and methnaol, respectively, both with 0.1% formic acid; Gradient elution: from A/B (95/5) to A/B (100/0) in 7min, kept for 4 min, then back to A/B (95/5) in 0.1 min, and maintained for additional 1.9 min (13min in total).; Injection volume: 10 μL
Num peaks: 31
81.07114 7594
95.0864 8637
97.06567 172584
98.05201 10352
98.06911 10362
98.08612 10397
105.07093 6798
109.06564 141178
110.0694 9854
119.0864 6969
119.10418 6847
123.08134 12532
133.08408 6770
145.10228 9606
147.11755 9998
159.11758 8620
171.1179 8490
175.14894 19555
189.16524 7649
197.13307 7259
197.14227 7261
253.19623 46769
254.19807 8659
271.20648 59696
272.21045 11721
289.21725 19740
345.24255 662200
346.24585 149634
347.2485 18683
367.22433 175088
368.22751 40412
Name: Terbutylazine-2-hydroxy
PrecursorMZ: 423.2947
PrecursorType: [2M+H]+
IonMode: Positive
Formula: C9H17N5O
SMILES: CCNC1=NC(=O)NC(=N1)NC(C)(C)C
InChI: 
InChIKey: OYTCZOJKXCTBHG-UHFFFAOYSA-N
RetentionTime: 0.9090167
CCS: 
CollisionEnergy: 20-40 eV
InstrumentType: UPLC-QTOF-MS
Comment: PI: Cristina Nerin; Data collector: QiZhi Su, GUIA, University of Zaragoza, Spain; Collision energy: 20-40 V; Instrument: Waters HPLC-QTOF-MS (Xevo G2 QTof); Ionization: ESI; Deconvoluted by MS-DIAL; Column: Waters AtlantisTM premier BEH C18 AX column (2.1 × 100mm x 1.7μm); Flow rate: 0.3mL/min; Mobile phase A and B are water and methnaol, respectively, both with 0.1% formic acid; Gradient elution: from A/B (95/5) to A/B (100/0) in 7min, kept for 4 min, then back to A/B (95/5) in 0.1 min, and maintained for additional 1.9 min (13min in total).; Injection volume: 10 μL
Num peaks: 18
68.99048 19385
69.00966 19460
69.02792 19435
71.06191 5024
86.03604 58173
86.0535 58208
97.04094 26899
97.06026 27067
114.06702 36639
115.05923 2023
115.06904 2076
115.07784 2092
128.05891 3392
156.08922 165895
157.09177 11472
212.15189 49627
213.14572 5310
213.15523 5316
Name: Testosterone propionate
PrecursorMZ: 727.4312
PrecursorType: [2M+K]+
IonMode: Positive
Formula: C22H32O3
SMILES: CCC(=O)OC1CCC2C1(CCC3C2CCC4=CC(=O)CCC34C)C
InChI: 
InChIKey: PDMMFKSKQVNJMI-BLQWBTBKSA-N
RetentionTime: 7.829683
CCS: 
CollisionEnergy: 20-40 eV
InstrumentType: UPLC-QTOF-MS
Comment: PI: Cristina Nerin; Data collector: QiZhi Su, GUIA, University of Zaragoza, Spain; Collision energy: 20-40 V; Instrument: Waters HPLC-QTOF-MS (Xevo G2 QTof); Ionization: ESI; Deconvoluted by MS-DIAL; Column: Waters AtlantisTM premier BEH C18 AX column (2.1 × 100mm x 1.7μm); Flow rate: 0.3mL/min; Mobile phase A and B are water and methnaol, respectively, both with 0.1% formic acid; Gradient elution: from A/B (95/5) to A/B (100/0) in 7min, kept for 4 min, then back to A/B (95/5) in 0.1 min, and maintained for additional 1.9 min (13min in total).; Injection volume: 10 μL
Num peaks: 28
95.0864 7361
97.06567 153131
98.05201 9286
98.06911 9231
98.08612 9223
109.06564 123795
110.0694 8919
123.08134 10991
145.10228 8201
147.11755 8740
159.11758 7650
171.1179 7412
175.14894 17388
189.16524 6801
253.19623 44291
254.19807 8564
271.20648 58053
272.21045 11560
289.21725 18913
345.24255 662454
346.24585 149681
347.2485 18483
367.22433 150140
368.22751 35132
711.45612 10722
716.43488 10500
716.9328 9769
717.43378 9067
Name: Testosterone propionate
PrecursorMZ: 345.2436
PrecursorType: [M+H]+
IonMode: Positive
Formula: C22H32O3
SMILES: CCC(=O)OC1CCC2C1(CCC3C2CCC4=CC(=O)CCC34C)C
InChI: 
InChIKey: PDMMFKSKQVNJMI-BLQWBTBKSA-N
RetentionTime: 7.833483
CCS: 
CollisionEnergy: 20-40 eV
InstrumentType: UPLC-QTOF-MS
Comment: PI: Cristina Nerin; Data collector: QiZhi Su, GUIA, University of Zaragoza, Spain; Collision energy: 20-40 V; Instrument: Waters HPLC-QTOF-MS (Xevo G2 QTof); Ionization: ESI; Deconvoluted by MS-DIAL; Column: Waters AtlantisTM premier BEH C18 AX column (2.1 × 100mm x 1.7μm); Flow rate: 0.3mL/min; Mobile phase A and B are water and methnaol, respectively, both with 0.1% formic acid; Gradient elution: from A/B (95/5) to A/B (100/0) in 7min, kept for 4 min, then back to A/B (95/5) in 0.1 min, and maintained for additional 1.9 min (13min in total).; Injection volume: 10 μL
Num peaks: 19
95.08629 8213
95.10397 8207
97.06564 160255
98.06944 9672
109.06561 131667
110.06882 9062
123.08103 11556
145.10231 8655
147.11769 9034
159.11836 8140
171.1176 7856
175.14893 18589
189.16556 7328
253.19624 44614
254.19939 7995
271.20673 57537
272.20914 11224
289.21722 19101
345.24243 687780
Name: Testosterone propionate
PrecursorMZ: 689.478
PrecursorType: [2M+H]+
IonMode: Positive
Formula: C22H32O3
SMILES: CCC(=O)OC1CCC2C1(CCC3C2CCC4=CC(=O)CCC34C)C
InChI: 
InChIKey: PDMMFKSKQVNJMI-BLQWBTBKSA-N
RetentionTime: 7.833483
CCS: 
CollisionEnergy: 20-40 eV
InstrumentType: UPLC-QTOF-MS
Comment: PI: Cristina Nerin; Data collector: QiZhi Su, GUIA, University of Zaragoza, Spain; Collision energy: 20-40 V; Instrument: Waters HPLC-QTOF-MS (Xevo G2 QTof); Ionization: ESI; Deconvoluted by MS-DIAL; Column: Waters AtlantisTM premier BEH C18 AX column (2.1 × 100mm x 1.7μm); Flow rate: 0.3mL/min; Mobile phase A and B are water and methnaol, respectively, both with 0.1% formic acid; Gradient elution: from A/B (95/5) to A/B (100/0) in 7min, kept for 4 min, then back to A/B (95/5) in 0.1 min, and maintained for additional 1.9 min (13min in total).; Injection volume: 10 μL
Num peaks: 23
95.08629 7742
95.10397 7720
97.06564 151357
98.06944 9151
109.06561 124224
110.06882 8557
123.08103 10862
145.10231 8158
147.11769 8377
159.11836 7649
171.1176 7426
175.14893 17713
189.16556 6970
253.19624 43130
254.19939 7807
271.20673 56606
272.20914 11055
289.21722 18654
345.24243 662484
346.24579 148619
347.2486 18521
367.22394 142604
368.22705 32698
Name: Testosterone propionate
PrecursorMZ: 711.459
PrecursorType: [2M+Na]+
IonMode: Positive
Formula: C22H32O3
SMILES: CCC(=O)OC1CCC2C1(CCC3C2CCC4=CC(=O)CCC34C)C
InChI: 
InChIKey: PDMMFKSKQVNJMI-BLQWBTBKSA-N
RetentionTime: 7.833483
CCS: 
CollisionEnergy: 20-40 eV
InstrumentType: UPLC-QTOF-MS
Comment: PI: Cristina Nerin; Data collector: QiZhi Su, GUIA, University of Zaragoza, Spain; Collision energy: 20-40 V; Instrument: Waters HPLC-QTOF-MS (Xevo G2 QTof); Ionization: ESI; Deconvoluted by MS-DIAL; Column: Waters AtlantisTM premier BEH C18 AX column (2.1 × 100mm x 1.7μm); Flow rate: 0.3mL/min; Mobile phase A and B are water and methnaol, respectively, both with 0.1% formic acid; Gradient elution: from A/B (95/5) to A/B (100/0) in 7min, kept for 4 min, then back to A/B (95/5) in 0.1 min, and maintained for additional 1.9 min (13min in total).; Injection volume: 10 μL
Num peaks: 24
95.08629 7781
95.10397 7763
97.06564 151546
98.06944 9180
109.06561 124409
110.06882 8557
123.08103 10879
145.10231 8176
147.11769 8384
159.11836 7650
171.1176 7429
175.14893 17733
189.16556 6973
253.19624 43163
254.19939 7817
271.20673 56606
272.20914 11058
289.21722 18671
345.24243 662484
346.24579 148622
347.2486 18504
367.22394 142162
368.22705 32575
711.45715 13952
Name: Testosterone propionate
PrecursorMZ: 367.2248
PrecursorType: [M+Na]+
IonMode: Positive
Formula: C22H32O3
SMILES: CCC(=O)OC1CCC2C1(CCC3C2CCC4=CC(=O)CCC34C)C
InChI: 
InChIKey: PDMMFKSKQVNJMI-BLQWBTBKSA-N
RetentionTime: 7.86395
CCS: 
CollisionEnergy: 20-40 eV
InstrumentType: UPLC-QTOF-MS
Comment: PI: Cristina Nerin; Data collector: QiZhi Su, GUIA, University of Zaragoza, Spain; Collision energy: 20-40 V; Instrument: Waters HPLC-QTOF-MS (Xevo G2 QTof); Ionization: ESI; Deconvoluted by MS-DIAL; Column: Waters AtlantisTM premier BEH C18 AX column (2.1 × 100mm x 1.7μm); Flow rate: 0.3mL/min; Mobile phase A and B are water and methnaol, respectively, both with 0.1% formic acid; Gradient elution: from A/B (95/5) to A/B (100/0) in 7min, kept for 4 min, then back to A/B (95/5) in 0.1 min, and maintained for additional 1.9 min (13min in total).; Injection volume: 10 μL
Num peaks: 42
57.03513 2852
81.06994 6527
83.05013 4480
93.07133 5886
95.08653 6581
97.06564 97998
98.06909 5220
105.07066 4132
107.08663 5241
109.06541 80588
110.06921 6319
119.08662 4491
121.06561 2610
121.10188 4742
123.08099 6562
133.10179 3408
135.11772 2761
145.10143 6319
147.11743 6794
149.13405 2550
157.10098 3566
159.11929 5175
161.13316 4401
171.1179 5442
173.13539 3271
175.14915 11347
185.13223 2581
187.14795 2944
189.16524 3453
197.13339 5077
211.14853 2655
213.16455 3180
223.20578 3818
253.19565 23584
254.19832 4101
271.20667 27038
272.20917 5336
289.21564 9162
345.24203 253538
346.24515 57126
347.2489 7603
367.22342 125731
Name: Terbutylazine-2-hydroxy
PrecursorMZ: 212.1523
PrecursorType: [M+H]+
IonMode: Positive
Formula: C9H17N5O
SMILES: CCNC1=NC(=O)NC(=N1)NC(C)(C)C
InChI: 
InChIKey: OYTCZOJKXCTBHG-UHFFFAOYSA-N
RetentionTime: 0.9661167
CCS: 
CollisionEnergy: 20-40 eV
InstrumentType: UPLC-QTOF-MS
Comment: PI: Cristina Nerin; Data collector: QiZhi Su, GUIA, University of Zaragoza, Spain; Collision energy: 20-40 V; Instrument: Waters HPLC-QTOF-MS (Xevo G2 QTof); Ionization: ESI; Deconvoluted by MS-DIAL; Column: Waters AtlantisTM premier BEH C18 AX column (2.1 × 100mm x 1.7μm); Flow rate: 0.3mL/min; Mobile phase A and B are water and methnaol, respectively, both with 0.1% formic acid; Gradient elution: from A/B (95/5) to A/B (100/0) in 7min, kept for 4 min, then back to A/B (95/5) in 0.1 min, and maintained for additional 1.9 min (13min in total).; Injection volume: 10 μL
Num peaks: 17
69.00927 13556
69.01335 13532
69.02534 13561
71.06101 3117
86.02006 38227
86.03594 38247
87.03274 1292
87.03955 1296
97.04108 16110
97.05913 16123
114.04807 23378
114.06711 22998
115.06954 1308
128.05798 1793
156.08926 106444
157.0909 6831
212.15222 45829
Name: Terbutylazine-2-hydroxy
PrecursorMZ: 423.295
PrecursorType: [2M+H]+
IonMode: Positive
Formula: C9H17N5O
SMILES: CCNC1=NC(=O)NC(=N1)NC(C)(C)C
InChI: 
InChIKey: OYTCZOJKXCTBHG-UHFFFAOYSA-N
RetentionTime: 0.9661167
CCS: 
CollisionEnergy: 20-40 eV
InstrumentType: UPLC-QTOF-MS
Comment: PI: Cristina Nerin; Data collector: QiZhi Su, GUIA, University of Zaragoza, Spain; Collision energy: 20-40 V; Instrument: Waters HPLC-QTOF-MS (Xevo G2 QTof); Ionization: ESI; Deconvoluted by MS-DIAL; Column: Waters AtlantisTM premier BEH C18 AX column (2.1 × 100mm x 1.7μm); Flow rate: 0.3mL/min; Mobile phase A and B are water and methnaol, respectively, both with 0.1% formic acid; Gradient elution: from A/B (95/5) to A/B (100/0) in 7min, kept for 4 min, then back to A/B (95/5) in 0.1 min, and maintained for additional 1.9 min (13min in total).; Injection volume: 10 μL
Num peaks: 18
69.00927 13556
69.01335 13532
69.02534 13561
71.06101 3117
86.02006 38227
86.03594 38247
87.03274 1292
87.03955 1296
97.04108 16110
97.05913 16123
114.04807 23378
114.06711 22998
115.06954 1308
128.05798 1793
156.08926 106444
157.0909 6831
212.15222 32566
213.15462 3522
Name: Canthaxanthin
PrecursorMZ: 587.3886
PrecursorType: [M+Na]+
IonMode: Positive
Formula: C40H52O2
SMILES: CC1=C(C(CCC1=O)(C)C)C=CC(=CC=CC(=CC=CC=C(C)C=CC=C(C)C=CC2=C(C(=O)CCC2(C)C)C)C)C
InChI: 
InChIKey: FDSDTBUPSURDBL-DKLMTRRASA-N
RetentionTime: 9.479484
CCS: 
CollisionEnergy: 20-40 eV
InstrumentType: UPLC-QTOF-MS
Comment: PI: Cristina Nerin; Data collector: QiZhi Su, GUIA, University of Zaragoza, Spain; Collision energy: 20-40 V; Instrument: Waters HPLC-QTOF-MS (Xevo G2 QTof); Ionization: ESI; Deconvoluted by MS-DIAL; Column: Waters AtlantisTM premier BEH C18 AX column (2.1 × 100mm x 1.7μm); Flow rate: 0.3mL/min; Mobile phase A and B are water and methnaol, respectively, both with 0.1% formic acid; Gradient elution: from A/B (95/5) to A/B (100/0) in 7min, kept for 4 min, then back to A/B (95/5) in 0.1 min, and maintained for additional 1.9 min (13min in total).; Injection volume: 10 μL
Num peaks: 549
55.05596 88
59.04907 201
60.08125 200
61.4313 48
61.43758 40
61.57432 45
62.13835 44
66.02151 42
66.02464 46
67.0552 195
67.06195 177
67.06866 180
67.31082 51
68.04501 48
68.05937 46
69.07004 366
69.07584 364
70.07714 102
71.04813 101
71.05533 125
71.08266 170
71.08834 170
74.09536 63
76.08163 45
79.05405 126
85.05862 184
85.06697 165
85.07098 168
87.0421 187
87.04848 187
89.05905 42
89.23042 42
90.05975 48
91.05141 154
91.05751 155
91.06478 147
93.03494 68
93.05211 174
93.05862 246
93.07071 249
93.07803 215
94.07938 71
95.05012 73
95.08769 473
97.09553 261
97.10294 235
97.11129 247
97.95589 136
97.97205 96
98.97163 74
98.9826 40
98.98878 48
99.08008 122
99.08942 132
100.1015 78
103.03638 114
103.04251 115
105.07067 347
106.06779 58
106.08163 60
107.074 170
107.08667 125
108.05006 47
108.05555 47
108.07629 64
109.00738 46
109.0211 71
109.02915 85
109.06423 52
109.07001 64
109.10176 170
109.11471 181
110.07465 43
110.10062 77
110.10694 74
110.11542 65
111.06905 149
112.04995 56
112.08012 56
114.13018 49
114.13605 50
116.0455 42
117.04934 41
117.06864 45
117.14388 47
119.04451 69
119.07905 473
119.08987 469
119.10236 460
120.08939 56
120.09744 107
120.10253 103
121.0505 140
121.05973 85
121.0677 82
121.10322 299
122.09853 64
122.10741 105
125.0545 55
125.0643 89
127.06802 47
129.10655 75
130.04604 42
131.06822 231
131.08185 86
132.07997 40
132.09561 61
132.1057 76
133.06705 3967
133.08742 1780
133.10349 226
134.06271 373
134.07298 373
134.98138 49
135.08913 40
135.11983 269
137.0984 291
137.11916 56
139.11255 546
141.00125 81
141.01273 92
141.02211 71
141.05473 53
141.08789 70
143.01712 57
143.07716 199
143.08649 191
143.09268 219
145.09261 363
145.10472 368
147.06561 163
147.07108 216
147.08264 212
147.10423 307
147.11203 129
147.11948 149
147.12582 137
148.11284 42
148.1194 47
148.12671 44
149.0024 306
149.01923 197
151.07208 50
151.08476 73
151.11145 67
151.13889 124
151.15567 108
157.08365 186
157.10187 351
157.12558 109
158.10245 102
158.11237 102
159.09755 210
159.11069 377
159.11943 426
159.1288 376
159.14331 76
160.9859 51
161.06078 92
161.07031 42
161.08334 186
161.09975 181
161.12376 95
161.13721 92
162.08607 54
162.11075 48
163.06973 73
163.08214 241
163.114 108
163.12459 119
163.13794 62
163.14949 79
165.12489 63
165.13387 69
165.14561 115
166.15515 53
167.07208 42
167.07886 64
167.10866 51
167.13889 42
169.09424 97
169.10304 87
170.0985 54
170.11717 43
171.07704 40
171.09816 145
171.10739 307
171.12021 310
171.14255 81
172.11694 89
172.1248 75
173.09373 49
173.13539 282
174.10167 41
174.99599 41
175.07251 42
175.13258 369
175.14955 369
177.08684 54
179.01459 41
179.05344 46
179.10031 84
181.05008 72
181.06158 47
181.15482 76
181.16597 52
182.11099 81
183.08705 71
183.09711 55
183.10635 187
183.12476 173
183.14136 83
184.12373 66
185.089 58
185.09999 56
185.11685 249
185.13084 403
185.13899 345
186.12613 73
186.14307 96
187.12038 52
187.14046 255
188.12534 40
189.09105 43
189.1178 149
189.12527 169
189.13762 202
189.14569 75
189.16777 47
190.13533 40
190.15349 44
191.09459 46
191.13788 215
191.15042 215
191.16322 251
193.06927 53
193.0834 67
193.09283 60
193.10007 59
195.00229 48
195.06227 41
195.07257 55
195.10707 161
195.12703 108
195.13606 50
196.1234 76
197.11725 141
197.13763 224
198.15903 43
199.0925 66
199.10342 98
199.12578 111
199.13611 152
199.15421 169
201.1131 59
201.17079 82
203.14586 3754
204.14703 530
204.16103 533
205.13029 61
205.1476 176
205.157 150
205.18723 63
208.11079 66
208.14583 52
209.05547 63
209.07025 86
209.0882 41
209.11458 145
209.12758 210
209.13992 200
209.15349 52
210.11168 46
210.12741 125
210.13495 126
211.0497 49
211.0957 52
211.13086 163
211.14435 303
213.12354 70
213.13303 71
213.15974 73
213.17151 76
214.12045 53
215.14009 403
215.15178 363
215.16895 73
215.17947 110
216.1259 41
216.14857 112
216.15947 139
216.17177 82
217.14693 104
217.15839 52
217.17651 128
219.12727 84
221.1088 42
221.13367 71
221.15166 110
221.19899 62
222.1353 45
222.15002 76
223.0674 160
223.07759 57
223.10776 171
223.13483 110
223.14844 112
223.15999 60
224.16985 51
225.11346 149
225.12544 139
225.15057 65
225.16302 75
226.08711 52
226.17114 61
227.15363 127
228.14619 59
229.16142 73
229.17152 76
229.19186 45
231.13065 76
231.17815 58
233.12747 76
233.14183 88
234.16237 59
237.0834 87
237.13599 104
237.15504 91
238.07108 126
238.08429 65
239.06573 118
239.08022 44
239.09048 44
239.10445 67
241.17656 101
243.17091 56
243.20679 71
247.13676 49
247.14912 43
247.16451 53
247.82271 56
250.08446 47
250.21858 60
251.10194 75
251.12032 57
251.13185 51
251.17084 77
251.18385 97
251.19743 97
254.87213 43
255.15459 74
255.17398 140
255.18372 94
257.19568 189
261.1163 44
261.16443 53
263.0925 43
263.17566 44
265.18716 94
265.21954 117
266.11905 48
266.1467 43
266.1597 40
267.02454 120
267.17325 75
269.18042 123
269.19431 142
269.20657 119
271.20844 92
273.15399 54
273.16891 114
273.17749 104
273.19919 51
275.19882 50
277.16312 111
277.17514 55
277.18854 66
277.21851 68
279.1293 46
279.16882 121
279.18982 79
279.20804 41
279.25095 55
281.18842 83
281.19598 73
281.3013 80
282.18982 49
282.2001 49
283.19247 50
283.20914 50
286.17255 46
290.20303 53
291.16797 62
291.18881 69
293.18723 73
293.20508 82
293.21893 50
294.18863 55
295.16019 46
296.15662 79
296.20346 47
297.17413 49
299.17252 53
305.1738 53
305.18417 54
305.26318 56
307.27609 49
308.24756 41
309.19357 64
309.20636 57
309.23911 76
310.33667 55
311.08038 94
311.09158 81
311.17444 55
313.19049 41
313.21948 56
313.24588 62
313.26965 66
313.2872 45
314.21771 47
315.17487 49
317.20364 51
321.1546 44
323.21259 57
323.28226 67
323.3046 47
329.1929 43
329.22171 47
331.20825 70
331.22226 58
331.241 80
331.25586 51
333.24658 46
335.23581 50
336.17679 47
336.27542 47
337.18027 62
337.2168 66
337.23462 49
338.18414 41
341.26868 52
347.18683 74
349.25931 72
349.28229 74
350.28159 52
351.12823 69
351.15164 61
351.2666 53
355.22202 47
358.06711 49
363.25427 209
363.27371 191
364.25897 89
365.09848 63
367.1611 45
368.255 50
368.41132 54
369.19656 43
373.25793 61
373.28815 48
374.10724 45
375.35739 48
377.22482 40
377.24347 77
377.25995 50
377.27924 140
379.28644 44
380.25888 47
380.27356 41
381.2269 81
389.32681 64
389.34158 56
391.32034 74
393.26184 47
397.21887 45
407.19186 41
407.27637 97
407.30307 83
411.28857 45
413.27377 77
415.01151 51
418.22635 47
419.18393 42
419.31732 68
423.27283 67
427.28366 41
429.31216 44
435.29901 43
437.42072 60
439.34756 48
443.28894 56
445.28033 62
445.29684 44
447.38464 85
460.33884 44
462.35461 43
463.2706 50
475.34415 59
475.40363 57
480.30692 45
481.26779 51
485.38983 40
487.3067 51
489.38394 78
489.40765 130
490.36511 46
491.37711 44
493.37744 46
495.28931 60
495.31281 98
495.33084 83
503.12851 148
505.32513 88
505.40085 103
505.42215 62
505.46295 45
507.39688 69
517.49011 46
521.33179 47
523.32361 56
531.40643 42
531.43329 97
531.48724 61
533.41614 41
534.30835 43
535.31915 40
535.48474 41
545.3233 70
545.44293 41
547.46033 87
548.42688 71
553.33307 43
553.34882 44
557.53058 46
563.39087 59
563.41095 59
564.38116 97
564.41241 90
565.40356 511
566.41711 81
567.40546 41
571.50562 54
573.45404 64
587.37488 1706
587.40283 1532
587.50397 119
587.55853 41
587.8739 61
Name: Canthaxanthin
PrecursorMZ: 565.4063
PrecursorType: [M+H]+
IonMode: Positive
Formula: C40H52O2
SMILES: CC1=C(C(CCC1=O)(C)C)C=CC(=CC=CC(=CC=CC=C(C)C=CC=C(C)C=CC2=C(C(=O)CCC2(C)C)C)C)C
InChI: 
InChIKey: FDSDTBUPSURDBL-DKLMTRRASA-N
RetentionTime: 9.483283
CCS: 
CollisionEnergy: 20-40 eV
InstrumentType: UPLC-QTOF-MS
Comment: PI: Cristina Nerin; Data collector: QiZhi Su, GUIA, University of Zaragoza, Spain; Collision energy: 20-40 V; Instrument: Waters HPLC-QTOF-MS (Xevo G2 QTof); Ionization: ESI; Deconvoluted by MS-DIAL; Column: Waters AtlantisTM premier BEH C18 AX column (2.1 × 100mm x 1.7μm); Flow rate: 0.3mL/min; Mobile phase A and B are water and methnaol, respectively, both with 0.1% formic acid; Gradient elution: from A/B (95/5) to A/B (100/0) in 7min, kept for 4 min, then back to A/B (95/5) in 0.1 min, and maintained for additional 1.9 min (13min in total).; Injection volume: 10 μL
Num peaks: 444
57.07193 50
57.07885 50
57.21185 42
59.04552 256
59.05077 256
67.32404 48
68.05335 58
68.05997 58
69.07146 282
70.0648 73
70.07265 92
70.08024 94
71.04966 71
71.05525 89
71.08643 104
71.09254 103
73.03001 131
73.04897 107
76.07448 50
77.03658 47
79.05585 100
79.06053 108
81.0709 46
82.07159 53
82.07575 53
83.08075 92
83.08875 99
85.0676 132
89.0588 51
89.06485 65
90.04409 57
90.05978 71
90.06516 48
90.07134 45
91.04997 191
91.05779 197
91.06842 193
95.08724 461
95.10381 523
97.06195 89
97.06892 87
97.96483 81
98.94521 69
98.96455 46
98.98644 86
98.9907 86
99.08032 171
99.08663 176
100.12095 56
103.03734 164
103.04459 168
103.0558 196
105.02463 66
105.06867 301
105.07625 299
106.06856 53
107.08638 124
111.05403 137
111.07767 46
112.07816 67
112.08622 57
113.09827 147
113.11055 152
115.05817 85
115.09585 202
115.95338 55
116.05637 66
117.05649 46
117.06974 64
117.14146 41
119.04863 77
119.08624 556
120.08215 58
121.02875 59
121.04688 52
121.05253 116
121.06612 139
121.09685 303
121.10441 314
122.06445 93
122.07014 91
122.09995 73
125.09026 66
131.08701 118
131.10931 60
132.0869 70
132.09705 66
133.06706 4029
133.08708 694
133.09859 302
133.10532 287
133.11023 340
134.06404 310
134.07356 309
134.99001 46
135.07198 61
135.0845 73
135.10286 399
135.11833 224
137.08502 354
137.09418 257
137.1015 245
139.04521 64
139.05769 56
139.10381 482
139.11011 544
139.12029 568
139.14783 55
141.05882 50
141.08789 70
142.06723 82
143.07121 180
143.08911 204
143.09541 110
143.10692 178
145.1028 297
145.11774 312
146.10046 53
147.06134 254
147.0692 305
147.08092 336
147.11697 198
147.13583 134
148.11571 73
148.1279 71
149.04491 197
149.05779 41
149.06641 41
149.08266 42
150.05479 55
150.10663 50
151.07245 53
151.0849 53
151.09334 93
151.10614 69
151.11595 88
155.16301 56
157.09375 353
157.10278 335
157.11169 317
157.59966 43
157.61671 42
158.0894 85
158.10464 119
159.11469 282
159.12177 295
159.14075 44
161.08057 140
161.0988 190
161.11282 238
161.13087 80
162.09839 47
163.06113 227
163.07283 195
164.14552 48
164.15508 49
165.09579 57
165.13008 76
167.07521 55
167.14264 53
167.15108 51
169.09848 117
170.10875 85
171.05106 51
171.11084 247
171.12456 264
171.13518 256
172.12653 89
172.13283 99
173.08855 62
173.13135 81
173.14317 83
175.13031 305
175.155 168
176.15794 42
177.09258 67
179.0031 53
179.01613 70
181.06302 42
181.16081 72
182.11299 62
183.08852 71
183.10095 148
183.1188 236
183.12935 178
183.13597 111
184.129 51
185.13168 362
185.14684 382
186.12769 84
186.14247 105
187.11572 69
187.14523 121
187.15936 95
188.14282 50
189.11647 134
189.13068 149
189.15025 165
189.1671 77
191.12526 104
191.14342 199
191.15451 224
192.16106 57
193.10461 74
195.09229 45
195.10956 174
195.13223 93
196.11867 76
196.12845 64
197.09767 52
197.13069 247
197.13922 252
197.20537 46
198.15376 53
199.11049 53
199.13698 157
201.04782 64
203.14609 3391
203.16451 3151
204.14734 545
205.15678 124
205.16745 128
206.09947 58
207.06859 41
207.1398 61
208.12064 57
209.08885 46
209.11452 144
209.12924 220
209.14401 218
209.15778 62
209.18604 58
209.19701 75
210.13486 131
211.10335 71
211.12193 42
211.14201 259
211.15164 195
211.16656 48
212.09941 55
212.1485 44
213.11455 131
213.15915 69
213.1716 85
214.12492 42
215.09494 48
215.12273 122
215.14691 358
216.13174 68
216.14836 99
216.17422 62
217.16046 68
219.10344 105
219.1223 225
219.13708 229
221.12906 115
221.14539 135
221.15556 97
221.20126 62
221.21768 53
222.11365 48
222.14363 67
223.05804 166
223.15477 89
225.13089 170
225.15482 56
225.16898 105
227.13271 57
227.14429 65
228.14774 52
229.1618 58
233.14128 50
233.17232 54
233.18518 74
233.20456 63
235.12254 63
237.082 112
237.14757 75
237.17215 41
238.07889 117
238.10069 108
239.05951 73
239.07967 64
239.20065 58
239.21149 71
240.07658 48
240.09442 44
245.18697 44
247.15268 61
247.1796 53
250.19519 54
251.11642 102
251.18208 96
251.19872 133
253.16196 51
253.19785 79
254.25893 45
255.16508 66
255.18018 126
259.25662 48
261.14755 66
261.16516 46
264.17111 46
264.26822 54
265.1629 67
265.18457 69
265.19363 114
266.97812 125
266.99292 386
267.00333 357
267.01398 376
268.0134 63
268.98688 42
268.99991 46
269.12378 53
269.18704 153
271.10757 53
271.20453 114
273.16354 75
273.17368 139
273.1835 106
275.16769 41
277.16193 41
279.08752 41
279.10071 43
279.11459 42
279.12903 52
279.18179 46
281.18759 41
281.20038 52
281.29916 73
282.18253 56
282.20297 61
283.26224 130
291.21182 59
293.11908 56
293.19412 42
293.23346 68
295.17545 101
295.18893 117
295.20944 52
296.14041 43
296.20276 46
297.20483 43
299.16943 48
299.19153 69
305.1864 62
305.25101 54
309.20206 52
309.24588 74
309.26254 45
309.28537 116
311.09433 51
313.21497 67
317.19196 54
317.22354 51
319.22296 42
321.15915 88
321.23135 61
321.26636 56
323.1962 44
323.29025 46
323.30627 53
324.21112 42
325.27737 54
326.20297 45
329.14502 42
329.25079 53
333.22922 42
337.23572 91
337.25241 54
339.14874 42
347.23743 49
347.25317 72
349.26688 167
356.073 125
358.04709 63
358.06094 68
358.08508 54
361.25909 43
363.25287 139
363.27316 208
364.26947 85
365.09317 77
365.22501 62
368.25168 56
377.24127 66
377.26715 100
385.32654 43
391.30505 62
400.98734 88
401.35455 57
402.00015 68
410.1799 45
413.26202 78
413.28989 110
419.26236 74
419.29611 69
427.26407 44
427.29425 73
429.31622 58
429.33594 44
431.25583 44
433.30664 46
435.31207 88
435.33237 68
439.24902 41
439.2637 68
439.35306 53
445.1459 129
451.24414 47
463.30353 45
475.40109 58
477.3009 76
477.44781 44
479.29541 41
489.39777 63
491.3927 70
493.3642 55
493.38791 45
495.3356 81
497.35101 43
504.07803 53
505.46136 61
506.10779 57
507.35492 56
517.45325 96
519.35486 60
521.32098 41
521.34906 47
523.30786 96
533.33044 44
534.39441 46
547.44202 60
548.41864 45
549.46832 63
560.54388 41
564.38928 108
564.42432 45
565.38855 189
565.40729 808
565.44885 72
565.50354 54
565.54504 75
Name: Cinchophen
PrecursorMZ: 250.0887
PrecursorType: [M+H]+
IonMode: Positive
Formula: C16H11NO2
SMILES: C1=CC=C(C=C1)C2=NC3=CC=CC=C3C(=C2)C(=O)O
InChI: 
InChIKey: YTRMTPPVNRALON-UHFFFAOYSA-N
RetentionTime: 10.86658
CCS: 
CollisionEnergy: 20-40 eV
InstrumentType: UPLC-QTOF-MS
Comment: PI: Cristina Nerin; Data collector: QiZhi Su, GUIA, University of Zaragoza, Spain; Collision energy: 20-40 V; Instrument: Waters HPLC-QTOF-MS (Xevo G2 QTof); Ionization: ESI; Deconvoluted by MS-DIAL; Column: Waters AtlantisTM premier BEH C18 AX column (2.1 × 100mm x 1.7μm); Flow rate: 0.3mL/min; Mobile phase A and B are water and methnaol, respectively, both with 0.1% formic acid; Gradient elution: from A/B (95/5) to A/B (100/0) in 7min, kept for 4 min, then back to A/B (95/5) in 0.1 min, and maintained for additional 1.9 min (13min in total).; Injection volume: 10 μL
Num peaks: 17
89.03978 9609
101.0398 19262
101.0549 19188
116.05045 66676
128.05045 211702
129.0536 19599
144.04552 47321
172.03993 19258
204.08162 60493
205.08676 14224
206.09747 112788
207.10085 17380
222.09242 166142
223.09627 26351
250.08777 795324
250.17061 10046
250.24521 13953
Name: Canthaxanthin
PrecursorMZ: 587.3842
PrecursorType: [M+Na]+
IonMode: Positive
Formula: C40H52O2
SMILES: CC1=C(C(CCC1=O)(C)C)C=CC(=CC=CC(=CC=CC=C(C)C=CC=C(C)C=CC2=C(C(=O)CCC2(C)C)C)C)C
InChI: 
InChIKey: FDSDTBUPSURDBL-DKLMTRRASA-N
RetentionTime: 9.487017
CCS: 
CollisionEnergy: 20-40 eV
InstrumentType: UPLC-QTOF-MS
Comment: PI: Cristina Nerin; Data collector: QiZhi Su, GUIA, University of Zaragoza, Spain; Collision energy: 20-40 V; Instrument: Waters HPLC-QTOF-MS (Xevo G2 QTof); Ionization: ESI; Deconvoluted by MS-DIAL; Column: Waters AtlantisTM premier BEH C18 AX column (2.1 × 100mm x 1.7μm); Flow rate: 0.3mL/min; Mobile phase A and B are water and methnaol, respectively, both with 0.1% formic acid; Gradient elution: from A/B (95/5) to A/B (100/0) in 7min, kept for 4 min, then back to A/B (95/5) in 0.1 min, and maintained for additional 1.9 min (13min in total).; Injection volume: 10 μL
Num peaks: 30
60.07651 154
60.08188 148
60.08752 145
83.08833 175
89.0732 150
93.05061 246
106.06975 154
120.08782 247
133.08495 1165
135.06067 150
173.13585 161
187.09619 211
195.11102 165
197.1308 178
197.14009 159
203.14392 158
213.12392 342
215.16264 301
223.14746 350
223.16142 366
225.12735 202
275.18176 152
307.22592 153
347.24219 223
363.26852 242
363.28259 480
495.33246 167
587.38287 14013
587.51593 210
587.87079 340
Name: Sulfanilic acid
PrecursorMZ: 174.0214
PrecursorType: [M+H]+
IonMode: Positive
Formula: C6H7NO3S
SMILES: C1=CC(=CC=C1N)S(=O)(=O)O
InChI: 
InChIKey: HVBSAKJJOYLTQU-UHFFFAOYSA-N
RetentionTime: 4.4797
CCS: 
CollisionEnergy: 20-40 eV
InstrumentType: UPLC-QTOF-MS
Comment: PI: Cristina Nerin; Data collector: QiZhi Su, GUIA, University of Zaragoza, Spain; Collision energy: 20-40 V; Instrument: Waters HPLC-QTOF-MS (Xevo G2 QTof); Ionization: ESI; Deconvoluted by MS-DIAL; Column: Waters AtlantisTM premier BEH C18 AX column (2.1 × 100mm x 1.7μm); Flow rate: 0.3mL/min; Mobile phase A and B are water and methnaol, respectively, both with 0.1% formic acid; Gradient elution: from A/B (95/5) to A/B (100/0) in 7min, kept for 4 min, then back to A/B (95/5) in 0.1 min, and maintained for additional 1.9 min (13min in total).; Injection volume: 10 μL
Num peaks: 154
52.1977 29
54.99134 24
55.00736 36
55.05099 52
55.55492 33
56.94254 25
56.96416 28
56.96846 29
57.03475 50
57.07132 69
60.00787 26
61.01035 27
61.45382 90
63.99915 81
65.03986 124
66.03511 23
66.04596 33
66.05213 78
67.04482 27
67.05656 33
69.03023 34
69.06848 57
69.67302 22
70.06265 38
71.04606 22
72.08595 45
75.00132 66
75.01585 29
77.04074 77
79.0209 243
79.02682 40
81.0122 39
81.06973 116
82.06422 25
84.96135 680
85.02851 27
85.96342 24
86.99052 28
87.04256 35
89.06102 79
90.47723 69
90.94025 31
90.94916 44
91.02081 87
91.04022 24
91.05552 54
92.04973 838
93.04613 34
93.0592 2182
93.2961 22
94.03905 23
94.06341 255
95.08068 22
96.94296 29
97.9701 24
98.02374 29
98.96967 43
99.49209 100
100.04029 41
100.12014 45
100.26159 33
100.49065 26
100.5593 26
100.93328 113
101.06258 76
101.46385 35
101.94411 97
102.8961 39
103.89042 70
107.00201 41
108.04338 672
108.08472 38
108.49007 31
109.04982 132
109.05724 95
109.07687 27
110.06616 71
112.61831 31
113.11286 41
113.98872 26
114.56628 53
115.80559 27
116.04736 41
116.07477 31
118.9301 57
118.9725 25
122.08324 45
122.9819 29
123.11015 25
125.06671 25
125.43705 30
126.019 49
129.0668 59
129.99284 34
131.97028 64
134.56898 66
134.93909 28
134.95526 88
134.9799 95
135.1245 75
137.05482 42
137.06436 45
139.04286 104
140.99501 41
141.04993 62
142.95648 24
143.08769 43
145.01572 23
145.10451 80
146.98685 89
147.99272 43
148.00377 52
148.01151 50
148.04745 32
149.0105 69
149.02013 30
149.98195 22
149.98904 57
150.94426 30
151.98061 101
154.00189 39
154.06488 72
154.09309 40
155.00117 33
156.00557 54
156.01263 205
156.07018 25
156.08588 25
156.88271 22
157.01999 41
159.08241 87
160.00291 33
160.99545 26
161.9818 42
162.03795 66
162.35519 133
162.97847 86
163.04112 55
163.97697 123
164.97607 54
164.98219 106
164.99162 93
165.96541 25
167.03239 32
168.87517 48
168.91783 35
170.05219 26
171.12144 43
171.48907 34
173.00227 41
173.01212 82
174.00932 23
174.02451 612
174.51953 28
Name: Aspirin
PrecursorMZ: 203.0327
PrecursorType: [M+Na]+
IonMode: Positive
Formula: C9H8O4
SMILES: CC(=O)OC1=CC=CC=C1C(=O)O
InChI: 
InChIKey: BSYNRYMUTXBXSQ-UHFFFAOYSA-N
RetentionTime: 5.47815
CCS: 
CollisionEnergy: 20-40 eV
InstrumentType: UPLC-QTOF-MS
Comment: PI: Cristina Nerin; Data collector: QiZhi Su, GUIA, University of Zaragoza, Spain; Collision energy: 20-40 V; Instrument: Waters HPLC-QTOF-MS (Xevo G2 QTof); Ionization: ESI; Deconvoluted by MS-DIAL; Column: Waters AtlantisTM premier BEH C18 AX column (2.1 × 100mm x 1.7μm); Flow rate: 0.3mL/min; Mobile phase A and B are water and methnaol, respectively, both with 0.1% formic acid; Gradient elution: from A/B (95/5) to A/B (100/0) in 7min, kept for 4 min, then back to A/B (95/5) in 0.1 min, and maintained for additional 1.9 min (13min in total).; Injection volume: 10 μL
Num peaks: 87
55.05635 17
65.03828 561
65.04466 561
68.91404 24
71.05447 16
71.08604 15
80.04741 29
85.02824 24
85.06816 15
88.07417 52
89.05679 32
92.04933 25
93.03335 295
93.57668 17
102.18726 16
102.99189 21
110.10619 17
110.94839 20
111.09072 28
115.05789 28
119.04612 24
119.05905 22
119.96974 29
121.01118 1407
121.02993 1436
122.03181 93
125.05411 33
125.06625 28
125.09364 22
129.10175 19
132.9917 109
132.99947 111
133.00763 121
135.03642 40
135.04517 39
135.05545 40
137.96266 17
137.98203 17
143.08476 16
144.04935 27
144.05725 27
144.96906 27
144.97823 30
145.98524 21
145.99829 51
146.97116 22
147.11815 31
147.9623 18
149.96457 21
149.97444 29
151.95448 18
151.9671 45
151.97934 40
155.04105 27
157.06223 36
160.00322 15
160.07829 15
163.03998 164
168.99785 25
169.12802 19
174.99141 219
175.00768 217
175.02641 124
175.95886 37
175.97252 15
176.006 61
176.01558 82
176.02831 96
177.96851 74
177.98436 81
177.99605 57
179.00313 51
185.37952 31
186.21432 22
189.96851 20
192.9597 182
192.96886 131
195.08495 21
195.10303 39
196.04593 20
199.00713 25
199.05482 18
201.05316 17
202.01402 26
203.02509 22
203.03719 117
203.05305 25
Name: (+)-Lactose
PrecursorMZ: 685.2379
PrecursorType: [2M+H]+
IonMode: Positive
Formula: C12H22O11
SMILES: C(C1C(C(C(C(O1)OC2C(OC(C(C2O)O)O)CO)O)O)O)O
InChI: 
InChIKey: GUBGYTABKSRVRQ-DCSYEGIMSA-N
RetentionTime: 0.7947834
CCS: 
CollisionEnergy: 20-40 eV
InstrumentType: UPLC-QTOF-MS
Comment: PI: Cristina Nerin; Data collector: QiZhi Su, GUIA, University of Zaragoza, Spain; Collision energy: 20-40 V; Instrument: Waters HPLC-QTOF-MS (Xevo G2 QTof); Ionization: ESI; Deconvoluted by MS-DIAL; Column: Waters AtlantisTM premier BEH C18 AX column (2.1 × 100mm x 1.7μm); Flow rate: 0.3mL/min; Mobile phase A and B are water and methnaol, respectively, both with 0.1% formic acid; Gradient elution: from A/B (95/5) to A/B (100/0) in 7min, kept for 4 min, then back to A/B (95/5) in 0.1 min, and maintained for additional 1.9 min (13min in total).; Injection volume: 10 μL
Num peaks: 55
85.02872 1863
85.04414 1831
87.04438 117
91.03999 2031
92.03933 153
92.04807 158
92.0601 137
103.04824 128
115.02772 270
115.03916 264
115.04642 269
127.04039 750
145.05057 4596
145.06999 4871
146.052 291
163.06082 11322
164.0484 828
164.06264 866
164.07553 844
165.0666 164
181.05879 216
181.07414 179
277.01523 145
289.0885 125
307.10449 144
324.1723 232
324.18466 183
325.11298 3546
326.10419 339
326.11588 429
326.12799 424
343.11646 2019
343.12973 2118
343.15085 154
344.1098 214
344.13309 195
362.10419 510
362.59921 280
370.07318 163
370.09085 139
397.04071 128
414.16998 140
414.18689 165
456.0361 211
456.05209 183
456.08047 221
485.25146 237
505.16711 116
533.15344 460
533.64319 126
533.66913 200
585.23114 227
585.26349 180
585.73712 152
685.23688 1659
Name: Sulfanilic acid
PrecursorMZ: 174.0233
PrecursorType: [M+H]+
IonMode: Positive
Formula: C6H7NO3S
SMILES: C1=CC(=CC=C1N)S(=O)(=O)O
InChI: 
InChIKey: HVBSAKJJOYLTQU-UHFFFAOYSA-N
RetentionTime: 4.617267
CCS: 
CollisionEnergy: 20-40 eV
InstrumentType: UPLC-QTOF-MS
Comment: PI: Cristina Nerin; Data collector: QiZhi Su, GUIA, University of Zaragoza, Spain; Collision energy: 20-40 V; Instrument: Waters HPLC-QTOF-MS (Xevo G2 QTof); Ionization: ESI; Deconvoluted by MS-DIAL; Column: Waters AtlantisTM premier BEH C18 AX column (2.1 × 100mm x 1.7μm); Flow rate: 0.3mL/min; Mobile phase A and B are water and methnaol, respectively, both with 0.1% formic acid; Gradient elution: from A/B (95/5) to A/B (100/0) in 7min, kept for 4 min, then back to A/B (95/5) in 0.1 min, and maintained for additional 1.9 min (13min in total).; Injection volume: 10 μL
Num peaks: 182
50.51045 25
52.51472 24
55.73856 25
58.0399 30
59.07179 24
60.58273 21
61.01162 36
62.0171 119
62.02452 23
63.00412 27
63.89456 63
63.9946 91
64.00233 21
65.04132 314
65.42949 24
66.04552 53
66.05028 77
67.05965 29
69.07018 27
70.07773 23
70.75587 110
70.98116 26
72.02939 23
72.94226 58
74.13234 43
74.71445 25
75.4781 41
77.00078 41
77.64347 39
78.01228 24
78.17573 26
79.0112 25
79.02291 555
79.05066 21
80.03115 47
80.05363 86
81.01959 30
81.05738 25
81.07299 46
82.48888 28
83.04838 48
83.09579 87
83.79342 50
84.07782 26
84.961 669
86.00638 26
86.09818 41
87.46297 39
88.02125 33
90.48521 88
90.98349 28
90.98753 30
91.04625 36
92.05138 1437
92.09372 27
92.30992 32
93.03221 48
93.04182 52
93.05412 768
93.05972 2100
93.2388 28
93.46856 30
94.062 90
94.06725 139
94.13113 23
95.02477 27
95.05986 26
97.06261 133
97.10432 25
97.96841 23
98.10085 35
98.96705 28
99.05237 33
99.48317 52
99.49446 245
99.51784 44
99.99109 21
100.11458 37
100.93787 32
101.95067 21
102.93118 24
103.05669 21
104.99809 22
105.00724 22
107.01257 24
107.01592 51
107.05447 27
108.03975 127
108.04746 458
108.05895 83
109.02522 21
109.05113 23
109.0614 30
110.0514 44
110.09862 23
110.89169 64
110.97623 63
110.98293 59
111.01328 24
111.03595 32
111.04899 22
113.02252 36
113.48933 38
114.08587 69
115.25426 49
116.97515 51
118.08678 33
118.96378 24
119.05646 71
121.10565 60
121.96069 31
122.07995 29
122.0896 50
122.95883 38
123.04105 23
123.07509 23
125.07008 28
125.97174 30
126.33601 40
127.05297 28
127.30909 36
127.8968 56
129.05766 49
129.94725 21
131.05786 110
131.06377 123
132.95869 22
133.94873 55
133.95833 34
134.04364 25
134.95462 130
136.00671 28
137.96474 38
138.05379 32
138.95894 24
140.01854 69
140.05171 21
140.13757 32
143.05763 34
143.09535 71
144.94727 34
145.03296 37
146.96567 21
146.97887 22
146.99663 22
147.96265 42
148.01147 50
148.08167 167
148.96017 22
148.9973 44
149.02499 63
149.10722 23
149.98482 113
149.99576 47
150.94461 28
150.98206 34
150.98988 21
151.6129 66
153.97362 22
154.08295 34
156.00854 113
157.00972 40
157.10239 30
158.00354 23
158.06294 22
159.05099 36
159.08188 26
159.9783 30
160.07069 26
162.94847 65
162.96967 21
163.07967 22
163.96213 46
163.97652 25
163.98627 244
164.98192 56
166.01451 57
170.07169 22
172.99106 42
173.01357 52
174.01707 245
174.02774 584
Name: Benzocaine
PrecursorMZ: 166.0886
PrecursorType: [M+H]+
IonMode: Positive
Formula: C9H11NO2
SMILES: CCOC(=O)C1=CC=C(C=C1)N
InChI: 
InChIKey: BLFLLBZGZJTVJG-UHFFFAOYSA-N
RetentionTime: 5.143133
CCS: 
CollisionEnergy: 20-40 eV
InstrumentType: UPLC-QTOF-MS
Comment: PI: Cristina Nerin; Data collector: QiZhi Su, GUIA, University of Zaragoza, Spain; Collision energy: 20-40 V; Instrument: Waters HPLC-QTOF-MS (Xevo G2 QTof); Ionization: ESI; Deconvoluted by MS-DIAL; Column: Waters AtlantisTM premier BEH C18 AX column (2.1 × 100mm x 1.7μm); Flow rate: 0.3mL/min; Mobile phase A and B are water and methnaol, respectively, both with 0.1% formic acid; Gradient elution: from A/B (95/5) to A/B (100/0) in 7min, kept for 4 min, then back to A/B (95/5) in 0.1 min, and maintained for additional 1.9 min (13min in total).; Injection volume: 10 μL
Num peaks: 22
65.04013 6849
66.0333 852
66.04044 901
66.04453 908
66.05396 859
66.05905 798
77.04002 28966
78.03943 1904
78.04465 1904
78.05273 1874
92.0509 28211
93.05785 8730
94.06642 51946
94.08351 52021
95.06868 3637
95.08047 3654
120.04601 76810
121.0323 6262
121.04875 6052
138.05632 18640
139.06 1335
166.08727 882
Name: Benzocaine
PrecursorMZ: 166.0884
PrecursorType: [M+H]+
IonMode: Positive
Formula: C9H11NO2
SMILES: CCOC(=O)C1=CC=C(C=C1)N
InChI: 
InChIKey: BLFLLBZGZJTVJG-UHFFFAOYSA-N
RetentionTime: 5.185017
CCS: 
CollisionEnergy: 20-40 eV
InstrumentType: UPLC-QTOF-MS
Comment: PI: Cristina Nerin; Data collector: QiZhi Su, GUIA, University of Zaragoza, Spain; Collision energy: 20-40 V; Instrument: Waters HPLC-QTOF-MS (Xevo G2 QTof); Ionization: ESI; Deconvoluted by MS-DIAL; Column: Waters AtlantisTM premier BEH C18 AX column (2.1 × 100mm x 1.7μm); Flow rate: 0.3mL/min; Mobile phase A and B are water and methnaol, respectively, both with 0.1% formic acid; Gradient elution: from A/B (95/5) to A/B (100/0) in 7min, kept for 4 min, then back to A/B (95/5) in 0.1 min, and maintained for additional 1.9 min (13min in total).; Injection volume: 10 μL
Num peaks: 20
65.04009 3267
66.04195 485
66.04692 485
66.05227 487
77.03973 13391
78.04377 487
92.05055 14376
93.0579 4376
94.04977 27985
94.06619 27911
95.05321 1651
95.0692 1592
95.08498 1559
120.02692 41106
120.04583 41135
121.03262 3252
121.04897 2952
138.05637 8204
139.05933 677
166.0865 925
Name: Benzocaine
PrecursorMZ: 188.0715
PrecursorType: [M+Na]+
IonMode: Positive
Formula: C9H11NO2
SMILES: CCOC(=O)C1=CC=C(C=C1)N
InChI: 
InChIKey: BLFLLBZGZJTVJG-UHFFFAOYSA-N
RetentionTime: 5.192616
CCS: 
CollisionEnergy: 20-40 eV
InstrumentType: UPLC-QTOF-MS
Comment: PI: Cristina Nerin; Data collector: QiZhi Su, GUIA, University of Zaragoza, Spain; Collision energy: 20-40 V; Instrument: Waters HPLC-QTOF-MS (Xevo G2 QTof); Ionization: ESI; Deconvoluted by MS-DIAL; Column: Waters AtlantisTM premier BEH C18 AX column (2.1 × 100mm x 1.7μm); Flow rate: 0.3mL/min; Mobile phase A and B are water and methnaol, respectively, both with 0.1% formic acid; Gradient elution: from A/B (95/5) to A/B (100/0) in 7min, kept for 4 min, then back to A/B (95/5) in 0.1 min, and maintained for additional 1.9 min (13min in total).; Injection volume: 10 μL
Num peaks: 19
65.04013 5639
77.03967 22330
78.03343 1107
78.04361 1138
78.05464 1097
92.05058 22667
93.05754 6744
93.0778 5508
94.06641 44255
95.05058 3222
95.06958 2856
95.08302 2708
120.04596 64696
120.06486 64716
121.03349 5562
121.04877 5179
138.0563 14580
139.0592 1098
139.07027 1137
Name: (+)-Lactose
PrecursorMZ: 343.1241
PrecursorType: [M+H]+
IonMode: Positive
Formula: C12H22O11
SMILES: C(C1C(C(C(C(O1)OC2C(OC(C(C2O)O)O)CO)O)O)O)O
InChI: 
InChIKey: GUBGYTABKSRVRQ-DCSYEGIMSA-N
RetentionTime: 0.7985833
CCS: 
CollisionEnergy: 20-40 eV
InstrumentType: UPLC-QTOF-MS
Comment: PI: Cristina Nerin; Data collector: QiZhi Su, GUIA, University of Zaragoza, Spain; Collision energy: 20-40 V; Instrument: Waters HPLC-QTOF-MS (Xevo G2 QTof); Ionization: ESI; Deconvoluted by MS-DIAL; Column: Waters AtlantisTM premier BEH C18 AX column (2.1 × 100mm x 1.7μm); Flow rate: 0.3mL/min; Mobile phase A and B are water and methnaol, respectively, both with 0.1% formic acid; Gradient elution: from A/B (95/5) to A/B (100/0) in 7min, kept for 4 min, then back to A/B (95/5) in 0.1 min, and maintained for additional 1.9 min (13min in total).; Injection volume: 10 μL
Num peaks: 72
61.0291 815
69.03323 457
69.03988 457
71.04169 76
71.05233 76
72.98293 41
72.98725 41
73.02804 910
81.03809 133
83.01806 49
85.0303 3978
86.03149 89
87.03439 120
87.04157 130
87.04955 117
91.04074 1710
92.03352 152
92.03954 162
92.04751 169
97.00735 358
97.02939 2018
97.05157 182
98.02799 114
98.0341 114
99.03316 232
99.04413 235
103.0353 76
103.06397 79
109.02708 218
109.03264 254
116.04986 56
127.02534 1559
127.03922 1566
128.03934 114
128.04501 104
145.05066 993
146.04427 313
161.02483 55
161.03015 55
163.0607 883
164.05447 865
164.06581 918
165.04871 45
165.05615 75
165.06624 46
170.98288 42
181.06 89
181.07678 103
182.02866 200
182.04161 205
191.04243 90
198.96507 56
228.97009 47
233.97827 52
233.99158 80
263.04739 44
263.06674 53
271.08826 44
272.0629 144
272.07132 135
272.08936 62
276.99939 306
277.01654 176
289.07593 129
290.09494 42
325.11264 157
325.14957 86
326.11038 66
332.0795 73
337.02737 66
343.12131 1815
343.14972 363
Name: Bumetanide
PrecursorMZ: 387.099
PrecursorType: [M+Na]+
IonMode: Positive
Formula: C17H20N2O5S
SMILES: CCCCNC1=C(C(=CC(=C1)C(=O)O)S(=O)(=O)N)OC2=CC=CC=C2
InChI: 
InChIKey: MAEIEVLCKWDQJH-UHFFFAOYSA-N
RetentionTime: 6.92255
CCS: 
CollisionEnergy: 20-40 eV
InstrumentType: UPLC-QTOF-MS
Comment: PI: Cristina Nerin; Data collector: QiZhi Su, GUIA, University of Zaragoza, Spain; Collision energy: 20-40 V; Instrument: Waters HPLC-QTOF-MS (Xevo G2 QTof); Ionization: ESI; Deconvoluted by MS-DIAL; Column: Waters AtlantisTM premier BEH C18 AX column (2.1 × 100mm x 1.7μm); Flow rate: 0.3mL/min; Mobile phase A and B are water and methnaol, respectively, both with 0.1% formic acid; Gradient elution: from A/B (95/5) to A/B (100/0) in 7min, kept for 4 min, then back to A/B (95/5) in 0.1 min, and maintained for additional 1.9 min (13min in total).; Injection volume: 10 μL
Num peaks: 80
108.04533 2829
129.07101 2893
141.07092 3712
152.03529 3457
152.05287 4003
153.05557 1977
153.07118 1808
156.08177 28454
157.06467 843
157.08571 3084
157.10442 2094
166.06671 4915
167.06302 1285
167.07457 1122
167.08513 787
168.05896 1215
168.08139 1025
169.06633 4086
169.07898 4267
170.09689 3050
171.07695 1104
171.08778 1352
171.10094 912
181.06725 1342
182.05737 2494
182.06509 2458
183.06923 15814
184.07648 50593
185.08107 7769
186.07864 1126
186.08786 1228
186.09784 1204
195.06631 2997
195.07605 3005
195.08902 1736
196.0764 19551
197.07997 3598
198.0921 3300
199.09441 722
208.09239 796
209.08507 1264
209.10338 885
210.05128 1225
210.06224 1162
210.08803 830
210.09926 699
212.1445 12788
213.14948 1537
224.08418 705
225.05519 1308
225.07062 1266
229.07552 866
229.08893 685
238.12352 7056
239.12949 3488
240.06599 7586
240.13942 65230
241.07019 1161
241.14261 11879
242.08217 7943
242.14384 1193
242.1526 1208
242.1687 743
243.07976 1235
243.08824 1200
248.03941 1152
266.1189 5314
267.12054 1004
267.1312 1017
283.12146 2505
284.12845 26095
285.13205 4462
292.02954 4676
293.034 846
348.09131 3251
349.09048 1216
349.10828 1766
367.117 1337
368.11865 703
387.09982 9533
Name: Bumetanide
PrecursorMZ: 729.2253
PrecursorType: [2M+H]+
IonMode: Positive
Formula: C17H20N2O5S
SMILES: CCCCNC1=C(C(=CC(=C1)C(=O)O)S(=O)(=O)N)OC2=CC=CC=C2
InChI: 
InChIKey: MAEIEVLCKWDQJH-UHFFFAOYSA-N
RetentionTime: 6.964417
CCS: 
CollisionEnergy: 20-40 eV
InstrumentType: UPLC-QTOF-MS
Comment: PI: Cristina Nerin; Data collector: QiZhi Su, GUIA, University of Zaragoza, Spain; Collision energy: 20-40 V; Instrument: Waters HPLC-QTOF-MS (Xevo G2 QTof); Ionization: ESI; Deconvoluted by MS-DIAL; Column: Waters AtlantisTM premier BEH C18 AX column (2.1 × 100mm x 1.7μm); Flow rate: 0.3mL/min; Mobile phase A and B are water and methnaol, respectively, both with 0.1% formic acid; Gradient elution: from A/B (95/5) to A/B (100/0) in 7min, kept for 4 min, then back to A/B (95/5) in 0.1 min, and maintained for additional 1.9 min (13min in total).; Injection volume: 10 μL
Num peaks: 20
156.08183 36195
183.0687 20740
184.07661 92632
185.08145 11103
196.0764 24117
212.14507 18836
238.12373 10894
240.06705 9489
240.13919 181318
241.14302 30147
242.08192 10339
266.11874 13092
284.12909 98044
285.13229 17203
292.02795 13494
348.09055 23443
365.11688 751962
366.11963 141579
367.11676 47362
729.22485 421174
Name: Bumetanide
PrecursorMZ: 365.1167
PrecursorType: [M+H]+
IonMode: Positive
Formula: C17H20N2O5S
SMILES: CCCCNC1=C(C(=CC(=C1)C(=O)O)S(=O)(=O)N)OC2=CC=CC=C2
InChI: 
InChIKey: MAEIEVLCKWDQJH-UHFFFAOYSA-N
RetentionTime: 6.98345
CCS: 
CollisionEnergy: 20-40 eV
InstrumentType: UPLC-QTOF-MS
Comment: PI: Cristina Nerin; Data collector: QiZhi Su, GUIA, University of Zaragoza, Spain; Collision energy: 20-40 V; Instrument: Waters HPLC-QTOF-MS (Xevo G2 QTof); Ionization: ESI; Deconvoluted by MS-DIAL; Column: Waters AtlantisTM premier BEH C18 AX column (2.1 × 100mm x 1.7μm); Flow rate: 0.3mL/min; Mobile phase A and B are water and methnaol, respectively, both with 0.1% formic acid; Gradient elution: from A/B (95/5) to A/B (100/0) in 7min, kept for 4 min, then back to A/B (95/5) in 0.1 min, and maintained for additional 1.9 min (13min in total).; Injection volume: 10 μL
Num peaks: 10
156.08189 31243
183.06891 18728
184.07639 76553
196.07675 21511
198.09242 5459
212.14438 17147
238.12393 8647
240.06573 8745
242.0824 9370
365.11682 535274
Name: Bumetanide
PrecursorMZ: 751.2086
PrecursorType: [2M+Na]+
IonMode: Positive
Formula: C17H20N2O5S
SMILES: CCCCNC1=C(C(=CC(=C1)C(=O)O)S(=O)(=O)N)OC2=CC=CC=C2
InChI: 
InChIKey: MAEIEVLCKWDQJH-UHFFFAOYSA-N
RetentionTime: 6.998683
CCS: 
CollisionEnergy: 20-40 eV
InstrumentType: UPLC-QTOF-MS
Comment: PI: Cristina Nerin; Data collector: QiZhi Su, GUIA, University of Zaragoza, Spain; Collision energy: 20-40 V; Instrument: Waters HPLC-QTOF-MS (Xevo G2 QTof); Ionization: ESI; Deconvoluted by MS-DIAL; Column: Waters AtlantisTM premier BEH C18 AX column (2.1 × 100mm x 1.7μm); Flow rate: 0.3mL/min; Mobile phase A and B are water and methnaol, respectively, both with 0.1% formic acid; Gradient elution: from A/B (95/5) to A/B (100/0) in 7min, kept for 4 min, then back to A/B (95/5) in 0.1 min, and maintained for additional 1.9 min (13min in total).; Injection volume: 10 μL
Num peaks: 169
51.06388 85
51.07092 68
51.38303 68
51.42148 76
57.06624 207
57.07146 220
70.06425 81
70.06953 77
72.18295 68
72.98918 101
74.83651 60
77.03354 120
77.0381 120
77.04578 116
80.04919 119
80.05786 119
91.05618 183
91.06115 183
95.93851 78
96.11787 63
107.04808 81
109.0405 172
109.04893 214
109.06538 74
117.07972 104
117.08907 84
121.03379 93
124.03842 178
124.05074 197
125.06104 71
128.05595 410
128.06357 254
128.07022 240
136.05807 85
139.03854 131
139.04985 265
139.05678 108
139.07224 337
142.09305 318
143.10117 95
147.10463 104
147.11279 108
152.05498 2148
152.06543 148
153.06876 816
153.077 829
155.07103 278
155.0825 162
155.08746 174
157.06494 554
158.08856 103
166.06697 1809
166.08655 2134
167.03783 184
167.05249 741
167.09462 414
168.05455 319
168.06659 629
168.08597 373
170.06516 278
171.10081 189
171.13689 94
172.07974 115
182.03873 262
182.0511 589
182.06445 780
184.1049 99
184.11581 92
184.12462 144
193.08392 71
193.0941 89
193.10664 106
194.06735 133
194.08151 145
194.09715 84
197.12506 74
198.05951 89
200.07552 125
200.09245 136
200.10594 72
201.05475 73
201.0723 75
207.09732 77
208.07892 287
208.0923 336
209.11501 142
210.0932 352
211.07295 94
211.09926 224
212.07277 146
213.0551 61
213.07497 65
214.04729 73
221.08414 61
223.09888 87
223.13354 102
224.0533 165
224.07176 262
225.08995 73
226.05951 213
226.0916 174
228.04932 332
228.06688 277
228.15797 65
239.05675 130
240.88742 69
242.26888 69
243.05679 83
250.04709 72
253.06299 73
253.07628 71
254.08682 86
254.09898 101
254.1212 66
254.13298 72
256.13843 70
257.09085 107
264.03287 66
269.13882 61
269.15091 74
269.17593 66
270.14536 84
270.15601 86
274.005 62
282.09848 60
283.1535 93
287.07724 63
296.12021 340
296.13263 325
304.01831 79
304.0325 89
321.04337 60
326.01288 86
326.02957 74
345.99701 94
347.09012 73
347.1066 121
365.16394 105
369.43582 310
377.11932 266
379.08914 81
385.04086 110
387.0994 5924
388.0621 99
395.121 621
395.13599 626
396.1192 85
396.14111 117
403.05219 1298
403.06799 692
403.08966 656
405.05389 68
405.07761 76
419.16614 76
426.15552 87
438.16595 87
438.18201 86
481.06857 176
481.09616 131
563.39764 102
731.25018 731
748.17938 320
748.70056 251
749.18616 112
749.21063 183
749.68158 101
749.71887 121
751.20441 5805
751.26105 269
Name: Bumetanide
PrecursorMZ: 387.0983
PrecursorType: [M+Na]+
IonMode: Positive
Formula: C17H20N2O5S
SMILES: CCCCNC1=C(C(=CC(=C1)C(=O)O)S(=O)(=O)N)OC2=CC=CC=C2
InChI: 
InChIKey: MAEIEVLCKWDQJH-UHFFFAOYSA-N
RetentionTime: 7.013916
CCS: 
CollisionEnergy: 20-40 eV
InstrumentType: UPLC-QTOF-MS
Comment: PI: Cristina Nerin; Data collector: QiZhi Su, GUIA, University of Zaragoza, Spain; Collision energy: 20-40 V; Instrument: Waters HPLC-QTOF-MS (Xevo G2 QTof); Ionization: ESI; Deconvoluted by MS-DIAL; Column: Waters AtlantisTM premier BEH C18 AX column (2.1 × 100mm x 1.7μm); Flow rate: 0.3mL/min; Mobile phase A and B are water and methnaol, respectively, both with 0.1% formic acid; Gradient elution: from A/B (95/5) to A/B (100/0) in 7min, kept for 4 min, then back to A/B (95/5) in 0.1 min, and maintained for additional 1.9 min (13min in total).; Injection volume: 10 μL
Num peaks: 52
67.04942 123
67.05621 124
67.06144 122
77.03498 75
77.04022 78
79.01833 128
79.02499 142
87.0452 80
99.00658 80
102.05816 93
102.06413 94
109.06748 99
117.08975 120
117.10008 137
118.08159 79
118.0886 76
119.0858 80
121.04974 72
122.06644 73
122.07992 81
122.08803 91
134.96782 132
137.04645 81
137.06065 103
147.11917 68
161.13579 82
161.14595 71
183.10899 85
183.12885 78
195.09552 117
197.1129 97
198.11655 368
199.12363 71
208.05891 107
228.04283 200
238.04913 97
243.05699 67
248.06873 99
296.11169 200
296.12296 225
296.13736 196
321.05453 121
346.00076 129
347.00433 67
347.07932 72
363.069 88
364.08508 70
368.42468 1462
369.42493 241
369.44418 200
385.05756 100
387.09952 6451
Name: "10,12-pentacosadiynoic acid"
PrecursorMZ: 397.308
PrecursorType: [M+Na]+
IonMode: Positive
Formula: C25H42O2
SMILES: CCCCCCCCCCCCC#CC#CCCCCCCCCC(=O)O
InChI: 
InChIKey: ZPUDRBWHCWYMQS-UHFFFAOYSA-N
RetentionTime: 9.159667
CCS: 
CollisionEnergy: 20-40 eV
InstrumentType: UPLC-QTOF-MS
Comment: PI: Cristina Nerin; Data collector: QiZhi Su, GUIA, University of Zaragoza, Spain; Collision energy: 20-40 V; Instrument: Waters HPLC-QTOF-MS (Xevo G2 QTof); Ionization: ESI; Deconvoluted by MS-DIAL; Column: Waters AtlantisTM premier BEH C18 AX column (2.1 × 100mm x 1.7μm); Flow rate: 0.3mL/min; Mobile phase A and B are water and methnaol, respectively, both with 0.1% formic acid; Gradient elution: from A/B (95/5) to A/B (100/0) in 7min, kept for 4 min, then back to A/B (95/5) in 0.1 min, and maintained for additional 1.9 min (13min in total).; Injection volume: 10 μL
Num peaks: 52
67.04778 137
67.05598 140
67.0652 153
74.64197 93
79.0545 207
81.07071 382
91.0544 209
91.05959 209
93.05902 356
93.07124 351
95.08606 312
95.09438 313
97.06039 211
97.06683 214
97.07559 224
97.09092 297
97.10423 122
99.05971 133
102.10885 101
108.07021 109
109.10029 297
111.07517 102
111.08327 100
121.10276 221
131.08685 138
131.09686 137
133.08394 230
133.08992 228
133.09985 210
133.10559 153
135.11896 210
157.11137 88
161.12372 145
161.1342 122
163.10893 101
163.11479 95
163.12576 134
165.12421 172
165.12984 158
165.14217 181
175.12833 92
175.14299 153
175.15578 196
190.36151 318
221.0782 95
233.17024 104
263.19257 101
263.20218 94
356.07016 237
356.08572 158
370.13058 86
397.30618 8504
Name: "10,12-pentacosadiynoic acid"
PrecursorMZ: 375.3265
PrecursorType: [M+H]+
IonMode: Positive
Formula: C25H42O2
SMILES: CCCCCCCCCCCCC#CC#CCCCCCCCCC(=O)O
InChI: 
InChIKey: ZPUDRBWHCWYMQS-UHFFFAOYSA-N
RetentionTime: 9.171083
CCS: 
CollisionEnergy: 20-40 eV
InstrumentType: UPLC-QTOF-MS
Comment: PI: Cristina Nerin; Data collector: QiZhi Su, GUIA, University of Zaragoza, Spain; Collision energy: 20-40 V; Instrument: Waters HPLC-QTOF-MS (Xevo G2 QTof); Ionization: ESI; Deconvoluted by MS-DIAL; Column: Waters AtlantisTM premier BEH C18 AX column (2.1 × 100mm x 1.7μm); Flow rate: 0.3mL/min; Mobile phase A and B are water and methnaol, respectively, both with 0.1% formic acid; Gradient elution: from A/B (95/5) to A/B (100/0) in 7min, kept for 4 min, then back to A/B (95/5) in 0.1 min, and maintained for additional 1.9 min (13min in total).; Injection volume: 10 μL
Num peaks: 1558
49.92416 30
50.04457 34
50.13259 31
50.2304 46
50.24692 30
50.39149 50
50.61651 146
50.88138 22
50.95734 26
51.20808 64
51.28629 32
51.5702 22
51.58619 22
51.86503 40
51.90551 50
52.03199 29
52.05709 26
52.40631 32
52.62114 23
52.73984 98
53.8442 45
54.03973 81
54.11507 21
54.52816 27
54.74087 22
54.95386 21
55.01665 46
55.05466 304
55.25741 25
55.46809 24
56.33746 50
56.64357 24
57.03701 34
57.07123 162
57.09269 69
57.7364 58
58.01372 23
58.29998 21
58.68153 23
58.78032 31
58.80424 40
58.83845 27
58.9455 33
58.98804 24
59.04724 220
59.28343 39
59.4273 28
59.54825 100
59.65335 32
59.73602 74
59.79553 33
60.08212 687
60.18383 24
60.64628 21
60.94616 24
61.02605 25
61.0815 40
61.12962 24
61.40703 29
61.63263 443
61.74694 60
62.05588 25
62.06138 34
62.89061 63
63.42485 37
63.76105 52
63.91915 68
64.19244 123
65.01711 25
65.60078 21
65.75441 43
66.02561 73
66.03806 24
66.04553 35
66.45492 59
66.82104 36
66.88148 23
66.92533 27
67.05564 879
67.17687 38
67.25079 25
67.43046 25
68.01756 22
68.05627 25
68.69798 25
69.07103 705
69.71438 60
69.87538 22
69.98159 48
70.06731 40
70.07381 61
70.41416 36
70.50104 23
70.92435 24
71.04811 152
71.05297 66
71.07908 43
71.0864 350
71.09309 24
71.41748 22
71.44446 36
72.09447 24
72.62289 24
72.73881 28
72.80508 24
73.02468 41
73.02928 27
73.04488 261
73.08915 31
73.5354 21
74.09834 52
74.13432 22
74.25365 61
74.30724 72
74.50745 22
74.61533 26
74.63957 49
74.65094 24
74.67254 21
74.70478 28
74.86798 68
74.97717 34
75.02445 22
75.03596 23
75.0472 73
75.09075 23
75.10525 36
75.14079 32
75.21072 51
75.22971 23
75.26176 40
75.37566 23
75.42873 93
75.53606 30
75.56281 24
75.58429 24
75.6519 27
75.73158 24
75.82763 29
76.03774 54
76.07189 26
76.13618 35
76.6464 40
77.03674 56
77.82629 53
77.88843 22
78.04539 31
78.57094 28
78.66927 24
78.968 26
79.01781 32
79.02365 163
79.05204 209
79.05598 676
79.06096 175
79.33439 45
79.57494 30
80.0276 21
80.05017 30
80.56804 51
80.72894 29
80.84659 29
81.07041 1412
81.0802 85
81.41639 33
81.65166 53
81.95126 26
82.07617 63
82.63433 23
82.98146 57
83.04632 98
83.05051 217
83.08266 165
83.08715 620
83.11295 84
84.0536 57
84.09418 70
84.42072 30
84.95839 57
84.96307 148
85.03017 23
85.06386 106
85.07092 79
85.1013 266
86.02793 23
86.10149 111
86.68606 26
86.79508 24
87.04 64
87.04666 54
87.09991 59
87.49221 23
87.78008 74
87.83542 46
88.07812 41
88.49837 26
88.69185 21
88.73836 61
88.95035 21
88.96679 57
89.04119 40
89.05664 118
89.06078 284
89.06923 103
89.07248 49
89.28165 91
89.31638 25
89.70347 26
90.05215 28
90.05786 88
90.13849 25
90.86037 30
91.05547 515
91.88583 71
92.04879 71
92.23636 36
93.00217 28
93.01017 21
93.03387 83
93.0521 23
93.06753 435
93.0722 632
93.2878 60
93.4855 33
93.69499 32
93.9422 24
94.04364 23
94.072 74
94.07729 30
94.66115 28
95.05168 158
95.08617 1315
95.09885 80
95.40935 90
95.70998 23
96.04866 29
96.09072 67
96.25761 24
96.93518 68
97.06376 166
97.06912 313
97.10013 356
97.10739 153
97.75864 25
97.83083 60
97.94543 68
97.96478 30
98.02975 24
98.10529 216
98.94421 35
98.96186 86
98.97042 33
98.97863 51
98.98642 125
99.00327 23
99.04513 129
99.05151 40
99.07381 75
99.08017 162
99.11833 73
99.96843 78
100.11379 27
100.74549 143
101.01551 21
101.05629 49
101.06294 51
101.09619 45
101.11762 49
101.22981 22
101.42606 21
101.54798 23
101.85994 23
101.92467 38
102.0657 68
102.09251 79
102.13009 44
103.00568 105
103.03083 21
103.0397 143
103.05421 24
103.06209 21
103.96578 33
104.00973 27
104.0498 26
104.07811 53
104.1023 37
104.15881 35
104.32225 29
104.89495 23
104.92643 34
105.03317 24
105.07061 721
105.15077 66
105.22509 45
105.77493 21
105.94172 38
105.97153 39
106.05148 43
106.07513 75
106.26911 21
107.01275 40
107.02747 21
107.04332 60
107.05321 63
107.07011 21
107.08583 800
107.09228 186
107.33987 57
107.77409 67
107.79196 22
107.95614 40
108.08379 76
108.17947 32
109.03014 53
109.06477 289
109.08195 36
109.09322 120
109.10362 834
109.30837 25
109.56418 41
109.9825 25
110.1058 95
110.63065 42
110.88409 23
110.91556 27
111.00507 23
111.03658 27
111.04491 225
111.07441 21
111.08661 233
111.11704 304
111.43314 21
111.7235 27
111.87954 34
111.98898 25
112.07211 27
112.11605 35
112.12393 97
112.31738 33
112.93779 37
112.98679 22
113.05832 132
113.09612 64
113.14293 60
114.05558 93
114.08935 22
114.09619 52
114.12674 26
114.37991 44
114.77993 22
115.03788 65
115.04587 63
115.05412 49
115.07405 249
115.08271 97
115.49924 159
115.7056 24
115.99135 30
116.04016 27
116.05997 23
116.0738 27
116.10854 24
116.85357 28
116.93729 24
117.01648 25
117.05137 27
117.06438 123
117.0731 153
117.0887 328
117.09608 257
117.11185 39
117.50525 25
118.05746 21
118.06377 43
118.08851 36
118.09553 33
118.11687 26
118.79166 30
119.07513 49
119.08727 252
119.10266 32
119.99207 28
120.04266 28
120.06784 36
120.083 34
120.10633 62
120.8678 33
120.8869 22
121.02881 77
121.05801 84
121.10142 1461
121.2213 29
121.84901 21
122.05029 72
122.0898 22
122.10117 21
122.1081 82
122.22035 25
122.72458 27
122.95844 24
122.99319 51
123.00133 25
123.0815 207
123.09311 22
123.11575 344
123.1255 33
123.74314 39
124.04716 115
124.07129 43
124.12433 51
124.96865 27
125.01794 21
125.06234 63
125.08846 28
125.09742 174
125.11175 23
125.1301 33
125.14672 42
125.71597 83
126.022 23
126.0926 54
126.10243 50
126.64895 35
126.97128 25
127.07625 78
127.08899 22
127.10464 110
127.14468 26
127.95956 58
127.96606 77
127.98403 48
128.95589 28
129.01154 21
129.05571 72
129.0663 21
129.07603 51
129.0948 65
129.13156 26
129.97377 34
130.05818 78
130.07416 52
130.10309 27
130.15558 34
131.03053 35
131.07001 79
131.08896 161
131.09506 165
132.0462 26
132.66669 33
132.88947 26
133.00807 33
133.02464 38
133.06654 42
133.08659 352
133.1006 481
133.14528 38
134.06538 24
134.10739 25
134.94281 70
134.95752 108
134.98624 55
135.01555 63
135.02956 22
135.04399 21
135.08029 87
135.11302 184
135.12042 645
135.25862 27
135.9301 25
136.0273 51
136.0766 76
136.1161 43
136.12306 39
137.05339 38
137.06139 117
137.07465 21
137.09705 125
137.10852 45
137.12524 34
137.13312 124
137.14009 154
137.35583 75
137.94524 33
138.03218 73
138.06143 30
138.09001 25
138.3934 24
138.93694 21
138.98978 24
139.03717 121
139.04701 24
139.07733 180
139.10912 64
139.11824 153
139.14149 26
139.15063 45
139.54741 40
140.07526 28
141.0417 55
141.0605 120
141.07611 28
141.10036 33
141.13091 46
141.93547 46
142.02765 23
142.05423 23
142.287 21
142.70319 42
142.99603 36
143.08194 26
143.08966 55
143.11095 47
143.12346 42
143.19714 86
143.22818 36
143.4608 27
144.07401 43
144.12936 36
145.05693 60
145.09909 294
145.12872 25
146.05452 25
146.35304 24
146.45422 44
147.06657 364
147.07336 104
147.08347 43
147.08949 57
147.11119 104
147.12279 146
147.30292 29
148.05853 66
148.06668 29
148.11269 30
148.12024 33
149.00246 24
149.01939 217
149.02457 584
149.04042 46
149.05527 73
149.0798 21
149.10011 218
149.13295 141
149.14293 48
149.52586 52
149.82069 41
150.02673 86
150.08655 33
150.11145 30
150.127 72
150.13548 97
151.03514 35
151.07857 49
151.1143 225
151.14888 31
151.98381 54
152.05569 23
152.10114 47
152.30844 34
152.81302 21
153.04829 56
153.09001 50
153.09872 84
153.12305 27
153.13127 25
153.87469 38
154.14697 23
154.40184 64
154.50623 37
154.59761 23
155.01376 31
155.04214 55
155.08571 29
155.14178 21
155.14961 67
155.75125 21
156.06403 25
156.08199 25
156.0993 94
157.08157 46
157.09738 32
157.10767 34
157.12566 291
157.25166 26
157.87048 27
157.87773 22
157.98787 50
157.99738 34
158.03983 46
158.60023 26
158.64433 92
158.97493 28
159.08609 24
159.11327 98
159.11989 75
159.13057 68
160.03929 103
160.05241 40
160.12224 26
160.14133 22
161.08324 156
161.09576 53
161.13516 127
161.1913 28
161.84038 23
162.00943 21
162.0246 62
162.05324 38
162.13278 45
162.355 55
162.98303 45
163.01242 82
163.05112 23
163.06627 129
163.08307 26
163.11214 167
163.12973 21
163.13956 37
163.1479 42
163.15732 33
163.66422 26
164.06364 27
164.09259 36
164.72899 22
164.87381 39
165.02292 30
165.03572 30
165.06348 45
165.08728 70
165.12367 291
165.1362 78
165.15923 89
165.17361 53
165.19951 24
165.77104 23
165.98213 30
166.05144 32
166.08392 30
166.09633 27
166.10426 28
166.12767 86
166.61092 59
167.00706 21
167.03935 36
167.06744 96
167.09065 42
167.11423 21
167.96581 25
169.02316 24
169.05157 22
169.09023 40
169.12569 34
169.16319 23
169.99393 27
170.10611 78
171.00128 78
171.06319 22
171.07768 37
171.08664 22
171.09773 23
171.11792 119
171.14546 88
171.85767 25
172.06223 23
172.11026 31
172.85243 25
172.87077 33
172.98624 22
172.99495 43
173.00992 27
173.01878 26
173.08345 46
173.09244 21
173.13371 221
174.13206 24
174.88225 23
175.01183 48
175.0363 150
175.07562 32
175.10341 145
175.11626 24
175.13359 485
175.14795 202
175.29855 53
176.024 42
176.03784 62
176.14108 28
176.29791 50
177.0063 25
177.02113 40
177.06117 66
177.08812 45
177.10739 34
177.11444 34
177.13223 37
177.1627 163
177.30553 42
178.00803 38
178.10991 37
179.11368 51
179.83865 24
179.9993 24
180.07291 60
180.12035 55
181.0526 69
181.08247 24
181.12769 233
181.13953 55
181.37677 46
181.98596 25
182.12405 26
182.80263 56
183.05727 41
183.09915 21
183.1084 83
183.11708 61
183.1317 41
183.16849 40
183.1817 45
184.07559 25
184.13406 54
184.52133 43
184.68726 21
185.00406 30
185.01373 21
185.1167 58
185.13138 31
186.00729 34
186.13109 39
186.16579 33
186.99992 34
187.0993 25
187.12341 40
187.14613 25
188.12221 46
189.01292 48
189.03653 34
189.09554 22
189.12299 130
189.13535 57
189.16264 107
189.96786 31
190.0331 49
191.04309 75
191.08208 25
191.10017 78
191.11331 30
191.12457 71
191.13531 43
191.14432 34
191.18137 71
192.01016 27
192.14043 67
192.15268 84
193.02554 26
193.04915 27
193.11755 163
193.1559 88
193.18794 77
194.02982 30
194.08142 22
194.30461 22
194.88803 53
194.98991 26
195.00304 43
195.03551 25
195.05194 36
195.09972 56
195.12297 70
195.14104 27
195.15158 49
195.18501 28
195.2606 24
195.54553 25
196.08524 29
196.88066 41
196.97295 22
197.03465 36
197.06473 34
197.11656 46
197.15298 34
198.0936 35
198.19809 37
199.03378 66
199.04237 24
199.12923 36
199.14912 120
199.18112 153
199.75105 28
199.97052 65
200.13907 25
200.1944 28
200.54581 57
201.03326 49
201.04964 42
201.13002 41
201.17197 162
201.50278 24
203.10718 101
203.15051 27
203.17004 30
203.17828 61
204.04518 30
204.06689 115
204.08054 27
204.0988 59
204.27158 31
204.58493 31
205.01683 26
205.03618 27
205.04878 25
205.06674 23
205.15752 41
205.19945 68
205.67195 24
206.03406 29
206.06561 23
206.1163 24
206.16066 31
206.20235 22
206.38446 30
207.02174 69
207.03989 92
207.06419 128
207.09528 22
207.12471 21
207.13463 61
207.14435 39
207.1702 43
207.21925 36
207.59761 25
207.66072 25
208.02115 26
208.03954 55
208.06187 23
208.07875 23
208.45467 30
209.03264 29
209.04984 55
209.0811 34
209.09232 32
209.10432 23
209.11655 57
209.15172 43
209.18462 48
209.19463 71
209.31979 26
209.97318 33
210.18489 21
210.91234 24
211.02669 26
211.09331 23
211.10266 21
211.12607 31
211.20474 306
211.21083 190
212.06839 37
212.21368 32
212.24721 49
213.01176 64
213.03833 33
213.05327 22
213.07188 59
213.16061 50
213.17313 34
213.18449 62
214.1176 23
214.1476 28
214.90858 33
215.03911 47
215.05205 37
215.10295 36
215.13829 25
215.15663 21
215.16557 30
215.18436 73
215.70581 22
216.17525 32
217.06917 52
217.12589 27
217.18414 65
218.05244 25
218.06665 126
218.08287 31
219.04541 62
219.07755 57
219.09755 49
219.11096 139
219.12653 143
219.14761 32
219.16856 22
219.18004 21
219.20216 46
219.21736 70
220.1113 100
220.14159 29
220.1777 23
220.21053 31
220.22382 69
221.0699 33
221.09059 1030
221.11867 102
221.14819 70
221.15912 36
221.18073 27
221.19916 21
222.0603 26
222.07956 94
222.08762 123
222.11758 33
222.15842 75
223.00594 57
223.05586 31
223.06821 138
223.09315 24
223.13893 80
223.15892 56
223.17888 124
223.20097 64
223.21211 31
224.05461 22
224.07204 53
224.08481 33
224.10811 46
224.16943 34
224.17752 27
225.11603 27
225.14308 23
225.16748 21
225.2222 87
226.08302 23
226.11357 25
226.20392 86
226.46216 22
226.99007 37
227.03212 131
227.06409 23
227.13564 83
227.15114 24
227.18671 110
227.21002 116
227.96167 28
228.09277 27
228.12958 48
228.21831 28
228.78409 27
229.0999 41
229.14035 23
229.16621 29
230.05576 47
230.08636 29
230.1116 35
230.98236 27
231.05405 93
231.07233 21
231.14977 23
231.16425 75
231.2168 21
232.07916 67
232.09628 21
232.1748 21
232.21896 23
232.84181 40
233.01793 56
233.06299 37
233.08586 51
233.12755 136
233.14888 76
233.16805 89
233.18352 226
233.22105 39
233.22958 63
233.59261 24
234.03885 24
234.07509 23
234.1053 25
234.1795 24
234.20119 61
234.21837 28
234.90486 22
235.03389 24
235.08549 34
235.09949 42
235.12381 49
235.16196 21
235.20609 49
236.0291 36
236.06566 56
236.0732 37
236.08676 25
236.15047 28
236.80667 25
237.07884 1524
237.08981 413
237.11719 21
237.18536 33
237.19604 25
237.22786 38
237.36023 51
237.64471 65
237.67548 25
237.77695 90
238.08894 266
238.12764 41
238.23022 31
239.06165 163
239.08128 187
239.09923 45
239.13051 23
239.17142 82
239.22859 30
239.24066 23
239.39871 29
240.00023 22
240.0448 21
240.07669 22
240.20303 27
240.25159 21
240.89073 24
241.01836 22
241.06038 31
241.07884 43
241.09656 29
241.15723 78
241.18391 22
241.23927 25
241.2588 24
241.40688 28
242.11214 24
242.16293 45
242.22685 31
243.23338 28
244.16556 37
244.17873 43
244.2267 35
245.05647 21
245.08154 24
245.11063 42
245.16325 37
245.21796 29
246.06174 81
246.39909 47
247.12794 56
247.16347 53
247.20374 30
247.21927 23
247.23158 54
248.14334 38
248.21207 27
249.01985 35
249.04141 27
249.07477 27
249.17506 64
249.18813 205
249.20247 30
249.21771 48
249.81 22
249.94722 92
250.15239 28
250.16466 39
251.0974 204
251.13457 25
251.17064 27
251.20117 103
251.237 50
252.09126 50
252.16562 23
252.23695 43
253.06593 28
253.09161 46
253.10136 23
253.14511 56
253.23518 56
253.25011 50
253.26497 52
253.8961 22
254.05133 31
254.09489 22
254.11147 24
254.20552 55
254.23906 26
254.25388 33
255.17534 66
255.19951 33
256.25546 21
256.27069 50
256.82132 37
257.09167 21
257.9621 23
258.11362 29
258.18555 22
259.10034 52
259.12433 24
259.15753 137
259.23874 68
259.25055 27
259.9079 47
260.07974 25
260.21625 25
260.74106 25
261.07788 21
261.12079 21
261.14044 36
261.16324 23
261.18317 36
261.22549 50
262.1886 33
262.19928 25
262.23218 30
262.77753 30
263.05362 23
263.09955 48
263.10672 22
263.12659 44
263.16202 90
263.2186 71
263.23627 28
264.08298 23
264.12234 42
265.0119 26
265.07074 42
265.1304 32
265.14386 41
265.15347 46
265.17267 87
265.18881 28
265.21405 41
265.23727 40
265.25079 42
265.26685 57
266.04166 25
266.06808 24
266.09644 32
266.18494 26
266.98868 84
266.99683 55
267.07077 52
267.08307 24
267.09457 42
267.10782 30
268.26602 36
268.72641 31
269.01056 24
269.22507 33
269.2767 63
271.18182 42
272.27042 32
273.07889 51
273.15927 35
273.17236 100
273.21445 30
273.96692 34
274.97003 30
275.1958 54
276.05948 31
276.42673 33
277.08685 22
277.11023 47
277.15491 24
277.17368 194
277.18228 57
277.21155 29
277.24951 45
277.26294 64
278.09781 89
278.20267 27
278.22095 47
278.80368 21
279.00833 30
279.04367 41
279.12018 33
279.15918 41
279.17947 25
279.20383 30
279.2269 27
279.2392 35
280.25708 23
281.04974 1374
281.08517 21
281.11957 27
281.13199 63
281.21274 42
281.23376 52
281.27118 34
281.29767 104
282.04489 129
282.06595 248
282.14816 32
282.26541 76
282.29263 21
283.03409 95
283.0491 246
283.06714 102
283.15628 25
283.16736 21
283.20245 26
283.23355 24
283.2547 64
283.27365 118
283.5097 28
283.70242 38
283.72919 41
283.80865 24
283.87961 32
283.97687 72
284.04352 55
284.08279 27
284.11023 27
284.28992 103
284.30319 39
285.10428 24
285.13745 21
285.68213 27
285.83118 57
286.0914 119
286.16653 23
286.20792 23
287.08185 30
287.20151 27
287.27155 25
287.50101 143
287.6521 30
288.01389 22
288.12698 41
288.2876 35
288.68826 23
289.01257 46
289.03705 27
289.14627 54
289.15552 41
289.18005 28
289.20764 55
289.22556 22
289.24451 42
289.29492 50
290.09805 24
290.11038 38
290.18533 96
290.28598 38
291.07822 21
291.10126 37
291.12073 26
291.1958 187
291.21881 65
291.23685 65
292.16052 21
292.34879 30
293.20502 41
293.22522 27
293.2467 159
293.59921 34
293.72617 33
294.06192 37
294.1857 34
294.29507 34
295.08142 42
295.10751 263
295.12885 98
295.36398 47
295.68311 72
296.10226 98
296.11993 55
296.15851 28
296.19839 27
296.23553 28
297.04877 27
297.08212 27
297.09323 50
297.1337 49
297.25839 39
298.10419 21
298.19995 57
298.25873 41
299.19974 35
299.21109 87
299.29089 33
299.32303 46
299.35239 22
299.73233 30
299.76651 96
300.07379 39
301.07281 26
301.13687 25
301.20505 28
303.04489 33
303.09393 30
303.1048 57
303.3562 58
304.25586 26
304.30231 28
304.84543 30
305.17636 40
305.2037 21
305.22278 57
305.23856 25
305.26306 94
306.16968 34
306.73361 27
306.94571 28
307.19882 47
307.21414 34
307.27737 69
307.30487 21
308.22235 26
308.25668 32
308.97827 36
309.02203 25
309.11633 45
309.12698 22
309.20724 27
309.28223 23
309.32846 48
310.11737 29
310.15979 22
310.30237 48
310.31467 59
311.08704 64
311.10547 74
311.12479 32
311.20166 29
311.28418 25
312.08911 25
312.09998 25
312.13495 43
312.17728 27
312.21167 22
312.26346 33
312.31995 30
312.85706 97
313.09702 28
313.25327 34
313.27652 28
313.3414 41
314.09821 63
314.45724 30
314.70691 45
314.79056 37
315.18369 43
315.21658 23
315.5499 21
316.17807 67
316.20581 99
316.25214 35
317.10721 33
317.14865 22
317.21356 28
317.25586 37
317.34369 88
318.91229 23
319.0882 30
319.21603 52
319.27118 45
320.14246 24
320.35742 58
321.14325 23
321.22565 114
321.26566 27
321.32404 82
322.12546 52
322.30222 30
322.31943 24
323.06873 29
323.18298 23
323.20166 25
323.24493 33
323.25525 54
323.27515 41
323.31845 55
323.94684 40
324.10172 28
324.19034 133
324.27643 36
325.03381 28
325.10922 26
325.12186 50
325.24088 52
325.98703 98
326.11423 29
326.37546 22
326.69781 24
326.95361 32
326.96719 22
327.07401 22
327.15295 22
327.2775 36
327.33896 133
327.35696 35
327.97321 41
328.073 28
328.1445 27
328.28464 34
328.44849 62
329.19577 30
329.24347 41
329.30142 83
329.68027 25
329.78482 23
330.12564 21
330.21271 27
330.50528 52
331.13034 27
331.20801 53
331.24243 21
331.26834 24
331.32031 23
331.34561 27
332.2955 26
333.10031 27
333.11578 23
333.21552 21
333.24341 109
333.26089 28
333.34006 37
334.13904 24
334.18951 31
335.13205 23
335.16272 36
335.17935 52
335.20453 199
335.22861 41
335.26035 33
335.29733 155
335.34393 29
336.20071 85
336.23087 22
336.44827 27
337.13422 53
337.17722 27
337.19363 21
337.27588 32
338.2262 110
338.36197 39
339.15152 24
339.28598 52
339.31754 38
339.34042 21
340.17029 46
340.25894 25
340.3605 51
340.36893 21
341.01599 476
341.32703 42
342.01328 68
342.15573 26
342.24878 24
342.35156 58
343.0145 66
343.18912 70
343.93176 21
344.01639 42
345.02081 54
345.03461 25
345.13452 41
345.20615 21
345.29117 33
345.35226 40
346.21765 55
346.26404 63
347.16409 93
347.22211 31
347.2919 30
347.30286 27
347.32565 32
347.96439 38
348.13275 26
349.26828 119
350.23874 60
350.28424 22
350.32944 23
350.35886 46
351.13831 39
351.17017 40
351.19199 24
352.09912 25
352.26129 32
352.54053 23
352.63678 33
352.82819 51
353.27283 41
353.31509 60
353.35812 30
354.37558 95
355.069 2063
355.09677 63
355.20688 21
356.05109 114
356.07394 943
356.87573 71
357.07086 199
357.18054 21
357.24481 27
357.26923 58
357.30768 84
358.05081 77
358.07346 122
358.09677 36
358.13629 24
358.53696 46
359.15732 23
359.20724 23
359.79623 57
360.23795 21
360.30011 21
360.89526 73
361.03949 74
361.31049 27
361.47418 205
362.39908 30
362.68625 33
362.91595 49
363.01614 24
363.20215 53
363.22522 50
363.28113 93
363.88318 25
364.16415 24
365.11432 21
365.17245 105
365.2179 159
366.21262 35
367.25259 27
367.67035 31
368.16385 36
368.42688 48
368.49649 45
369.09818 21
369.12808 142
369.16257 26
369.24054 117
369.33008 24
370.12488 28
370.30261 27
371.07126 54
371.10159 397
371.14752 39
371.17682 79
371.28275 108
371.81219 29
372.08817 130
372.10971 162
372.1633 39
372.18054 57
373.09995 251
373.17615 48
373.21732 59
373.24503 38
373.27435 48
373.29614 39
373.3187 51
374.87686 22
375.09549 21
375.11523 21
375.18906 40
375.24893 22
375.26895 37
375.29318 50
375.32285 402
375.34555 86
Name: "10,12-pentacosadiynoic acid"
PrecursorMZ: 392.3528
PrecursorType: [M+NH4]+
IonMode: Positive
Formula: C25H42O2
SMILES: CCCCCCCCCCCCC#CC#CCCCCCCCCC(=O)O
InChI: 
InChIKey: ZPUDRBWHCWYMQS-UHFFFAOYSA-N
RetentionTime: 9.171083
CCS: 
CollisionEnergy: 20-40 eV
InstrumentType: UPLC-QTOF-MS
Comment: PI: Cristina Nerin; Data collector: QiZhi Su, GUIA, University of Zaragoza, Spain; Collision energy: 20-40 V; Instrument: Waters HPLC-QTOF-MS (Xevo G2 QTof); Ionization: ESI; Deconvoluted by MS-DIAL; Column: Waters AtlantisTM premier BEH C18 AX column (2.1 × 100mm x 1.7μm); Flow rate: 0.3mL/min; Mobile phase A and B are water and methnaol, respectively, both with 0.1% formic acid; Gradient elution: from A/B (95/5) to A/B (100/0) in 7min, kept for 4 min, then back to A/B (95/5) in 0.1 min, and maintained for additional 1.9 min (13min in total).; Injection volume: 10 μL
Num peaks: 1166
49.92416 30
50.04457 34
50.13259 31
50.2304 46
50.24692 30
50.39149 50
50.61651 146
51.20808 64
51.28629 32
51.86503 40
51.90551 50
52.03199 29
52.40631 32
52.73984 98
53.8442 45
54.03973 81
54.52816 27
55.01665 46
55.05466 304
56.33746 50
57.03701 34
57.07123 162
57.09269 69
57.7364 58
58.78032 31
58.80424 40
58.83845 27
58.9455 33
59.04724 220
59.28343 39
59.4273 28
59.54825 100
59.65335 32
59.73602 74
59.79553 33
60.08212 687
61.0815 40
61.40703 29
61.63263 443
61.74694 60
62.06138 34
62.89061 63
63.42485 37
63.76105 52
63.91915 68
64.19244 123
65.75441 43
66.02561 73
66.04553 35
66.45492 59
66.82104 36
66.92533 27
67.05564 879
67.17687 38
69.07103 705
69.71438 60
69.98159 48
70.06731 40
70.07381 61
70.41416 36
71.04811 152
71.05297 66
71.07908 43
71.0864 350
71.44446 36
72.73881 28
73.02468 41
73.02928 27
73.04488 261
73.08915 31
74.09834 52
74.25365 61
74.30724 72
74.63957 49
74.70478 28
74.86798 68
74.97717 34
75.0472 73
75.10525 36
75.14079 32
75.21072 51
75.26176 40
75.42873 93
75.53606 30
75.6519 27
75.82763 29
76.03774 54
76.13618 35
76.6464 40
77.03674 56
77.82629 53
78.04539 31
78.57094 28
79.01781 32
79.02365 163
79.05204 209
79.05598 676
79.06096 175
79.33439 45
79.57494 30
80.05017 30
80.56804 51
80.72894 29
80.84659 29
81.07041 1412
81.0802 85
81.41639 33
81.65166 53
82.07617 63
82.98146 57
83.04632 98
83.05051 217
83.08266 165
83.08715 620
83.11295 84
84.0536 57
84.09418 70
84.42072 30
84.95839 57
84.96307 148
85.06386 106
85.07092 79
85.1013 266
86.10149 111
87.04 64
87.04666 54
87.09991 59
87.78008 74
87.83542 46
88.07812 41
88.73836 61
88.96679 57
89.04119 40
89.05664 118
89.06078 284
89.06923 103
89.07248 49
89.28165 91
90.05215 28
90.05786 88
90.86037 30
91.05547 515
91.88583 71
92.04879 71
92.23636 36
93.00217 28
93.03387 83
93.06753 435
93.0722 632
93.2878 60
93.4855 33
93.69499 32
94.072 74
94.07729 30
94.66115 28
95.05168 158
95.08617 1315
95.09885 80
95.40935 90
96.04866 29
96.09072 67
96.93518 68
97.06376 166
97.06912 313
97.10013 356
97.10739 153
97.83083 60
97.94543 68
97.96478 30
98.10529 216
98.94421 35
98.96186 86
98.97042 33
98.97863 51
98.98642 125
99.04513 129
99.05151 40
99.07381 75
99.08017 162
99.11833 73
99.96843 78
100.11379 27
100.74549 143
101.05629 49
101.06294 51
101.09619 45
101.11762 49
101.92467 38
102.0657 68
102.09251 79
102.13009 44
103.00568 105
103.0397 143
103.96578 33
104.00973 27
104.07811 53
104.1023 37
104.15881 35
104.32225 29
104.92643 34
105.07061 721
105.15077 66
105.22509 45
105.94172 38
105.97153 39
106.05148 43
106.07513 75
107.01275 40
107.04332 60
107.05321 63
107.08583 800
107.09228 186
107.33987 57
107.77409 67
107.95614 40
108.08379 76
108.17947 32
109.03014 53
109.06477 289
109.08195 36
109.09322 120
109.10362 834
109.56418 41
110.1058 95
110.63065 42
110.91556 27
111.03658 27
111.04491 225
111.08661 233
111.11704 304
111.7235 27
111.87954 34
112.07211 27
112.11605 35
112.12393 97
112.31738 33
112.93779 37
113.05832 132
113.09612 64
113.14293 60
114.05558 93
114.09619 52
114.37991 44
115.03788 65
115.04587 63
115.05412 49
115.07405 249
115.08271 97
115.49924 159
115.99135 30
116.04016 27
116.0738 27
116.85357 28
117.05137 27
117.06438 123
117.0731 153
117.0887 328
117.09608 257
117.11185 39
118.06377 43
118.08851 36
118.09553 33
118.79166 30
119.07513 49
119.08727 252
119.10266 32
119.99207 28
120.04266 28
120.06784 36
120.083 34
120.10633 62
120.8678 33
121.02881 77
121.05801 84
121.10142 1461
121.2213 29
122.05029 72
122.1081 82
122.72458 27
122.99319 51
123.0815 207
123.11575 344
123.1255 33
123.74314 39
124.04716 115
124.07129 43
124.12433 51
124.96865 27
125.06234 63
125.08846 28
125.09742 174
125.1301 33
125.14672 42
125.71597 83
126.0926 54
126.10243 50
126.64895 35
127.07625 78
127.10464 110
127.95956 58
127.96606 77
127.98403 48
128.95589 28
129.05571 72
129.07603 51
129.0948 65
129.97377 34
130.05818 78
130.07416 52
130.10309 27
130.15558 34
131.03053 35
131.07001 79
131.08896 161
131.09506 165
132.66669 33
133.00807 33
133.02464 38
133.06654 42
133.08659 352
133.1006 481
133.14528 38
134.94281 70
134.95752 108
134.98624 55
135.01555 63
135.08029 87
135.11302 184
135.12042 645
135.25862 27
136.0273 51
136.0766 76
136.1161 43
136.12306 39
137.05339 38
137.06139 117
137.09705 125
137.10852 45
137.12524 34
137.13312 124
137.14009 154
137.35583 75
137.94524 33
138.03218 73
138.06143 30
139.03717 121
139.07733 180
139.10912 64
139.11824 153
139.15063 45
139.54741 40
140.07526 28
141.0417 55
141.0605 120
141.07611 28
141.10036 33
141.13091 46
141.93547 46
142.70319 42
142.99603 36
143.08966 55
143.11095 47
143.12346 42
143.19714 86
143.22818 36
143.4608 27
144.07401 43
144.12936 36
145.05693 60
145.09909 294
146.45422 44
147.06657 364
147.07336 104
147.08347 43
147.08949 57
147.11119 104
147.12279 146
147.30292 29
148.05853 66
148.06668 29
148.11269 30
148.12024 33
149.01939 217
149.02457 584
149.04042 46
149.05527 73
149.10011 218
149.13295 141
149.14293 48
149.52586 52
149.82069 41
150.02673 86
150.08655 33
150.11145 30
150.127 72
150.13548 97
151.03514 35
151.07857 49
151.1143 225
151.14888 31
151.98381 54
152.10114 47
152.30844 34
153.04829 56
153.09001 50
153.09872 84
153.12305 27
153.87469 38
154.40184 64
154.50623 37
155.01376 31
155.04214 55
155.08571 29
155.14961 67
156.0993 94
157.08157 46
157.09738 32
157.10767 34
157.12566 291
157.87048 27
157.98787 50
157.99738 34
158.03983 46
158.64433 92
158.97493 28
159.11327 98
159.11989 75
159.13057 68
160.03929 103
160.05241 40
161.08324 156
161.09576 53
161.13516 127
161.1913 28
162.0246 62
162.05324 38
162.13278 45
162.355 55
162.98303 45
163.01242 82
163.06627 129
163.11214 167
163.13956 37
163.1479 42
163.15732 33
164.06364 27
164.09259 36
164.87381 39
165.02292 30
165.03572 30
165.06348 45
165.08728 70
165.12367 291
165.1362 78
165.15923 89
165.17361 53
165.98213 30
166.05144 32
166.08392 30
166.09633 27
166.10426 28
166.12767 86
166.61092 59
167.03935 36
167.06744 96
167.09065 42
169.09023 40
169.12569 34
169.99393 27
170.10611 78
171.00128 78
171.07768 37
171.11792 119
171.14546 88
172.11026 31
172.87077 33
172.99495 43
173.00992 27
173.08345 46
173.13371 221
175.01183 48
175.0363 150
175.07562 32
175.10341 145
175.13359 485
175.14795 202
175.29855 53
176.024 42
176.03784 62
176.14108 28
176.29791 50
177.02113 40
177.06117 66
177.08812 45
177.10739 34
177.11444 34
177.13223 37
177.1627 163
177.30553 42
178.00803 38
178.10991 37
179.11368 51
180.07291 60
180.12035 55
181.0526 69
181.12769 233
181.13953 55
181.37677 46
182.80263 56
183.05727 41
183.1084 83
183.11708 61
183.1317 41
183.16849 40
183.1817 45
184.13406 54
184.52133 43
185.00406 30
185.1167 58
185.13138 31
186.00729 34
186.13109 39
186.16579 33
186.99992 34
187.12341 40
188.12221 46
189.01292 48
189.03653 34
189.12299 130
189.13535 57
189.16264 107
189.96786 31
190.0331 49
191.04309 75
191.10017 78
191.11331 30
191.12457 71
191.13531 43
191.14432 34
191.18137 71
192.01016 27
192.14043 67
192.15268 84
193.04915 27
193.11755 163
193.1559 88
193.18794 77
194.02982 30
194.88803 53
195.00304 43
195.05194 36
195.09972 56
195.12297 70
195.14104 27
195.15158 49
195.18501 28
196.08524 29
196.88066 41
197.03465 36
197.06473 34
197.11656 46
197.15298 34
198.0936 35
198.19809 37
199.03378 66
199.12923 36
199.14912 120
199.18112 153
199.75105 28
199.97052 65
200.1944 28
200.54581 57
201.03326 49
201.04964 42
201.13002 41
201.17197 162
203.10718 101
203.15051 27
203.17004 30
203.17828 61
204.04518 30
204.06689 115
204.08054 27
204.0988 59
204.27158 31
204.58493 31
205.03618 27
205.15752 41
205.19945 68
206.03406 29
206.16066 31
206.38446 30
207.02174 69
207.03989 92
207.06419 128
207.13463 61
207.14435 39
207.1702 43
207.21925 36
208.03954 55
208.45467 30
209.03264 29
209.04984 55
209.0811 34
209.09232 32
209.11655 57
209.15172 43
209.18462 48
209.19463 71
209.97318 33
211.12607 31
211.20474 306
211.21083 190
212.06839 37
212.21368 32
212.24721 49
213.01176 64
213.03833 33
213.07188 59
213.16061 50
213.17313 34
213.18449 62
214.1476 28
214.90858 33
215.03911 47
215.05205 37
215.10295 36
215.16557 30
215.18436 73
216.17525 32
217.06917 52
217.12589 27
217.18414 65
218.06665 126
218.08287 31
219.04541 62
219.07755 57
219.09755 49
219.11096 139
219.12653 143
219.14761 32
219.20216 46
219.21736 70
220.1113 100
220.14159 29
220.21053 31
220.22382 69
221.0699 33
221.09059 1030
221.11867 102
221.14819 70
221.15912 36
221.18073 27
222.07956 94
222.08762 123
222.11758 33
222.15842 75
223.00594 57
223.05586 31
223.06821 138
223.13893 80
223.15892 56
223.17888 124
223.20097 64
223.21211 31
224.07204 53
224.08481 33
224.10811 46
224.16943 34
224.17752 27
225.11603 27
225.2222 87
226.20392 86
226.99007 37
227.03212 131
227.13564 83
227.18671 110
227.21002 116
227.96167 28
228.09277 27
228.12958 48
228.21831 28
228.78409 27
229.0999 41
229.16621 29
230.05576 47
230.08636 29
230.1116 35
230.98236 27
231.05405 93
231.16425 75
232.07916 67
232.84181 40
233.01793 56
233.06299 37
233.08586 51
233.12755 136
233.14888 76
233.16805 89
233.18352 226
233.22105 39
233.22958 63
234.20119 61
234.21837 28
235.08549 34
235.09949 42
235.12381 49
235.20609 49
236.0291 36
236.06566 56
236.0732 37
236.15047 28
237.07884 1524
237.08981 413
237.18536 33
237.22786 38
237.36023 51
237.64471 65
237.77695 90
238.08894 266
238.12764 41
238.23022 31
239.06165 163
239.08128 187
239.09923 45
239.17142 82
239.22859 30
239.39871 29
240.20303 27
241.06038 31
241.07884 43
241.09656 29
241.15723 78
241.40688 28
242.16293 45
242.22685 31
243.23338 28
244.16556 37
244.17873 43
244.2267 35
245.11063 42
245.16325 37
245.21796 29
246.06174 81
246.39909 47
247.12794 56
247.16347 53
247.20374 30
247.23158 54
248.14334 38
248.21207 27
249.01985 35
249.04141 27
249.07477 27
249.17506 64
249.18813 205
249.20247 30
249.21771 48
249.94722 92
250.15239 28
250.16466 39
251.0974 204
251.17064 27
251.20117 103
251.237 50
252.09126 50
252.23695 43
253.06593 28
253.09161 46
253.14511 56
253.23518 56
253.25011 50
253.26497 52
254.05133 31
254.20552 55
254.25388 33
255.17534 66
255.19951 33
256.27069 50
256.82132 37
258.11362 29
259.10034 52
259.15753 137
259.23874 68
259.25055 27
259.9079 47
261.14044 36
261.18317 36
261.22549 50
262.1886 33
262.23218 30
262.77753 30
263.09955 48
263.12659 44
263.16202 90
263.2186 71
263.23627 28
264.12234 42
265.07074 42
265.1304 32
265.14386 41
265.15347 46
265.17267 87
265.18881 28
265.21405 41
265.23727 40
265.25079 42
265.26685 57
266.09644 32
266.98868 84
266.99683 55
267.07077 52
267.09457 42
267.10782 30
268.26602 36
268.72641 31
269.22507 33
269.2767 63
271.18182 42
272.27042 32
273.07889 51
273.15927 35
273.17236 100
273.21445 30
273.96692 34
274.97003 30
275.1958 54
276.05948 31
276.42673 33
277.11023 47
277.17368 194
277.18228 57
277.21155 29
277.24951 45
277.26294 64
278.09781 89
278.20267 27
278.22095 47
279.00833 30
279.04367 41
279.12018 33
279.15918 41
279.20383 30
279.2269 27
279.2392 35
281.04974 1374
281.11957 27
281.13199 63
281.21274 42
281.23376 52
281.27118 34
281.29767 104
282.04489 129
282.06595 248
282.14816 32
282.26541 76
283.03409 95
283.0491 246
283.06714 102
283.2547 64
283.27365 118
283.5097 28
283.70242 38
283.72919 41
283.87961 32
283.97687 72
284.04352 55
284.08279 27
284.11023 27
284.28992 103
284.30319 39
285.68213 27
285.83118 57
286.0914 119
287.08185 30
287.20151 27
287.50101 143
287.6521 30
288.12698 41
288.2876 35
289.01257 46
289.03705 27
289.14627 54
289.15552 41
289.18005 28
289.20764 55
289.24451 42
289.29492 50
290.11038 38
290.18533 96
290.28598 38
291.10126 37
291.1958 187
291.21881 65
291.23685 65
292.34879 30
293.20502 41
293.22522 27
293.2467 159
293.59921 34
293.72617 33
294.06192 37
294.1857 34
294.29507 34
295.08142 42
295.10751 263
295.12885 98
295.36398 47
295.68311 72
296.10226 98
296.11993 55
296.15851 28
296.19839 27
296.23553 28
297.04877 27
297.08212 27
297.09323 50
297.1337 49
297.25839 39
298.19995 57
298.25873 41
299.19974 35
299.21109 87
299.29089 33
299.32303 46
299.73233 30
299.76651 96
300.07379 39
301.20505 28
303.04489 33
303.09393 30
303.1048 57
303.3562 58
304.30231 28
304.84543 30
305.17636 40
305.22278 57
305.26306 94
306.16968 34
306.73361 27
306.94571 28
307.19882 47
307.21414 34
307.27737 69
308.25668 32
308.97827 36
309.11633 45
309.20724 27
309.32846 48
310.11737 29
310.30237 48
310.31467 59
311.08704 64
311.10547 74
311.12479 32
311.20166 29
312.13495 43
312.17728 27
312.26346 33
312.31995 30
312.85706 97
313.09702 28
313.25327 34
313.27652 28
313.3414 41
314.09821 63
314.45724 30
314.70691 45
314.79056 37
315.18369 43
316.17807 67
316.20581 99
316.25214 35
317.10721 33
317.21356 28
317.25586 37
317.34369 88
319.0882 30
319.21603 52
319.27118 45
320.35742 58
321.22565 114
321.26566 27
321.32404 82
322.12546 52
322.30222 30
323.06873 29
323.24493 33
323.25525 54
323.27515 41
323.31845 55
323.94684 40
324.10172 28
324.19034 133
324.27643 36
325.03381 28
325.12186 50
325.24088 52
325.98703 98
326.11423 29
326.95361 32
327.2775 36
327.33896 133
327.35696 35
327.97321 41
328.073 28
328.1445 27
328.28464 34
328.44849 62
329.19577 30
329.24347 41
329.30142 83
330.21271 27
330.50528 52
331.13034 27
331.20801 53
331.34561 27
333.10031 27
333.24341 109
333.26089 28
333.34006 37
334.18951 31
335.16272 36
335.17935 52
335.20453 199
335.22861 41
335.26035 33
335.29733 155
335.34393 29
336.20071 85
336.44827 27
337.13422 53
337.17722 27
337.27588 32
338.2262 110
338.36197 39
339.28598 52
339.31754 38
340.17029 46
340.3605 51
341.01599 476
341.32703 42
342.01328 68
342.35156 58
343.0145 66
343.18912 70
344.01639 42
345.02081 54
345.13452 41
345.29117 33
345.35226 40
346.21765 55
346.26404 63
347.16409 93
347.22211 31
347.2919 30
347.30286 27
347.32565 32
347.96439 38
349.26828 119
350.23874 60
350.35886 46
351.13831 39
351.17017 40
352.26129 32
352.63678 33
352.82819 51
353.27283 41
353.31509 60
353.35812 30
354.37558 95
355.069 2063
355.09677 63
356.05109 114
356.07394 943
356.87573 71
357.07086 199
357.24481 27
357.26923 58
357.30768 84
358.05081 77
358.07346 122
358.09677 36
358.53696 46
359.79623 57
360.89526 73
361.03949 74
361.31049 27
361.47418 205
362.39908 30
362.68625 33
362.91595 49
363.20215 53
363.22522 50
363.28113 93
365.17245 105
365.2179 159
366.21262 35
367.25259 27
367.67035 31
368.16385 36
368.42688 48
368.49649 45
369.12808 142
369.24054 117
370.12488 28
370.30261 27
371.07126 54
371.10159 397
371.14752 39
371.17682 79
371.28275 108
371.81219 29
372.08817 130
372.10971 162
372.1633 39
372.18054 57
373.09995 251
373.17615 48
373.21732 59
373.24503 38
373.27435 48
373.29614 39
373.3187 51
375.18906 40
375.26895 37
375.29318 50
375.32285 402
375.34555 86
375.90048 27
376.03503 37
376.33524 180
377.00208 44
377.20151 68
377.21674 72
377.24289 91
377.30313 60
378.35464 83
378.39035 30
379.14725 30
379.2467 54
379.31619 39
380.30249 49
380.38446 37
381.14508 33
381.17084 29
381.20468 31
381.24463 40
382.23837 32
383.16055 33
383.31866 46
384.97168 39
385.11417 32
385.19342 33
385.29889 52
385.35815 28
385.37683 47
387.13516 36
388.25717 55
388.78732 49
390.28574 27
391.15842 27
391.29245 90
391.3385 44
392.35184 2608
392.38016 169
Name: "10,12-pentacosadiynoic acid"
PrecursorMZ: 749.6426
PrecursorType: [2M+H]+
IonMode: Positive
Formula: C25H42O2
SMILES: CCCCCCCCCCCCC#CC#CCCCCCCCCC(=O)O
InChI: 
InChIKey: ZPUDRBWHCWYMQS-UHFFFAOYSA-N
RetentionTime: 9.171083
CCS: 
CollisionEnergy: 20-40 eV
InstrumentType: UPLC-QTOF-MS
Comment: PI: Cristina Nerin; Data collector: QiZhi Su, GUIA, University of Zaragoza, Spain; Collision energy: 20-40 V; Instrument: Waters HPLC-QTOF-MS (Xevo G2 QTof); Ionization: ESI; Deconvoluted by MS-DIAL; Column: Waters AtlantisTM premier BEH C18 AX column (2.1 × 100mm x 1.7μm); Flow rate: 0.3mL/min; Mobile phase A and B are water and methnaol, respectively, both with 0.1% formic acid; Gradient elution: from A/B (95/5) to A/B (100/0) in 7min, kept for 4 min, then back to A/B (95/5) in 0.1 min, and maintained for additional 1.9 min (13min in total).; Injection volume: 10 μL
Num peaks: 119
60.08212 382
67.05564 384
73.04488 97
73.06087 120
79.05204 362
79.05598 361
79.06096 349
81.07041 638
81.0802 638
93.0521 703
93.06753 570
93.0722 577
95.08617 396
95.09885 396
96.09072 96
97.10013 97
97.10739 91
98.97863 90
105.07061 168
107.07011 292
107.08583 423
107.09228 420
109.06477 93
109.08195 268
109.09322 260
109.10362 246
115.07405 88
117.06438 110
119.07513 331
119.08727 321
119.10266 376
121.10142 861
122.0898 102
122.10117 140
122.1081 143
123.11575 239
123.1255 244
131.07001 97
131.08896 158
131.09506 119
133.1006 152
135.08029 87
135.11302 282
135.12042 264
147.07336 120
147.08347 122
147.11119 114
147.12279 107
149.00246 122
149.0798 94
165.12367 172
165.1362 173
211.20474 209
211.21083 207
221.18073 131
222.07956 161
222.08762 168
223.06821 110
237.07884 140
249.17506 115
249.18813 132
249.20247 115
266.98868 99
266.99683 91
281.04974 303
282.04489 134
282.06595 111
283.0491 101
283.06714 91
295.08142 91
295.10751 161
341.01599 205
355.069 597
355.09677 226
356.07394 194
357.07086 144
371.10159 307
372.10971 139
375.32285 432
375.34555 163
376.31464 125
376.33524 138
392.35184 2076
392.38016 234
393.35132 593
393.36713 588
393.38278 240
397.30554 8306
398.30319 2192
398.32047 1540
399.2937 219
399.3121 489
399.33023 258
407.33459 156
407.35785 190
413.27451 422
414.28024 284
414.29794 157
427.24493 214
428.23856 122
428.25598 225
428.27316 112
429.24536 2324
430.08905 130
430.11023 173
430.24792 564
431.08087 145
431.10608 154
431.23358 287
431.25583 384
431.27509 95
445.12402 103
503.10831 91
503.13663 123
504.13263 172
529.4408 315
529.46149 316
563.23132 101
749.64874 1977
Name: "10,12-pentacosadiynoic acid"
PrecursorMZ: 413.2807
PrecursorType: [M+K]+
IonMode: Positive
Formula: C25H42O2
SMILES: CCCCCCCCCCCCC#CC#CCCCCCCCCC(=O)O
InChI: 
InChIKey: ZPUDRBWHCWYMQS-UHFFFAOYSA-N
RetentionTime: 9.1749
CCS: 
CollisionEnergy: 20-40 eV
InstrumentType: UPLC-QTOF-MS
Comment: PI: Cristina Nerin; Data collector: QiZhi Su, GUIA, University of Zaragoza, Spain; Collision energy: 20-40 V; Instrument: Waters HPLC-QTOF-MS (Xevo G2 QTof); Ionization: ESI; Deconvoluted by MS-DIAL; Column: Waters AtlantisTM premier BEH C18 AX column (2.1 × 100mm x 1.7μm); Flow rate: 0.3mL/min; Mobile phase A and B are water and methnaol, respectively, both with 0.1% formic acid; Gradient elution: from A/B (95/5) to A/B (100/0) in 7min, kept for 4 min, then back to A/B (95/5) in 0.1 min, and maintained for additional 1.9 min (13min in total).; Injection volume: 10 μL
Num peaks: 308
54.61204 166
55.05687 257
55.57606 88
57.03386 167
57.06904 106
57.07281 89
59.04949 332
60.07934 302
60.0859 92
61.08183 85
61.36563 283
66.00818 82
67.05508 1084
69.07111 533
71.08469 318
71.09076 109
72.08315 117
72.08797 79
73.04861 147
74.09344 135
74.09914 125
74.60232 98
74.85303 79
75.20272 125
75.38178 78
75.88712 122
76.93177 83
77.04102 260
77.05426 114
79.02542 137
79.05572 693
79.06863 98
81.07206 2167
82.02484 170
83.05212 188
83.08687 877
85.02859 116
85.06127 104
85.06641 245
85.10175 437
85.23314 214
87.04507 341
89.05921 274
90.0527 154
91.05288 398
91.06181 148
92.99966 83
93.06473 356
93.07174 1371
93.67072 122
95.08688 2046
96.93546 94
97.06483 205
97.10091 900
97.11196 212
97.96906 134
98.98209 129
98.99245 237
99.08267 172
101.96536 99
103.03584 181
103.04286 218
105.06706 309
105.0722 289
107.04848 182
107.08577 1024
108.08286 89
109.06347 81
109.10145 1111
110.11011 88
111.04125 102
111.08466 518
111.11717 304
111.12698 101
112.12136 88
113.20145 92
115.07607 339
115.08459 145
116.05589 111
117.06828 145
117.08255 78
117.09436 489
118.08504 88
119.08596 1085
120.08976 128
121.05999 104
121.10385 1619
122.10452 246
123.08501 148
123.11807 642
124.12073 128
125.09895 99
125.12873 78
125.13858 99
127.12005 84
129.07832 94
131.08476 219
133.08716 420
133.11293 145
134.95216 128
135.08037 237
135.11664 949
135.12555 337
137.08907 94
137.09924 184
137.13538 228
138.99808 178
139.03816 140
139.0766 84
139.11423 202
141.13382 99
143.06996 130
145.10356 394
147.06155 124
147.06949 202
147.08553 120
147.11687 533
148.06371 103
148.09645 83
149.02219 375
149.03262 82
149.09729 217
149.13205 153
150.02658 129
150.13396 88
151.07784 106
151.14996 105
153.06119 80
153.12793 271
157.08447 100
157.10286 362
157.12305 248
159.11377 166
159.12996 80
159.15021 88
160.11833 91
161.00391 96
161.13548 318
163.06187 151
163.07613 87
163.14665 108
164.15552 82
164.87807 151
165.12607 257
171.11446 203
171.14543 280
175.06317 102
175.10762 105
175.12457 154
175.13303 134
175.14813 96
177.11906 277
177.15178 150
179.14226 112
179.18312 81
181.07721 116
181.08339 213
183.1035 115
184.067 122
184.63719 84
189.09497 94
189.12784 168
189.16663 200
190.03328 93
191.03934 122
191.17372 95
191.18689 214
193.1198 167
193.20058 98
194.03024 83
195.07425 158
197.11722 115
197.12781 79
199.15349 87
201.04497 93
201.12204 114
202.11591 135
203.13939 112
203.15343 120
205.06966 116
205.1586 142
205.19618 103
206.14215 134
207.10066 110
211.20618 240
213.15161 143
216.05153 125
216.13643 110
217.05424 109
219.13037 328
219.15154 91
219.17577 118
221.07808 278
221.09041 516
221.16226 246
222.07672 204
222.09055 146
223.03661 102
223.06825 275
223.08928 147
223.13159 86
224.18205 202
224.94124 86
225.04597 101
227.18568 131
233.17513 198
233.18599 292
234.17815 109
234.94856 125
235.16324 90
237.08125 1717
237.13936 84
237.15266 94
237.22731 79
238.08319 325
239.08315 186
240.24843 78
243.20502 81
249.05029 154
249.1882 119
250.09927 128
251.11108 91
261.2533 89
263.19952 84
266.99478 93
269.00211 103
271.18372 125
271.23187 163
273.20346 95
276.09103 101
276.19907 228
279.18716 86
281.05182 795
281.06259 635
282.04025 123
282.05484 344
282.2807 146
283.05096 254
289.16003 141
291.07681 90
293.2468 122
293.28519 100
294.26965 80
295.10455 229
295.11584 164
299.13843 86
305.24289 93
307.21082 90
310.31448 206
311.07962 84
311.19312 91
312.10547 101
313.2515 116
318.09723 89
319.27618 102
326.13315 89
326.37323 189
326.96359 79
331.23462 140
335.22098 118
335.26144 99
341.01089 106
341.02258 293
343.29367 108
349.22549 98
349.25845 101
351.29172 100
355.073 2002
356.06213 363
357.06113 86
357.07816 250
357.30667 138
363.29456 79
363.33551 125
367.16333 132
368.41064 86
370.12961 111
371.0925 622
372.09097 189
372.10742 144
373.09534 152
375.29767 97
375.31659 277
375.33682 491
376.32416 145
376.34824 108
379.20374 140
383.26346 78
385.11786 141
385.3009 87
392.35248 1869
393.30133 125
393.3533 524
393.37091 273
397.30627 7742
398.28931 357
398.3103 1346
398.32458 638
399.29865 539
399.32465 139
401.186 139
403.36157 79
407.29272 96
407.33646 172
407.36047 163
411.12598 94
413.25427 291
413.27411 1415
Name: "10,12-pentacosadiynoic acid"
PrecursorMZ: 771.6254
PrecursorType: [2M+Na]+
IonMode: Positive
Formula: C25H42O2
SMILES: CCCCCCCCCCCCC#CC#CCCCCCCCCC(=O)O
InChI: 
InChIKey: ZPUDRBWHCWYMQS-UHFFFAOYSA-N
RetentionTime: 9.190117
CCS: 
CollisionEnergy: 20-40 eV
InstrumentType: UPLC-QTOF-MS
Comment: PI: Cristina Nerin; Data collector: QiZhi Su, GUIA, University of Zaragoza, Spain; Collision energy: 20-40 V; Instrument: Waters HPLC-QTOF-MS (Xevo G2 QTof); Ionization: ESI; Deconvoluted by MS-DIAL; Column: Waters AtlantisTM premier BEH C18 AX column (2.1 × 100mm x 1.7μm); Flow rate: 0.3mL/min; Mobile phase A and B are water and methnaol, respectively, both with 0.1% formic acid; Gradient elution: from A/B (95/5) to A/B (100/0) in 7min, kept for 4 min, then back to A/B (95/5) in 0.1 min, and maintained for additional 1.9 min (13min in total).; Injection volume: 10 μL
Num peaks: 125
55.8 220
55.81213 222
60.08332 621
60.09209 621
67.05619 254
73.03101 98
73.04915 130
73.05366 165
73.06605 79
81.06956 112
81.08147 116
85.06528 96
93.04078 77
93.06933 335
93.07552 303
95.08478 199
95.08942 197
103.02583 135
103.04055 99
104.04066 87
104.05219 76
105.07032 89
106.05798 78
107.03172 87
107.08054 194
107.08784 193
109.06175 79
109.06861 97
119.07426 251
119.08593 269
121.09832 384
121.10538 369
121.11723 205
123.07885 126
123.0886 145
123.11987 111
124.1157 105
124.12371 105
124.13127 105
125.01755 75
131.06906 113
131.08018 103
131.08733 122
133.10219 123
135.06976 115
135.08347 136
135.11809 94
137.1377 92
147.07794 89
147.08589 117
149.05708 76
160.11536 84
163.07718 89
171.12077 74
175.11397 162
177.10892 75
185.12904 89
185.13699 93
221.06493 138
223.0762 113
223.09181 75
237.08218 213
238.0769 100
249.18938 103
249.21379 75
266.9935 109
281.05707 82
282.04269 142
282.05469 150
283.05566 108
283.06958 102
295.10162 79
341.01151 199
341.02982 77
349.26617 75
355.06543 695
355.08032 713
356.04315 214
356.06201 122
356.07538 190
357.06659 250
371.07797 157
371.10175 405
375.33878 121
392.34933 1831
393.34537 494
393.3627 588
397.30652 7319
398.29868 1318
398.3208 996
399.29953 293
399.32736 248
407.33176 126
407.35199 172
407.36636 144
414.27908 229
415.04968 97
415.27353 79
427.22842 89
427.25494 127
428.22775 75
428.25351 144
429.08734 379
429.24701 1955
430.09106 195
430.25128 495
431.23102 133
431.25092 175
445.10342 91
445.12085 158
445.1384 124
483.27661 80
503.09241 128
529.46527 349
750.61798 162
750.64014 225
750.66229 203
751.64313 139
766.64685 403
766.6712 1992
767.66034 856
767.69385 340
768.65332 106
768.68506 87
771.62457 3115
Name: Tiabendazole
PrecursorMZ: 202.0448
PrecursorType: [M+H]+
IonMode: Positive
Formula: C10H7N3S
SMILES: C1=CC=C2C(=C1)NC(=N2)C3=CSC=N3
InChI: 
InChIKey: WJCNZQLZVWNLKY-UHFFFAOYSA-N
RetentionTime: 1.050333
CCS: 
CollisionEnergy: 20-40 eV
InstrumentType: UPLC-QTOF-MS
Comment: PI: Cristina Nerin; Data collector: QiZhi Su, GUIA, University of Zaragoza, Spain; Collision energy: 20-40 V; Instrument: Waters HPLC-QTOF-MS (Xevo G2 QTof); Ionization: ESI; Deconvoluted by MS-DIAL; Column: Waters AtlantisTM premier BEH C18 AX column (2.1 × 100mm x 1.7μm); Flow rate: 0.3mL/min; Mobile phase A and B are water and methnaol, respectively, both with 0.1% formic acid; Gradient elution: from A/B (95/5) to A/B (100/0) in 7min, kept for 4 min, then back to A/B (95/5) in 0.1 min, and maintained for additional 1.9 min (13min in total).; Injection volume: 10 μL
Num peaks: 11
79.02201 4595
92.0504 13018
104.04983 4171
131.0607 73353
132.06383 6582
143.06172 6700
158.07147 4562
175.0332 157217
176.03629 17105
177.02878 6786
202.04449 187834
Name: Tiabendazole
PrecursorMZ: 202.0452
PrecursorType: [M+H]+
IonMode: Positive
Formula: C10H7N3S
SMILES: C1=CC=C2C(=C1)NC(=N2)C3=CSC=N3
InChI: 
InChIKey: WJCNZQLZVWNLKY-UHFFFAOYSA-N
RetentionTime: 2.54755
CCS: 
CollisionEnergy: 20-40 eV
InstrumentType: UPLC-QTOF-MS
Comment: PI: Cristina Nerin; Data collector: QiZhi Su, GUIA, University of Zaragoza, Spain; Collision energy: 20-40 V; Instrument: Waters HPLC-QTOF-MS (Xevo G2 QTof); Ionization: ESI; Deconvoluted by MS-DIAL; Column: Waters AtlantisTM premier BEH C18 AX column (2.1 × 100mm x 1.7μm); Flow rate: 0.3mL/min; Mobile phase A and B are water and methnaol, respectively, both with 0.1% formic acid; Gradient elution: from A/B (95/5) to A/B (100/0) in 7min, kept for 4 min, then back to A/B (95/5) in 0.1 min, and maintained for additional 1.9 min (13min in total).; Injection volume: 10 μL
Num peaks: 15
65.0397 2779
65.04886 2801
92.05083 8940
104.05112 3135
131.06126 52151
131.08031 52132
132.06429 3704
143.05585 5209
143.06265 5205
158.07172 2727
158.0793 2708
175.03384 113553
176.03624 12618
177.03061 5050
202.04494 186643
Name: Tiabendazole
PrecursorMZ: 224.0271
PrecursorType: [M+Na]+
IonMode: Positive
Formula: C10H7N3S
SMILES: C1=CC=C2C(=C1)NC(=N2)C3=CSC=N3
InChI: 
InChIKey: WJCNZQLZVWNLKY-UHFFFAOYSA-N
RetentionTime: 2.55945
CCS: 
CollisionEnergy: 20-40 eV
InstrumentType: UPLC-QTOF-MS
Comment: PI: Cristina Nerin; Data collector: QiZhi Su, GUIA, University of Zaragoza, Spain; Collision energy: 20-40 V; Instrument: Waters HPLC-QTOF-MS (Xevo G2 QTof); Ionization: ESI; Deconvoluted by MS-DIAL; Column: Waters AtlantisTM premier BEH C18 AX column (2.1 × 100mm x 1.7μm); Flow rate: 0.3mL/min; Mobile phase A and B are water and methnaol, respectively, both with 0.1% formic acid; Gradient elution: from A/B (95/5) to A/B (100/0) in 7min, kept for 4 min, then back to A/B (95/5) in 0.1 min, and maintained for additional 1.9 min (13min in total).; Injection volume: 10 μL
Num peaks: 15
65.0292 2774
65.03944 2779
92.05111 8940
104.05089 3135
131.06155 52151
132.06454 3704
143.06154 5205
158.07079 2717
158.08897 2640
175.03369 113553
176.03677 12591
177.0303 5050
202.04509 132564
203.04716 11449
204.04106 5782
Name: Silymarin
PrecursorMZ: 483.1299
PrecursorType: [M+H]+
IonMode: Positive
Formula: C25H22O10
SMILES: COC1=C(C=CC(=C1)C2C(OC3=C(O2)C=C(C=C3)C4C(C(=O)C5=C(C=C(C=C5O4)O)O)O)CO)O
InChI: 
InChIKey: SEBFKMXJBCUCAI-WAABAYLZSA-N
RetentionTime: 5.908767
CCS: 
CollisionEnergy: 20-40 eV
InstrumentType: UPLC-QTOF-MS
Comment: PI: Cristina Nerin; Data collector: QiZhi Su, GUIA, University of Zaragoza, Spain; Collision energy: 20-40 V; Instrument: Waters HPLC-QTOF-MS (Xevo G2 QTof); Ionization: ESI; Deconvoluted by MS-DIAL; Column: Waters AtlantisTM premier BEH C18 AX column (2.1 × 100mm x 1.7μm); Flow rate: 0.3mL/min; Mobile phase A and B are water and methnaol, respectively, both with 0.1% formic acid; Gradient elution: from A/B (95/5) to A/B (100/0) in 7min, kept for 4 min, then back to A/B (95/5) in 0.1 min, and maintained for additional 1.9 min (13min in total).; Injection volume: 10 μL
Num peaks: 84
103.05235 237
103.05691 229
119.04962 201
123.03513 198
123.04691 202
130.03816 143
130.04643 144
131.05025 1364
132.04105 183
132.05421 197
135.03059 138
137.0605 719
149.02446 1037
149.06082 228
149.07613 154
150.06697 280
153.01944 2841
161.06049 348
162.06941 1021
163.07623 2174
164.07538 293
164.0831 276
165.05557 197
165.06546 219
165.07739 156
167.03581 407
177.05701 223
179.07216 197
179.08022 180
180.07773 179
180.0863 171
195.03125 1202
196.05313 142
201.0461 162
201.05605 171
201.06734 180
213.04779 292
213.05994 290
229.05154 431
239.07346 182
241.052 361
242.0551 165
242.06277 150
251.06763 329
251.07646 305
257.04593 517
259.06485 135
267.08353 155
269.06851 192
269.0806 187
271.09927 245
283.09271 304
283.10629 348
295.05371 221
295.06305 205
301.10837 347
311.05612 348
311.07095 417
323.05414 182
323.07349 230
329.0629 153
359.08466 145
379.1185 507
387.08823 338
387.10699 161
391.11896 305
407.10574 288
407.11884 310
409.12561 235
419.11252 447
433.0929 665
434.10278 196
435.10922 782
435.12555 512
436.12335 209
437.12527 430
447.09494 355
447.11316 292
453.11804 235
465.10352 1097
465.12384 1536
466.1239 485
483.12897 13363
483.20233 147
Name: Guaiacol Carbonate
PrecursorMZ: 275.0927
PrecursorType: [M+H]+
IonMode: Positive
Formula: C15H14O5
SMILES: COC1=CC=CC=C1OC(=O)OC2=CC=CC=C2OC
InChI: 
InChIKey: ORUJFMPWKPVXLZ-UHFFFAOYSA-N
RetentionTime: 6.526067
CCS: 
CollisionEnergy: 20-40 eV
InstrumentType: UPLC-QTOF-MS
Comment: PI: Cristina Nerin; Data collector: QiZhi Su, GUIA, University of Zaragoza, Spain; Collision energy: 20-40 V; Instrument: Waters HPLC-QTOF-MS (Xevo G2 QTof); Ionization: ESI; Deconvoluted by MS-DIAL; Column: Waters AtlantisTM premier BEH C18 AX column (2.1 × 100mm x 1.7μm); Flow rate: 0.3mL/min; Mobile phase A and B are water and methnaol, respectively, both with 0.1% formic acid; Gradient elution: from A/B (95/5) to A/B (100/0) in 7min, kept for 4 min, then back to A/B (95/5) in 0.1 min, and maintained for additional 1.9 min (13min in total).; Injection volume: 10 μL
Num peaks: 32
65.03724 1531
65.0427 1512
67.05449 906
77.03918 67102
78.04337 4156
79.01827 1751
79.0226 1729
79.05492 48623
80.0384 2330
80.05844 2907
81.03438 725
92.02511 1725
92.03204 1711
93.03099 946
93.036 956
95.05 686
107.05133 2827
107.0687 976
108.02251 3455
108.04008 2465
109.02891 4464
123.04578 2005
124.05258 5735
136.01059 896
136.01776 898
147.98386 5001
151.04015 11969
152.04208 1127
152.05986 1038
163.0013 1098
163.01205 1074
271.02914 1258
Name: Guaiacol Carbonate
PrecursorMZ: 292.1196
PrecursorType: [M+NH4]+
IonMode: Positive
Formula: C15H14O5
SMILES: COC1=CC=CC=C1OC(=O)OC2=CC=CC=C2OC
InChI: 
InChIKey: ORUJFMPWKPVXLZ-UHFFFAOYSA-N
RetentionTime: 6.526067
CCS: 
CollisionEnergy: 20-40 eV
InstrumentType: UPLC-QTOF-MS
Comment: PI: Cristina Nerin; Data collector: QiZhi Su, GUIA, University of Zaragoza, Spain; Collision energy: 20-40 V; Instrument: Waters HPLC-QTOF-MS (Xevo G2 QTof); Ionization: ESI; Deconvoluted by MS-DIAL; Column: Waters AtlantisTM premier BEH C18 AX column (2.1 × 100mm x 1.7μm); Flow rate: 0.3mL/min; Mobile phase A and B are water and methnaol, respectively, both with 0.1% formic acid; Gradient elution: from A/B (95/5) to A/B (100/0) in 7min, kept for 4 min, then back to A/B (95/5) in 0.1 min, and maintained for additional 1.9 min (13min in total).; Injection volume: 10 μL
Num peaks: 35
65.03724 1531
65.0427 1512
67.05449 906
77.03918 67102
78.04337 4156
79.01827 1751
79.0226 1729
79.05492 48623
80.0384 2330
80.05844 2907
81.03438 725
92.02511 1725
92.03204 1711
93.03099 946
93.036 956
95.05 686
107.05133 2827
107.0687 976
108.02251 3455
108.04008 2465
109.02891 4464
123.04578 2005
124.05258 5735
136.01059 896
136.01776 898
147.98386 5001
151.04015 11969
152.04208 1127
152.05986 1038
163.0013 1098
163.01205 1074
271.02914 1258
275.0928 802
275.10571 809
286.05252 855
Name: Guaiacol Carbonate
PrecursorMZ: 297.0745
PrecursorType: [M+Na]+
IonMode: Positive
Formula: C15H14O5
SMILES: COC1=CC=CC=C1OC(=O)OC2=CC=CC=C2OC
InChI: 
InChIKey: ORUJFMPWKPVXLZ-UHFFFAOYSA-N
RetentionTime: 6.526067
CCS: 
CollisionEnergy: 20-40 eV
InstrumentType: UPLC-QTOF-MS
Comment: PI: Cristina Nerin; Data collector: QiZhi Su, GUIA, University of Zaragoza, Spain; Collision energy: 20-40 V; Instrument: Waters HPLC-QTOF-MS (Xevo G2 QTof); Ionization: ESI; Deconvoluted by MS-DIAL; Column: Waters AtlantisTM premier BEH C18 AX column (2.1 × 100mm x 1.7μm); Flow rate: 0.3mL/min; Mobile phase A and B are water and methnaol, respectively, both with 0.1% formic acid; Gradient elution: from A/B (95/5) to A/B (100/0) in 7min, kept for 4 min, then back to A/B (95/5) in 0.1 min, and maintained for additional 1.9 min (13min in total).; Injection volume: 10 μL
Num peaks: 40
65.03724 1445
65.0427 1418
67.05449 831
77.03918 67283
78.04337 3793
79.01827 1751
79.0226 1729
79.05492 48527
80.0384 2321
80.05844 2911
81.0186 769
81.03438 1045
92.02511 1666
92.03204 1633
93.03099 946
93.036 956
95.05 686
107.05133 2837
107.0687 1278
108.02251 3499
108.04008 2938
109.02891 4408
123.02689 1334
123.04578 2295
124.05258 5715
136.01059 895
136.01776 896
147.98386 5013
151.04015 11929
152.04208 1112
152.05986 1016
163.0013 1113
163.01205 1087
271.02914 1258
275.0928 801
275.10571 806
294.05859 2443
294.07703 2057
294.56253 952
297.07397 17171
Name: Guaiacol Carbonate
PrecursorMZ: 571.1568
PrecursorType: [2M+Na]+
IonMode: Positive
Formula: C15H14O5
SMILES: COC1=CC=CC=C1OC(=O)OC2=CC=CC=C2OC
InChI: 
InChIKey: ORUJFMPWKPVXLZ-UHFFFAOYSA-N
RetentionTime: 6.526067
CCS: 
CollisionEnergy: 20-40 eV
InstrumentType: UPLC-QTOF-MS
Comment: PI: Cristina Nerin; Data collector: QiZhi Su, GUIA, University of Zaragoza, Spain; Collision energy: 20-40 V; Instrument: Waters HPLC-QTOF-MS (Xevo G2 QTof); Ionization: ESI; Deconvoluted by MS-DIAL; Column: Waters AtlantisTM premier BEH C18 AX column (2.1 × 100mm x 1.7μm); Flow rate: 0.3mL/min; Mobile phase A and B are water and methnaol, respectively, both with 0.1% formic acid; Gradient elution: from A/B (95/5) to A/B (100/0) in 7min, kept for 4 min, then back to A/B (95/5) in 0.1 min, and maintained for additional 1.9 min (13min in total).; Injection volume: 10 μL
Num peaks: 40
65.03724 1287
65.0427 1267
67.05449 831
77.03918 67271
78.04337 3237
79.01827 1751
79.0226 1588
79.05492 44534
80.00903 690
80.02466 701
80.0384 2321
80.05844 2531
81.0186 1536
81.03438 1559
92.02511 1280
92.03204 1264
100.07692 903
107.05133 2322
107.0687 2870
108.02251 3558
108.04008 4034
109.02891 3847
123.02689 3134
123.04578 3049
124.05258 4380
136.01059 861
136.01776 888
147.98386 5006
151.04015 11340
152.04208 1093
152.05986 1004
163.0013 1113
163.01205 1087
275.0928 801
275.10571 806
294.05859 1230
294.07703 1616
297.07397 15027
298.07477 2350
422.06815 683
Name: Guaiacol Carbonate
PrecursorMZ: 313.0479
PrecursorType: [M+K]+
IonMode: Positive
Formula: C15H14O5
SMILES: COC1=CC=CC=C1OC(=O)OC2=CC=CC=C2OC
InChI: 
InChIKey: ORUJFMPWKPVXLZ-UHFFFAOYSA-N
RetentionTime: 6.529883
CCS: 
CollisionEnergy: 20-40 eV
InstrumentType: UPLC-QTOF-MS
Comment: PI: Cristina Nerin; Data collector: QiZhi Su, GUIA, University of Zaragoza, Spain; Collision energy: 20-40 V; Instrument: Waters HPLC-QTOF-MS (Xevo G2 QTof); Ionization: ESI; Deconvoluted by MS-DIAL; Column: Waters AtlantisTM premier BEH C18 AX column (2.1 × 100mm x 1.7μm); Flow rate: 0.3mL/min; Mobile phase A and B are water and methnaol, respectively, both with 0.1% formic acid; Gradient elution: from A/B (95/5) to A/B (100/0) in 7min, kept for 4 min, then back to A/B (95/5) in 0.1 min, and maintained for additional 1.9 min (13min in total).; Injection volume: 10 μL
Num peaks: 47
65.03977 1566
65.05239 1563
67.05397 826
67.05921 831
77.02254 67279
77.03929 66869
77.05628 67331
78.04298 4086
78.06205 4016
79.01897 1744
79.02386 1719
79.03211 1698
79.05489 48516
79.07215 48660
80.0372 1125
80.05819 2940
81.01783 1528
81.03063 1570
81.03535 1555
92.02569 1725
93.03333 953
93.04147 956
95.04941 686
107.05039 2838
107.06716 2246
108.02164 2301
109.00942 5897
109.02835 4694
123.04477 1514
124.05167 5715
136.01143 714
136.01872 770
147.9843 5019
151.03935 11969
152.03545 1028
152.04688 1136
163.00856 1087
271.02325 1258
271.03287 1242
275.09457 800
286.04373 856
286.05484 849
294.06494 2504
294.56198 952
294.57181 1010
297.07434 16555
298.07324 1961
Name: Cholic acid
PrecursorMZ: 426.3223
PrecursorType: [M+NH4]+
IonMode: Positive
Formula: C24H40O5
SMILES: CC(CCC(=O)O)C1CCC2C1(C(CC3C2C(CC4C3(CCC(C4)O)C)O)O)C
InChI: 
InChIKey: BHQCQFFYRZLCQQ-OELDTZBJSA-N
RetentionTime: 7.34185
CCS: 
CollisionEnergy: 20-40 eV
InstrumentType: UPLC-QTOF-MS
Comment: PI: Cristina Nerin; Data collector: QiZhi Su, GUIA, University of Zaragoza, Spain; Collision energy: 20-40 V; Instrument: Waters HPLC-QTOF-MS (Xevo G2 QTof); Ionization: ESI; Deconvoluted by MS-DIAL; Column: Waters AtlantisTM premier BEH C18 AX column (2.1 × 100mm x 1.7μm); Flow rate: 0.3mL/min; Mobile phase A and B are water and methnaol, respectively, both with 0.1% formic acid; Gradient elution: from A/B (95/5) to A/B (100/0) in 7min, kept for 4 min, then back to A/B (95/5) in 0.1 min, and maintained for additional 1.9 min (13min in total).; Injection volume: 10 μL
Num peaks: 38
83.08736 2024
93.07117 2213
95.08777 3005
105.07227 3082
107.08623 3348
109.10242 2086
119.08722 4512
121.1016 2342
131.08644 1896
133.10118 3723
145.10188 6795
147.11754 3991
157.10081 3059
159.11848 6321
161.13205 2232
171.11829 2657
173.13304 2191
185.13274 3301
199.1492 5125
209.13416 2684
213.16592 6824
227.14436 2195
227.18214 4266
239.18028 3487
245.15482 4470
254.20601 3240
273.18625 2295
319.24387 5137
337.25449 9026
355.26358 184266
356.26703 47091
357.2724 5658
373.27405 174969
374.27802 45033
375.2811 5641
391.28525 8989
392.28979 2277
426.32104 14836
Name: Cholic acid
PrecursorMZ: 431.2758
PrecursorType: [M+Na]+
IonMode: Positive
Formula: C24H40O5
SMILES: CC(CCC(=O)O)C1CCC2C1(C(CC3C2C(CC4C3(CCC(C4)O)C)O)O)C
InChI: 
InChIKey: BHQCQFFYRZLCQQ-OELDTZBJSA-N
RetentionTime: 7.34185
CCS: 
CollisionEnergy: 20-40 eV
InstrumentType: UPLC-QTOF-MS
Comment: PI: Cristina Nerin; Data collector: QiZhi Su, GUIA, University of Zaragoza, Spain; Collision energy: 20-40 V; Instrument: Waters HPLC-QTOF-MS (Xevo G2 QTof); Ionization: ESI; Deconvoluted by MS-DIAL; Column: Waters AtlantisTM premier BEH C18 AX column (2.1 × 100mm x 1.7μm); Flow rate: 0.3mL/min; Mobile phase A and B are water and methnaol, respectively, both with 0.1% formic acid; Gradient elution: from A/B (95/5) to A/B (100/0) in 7min, kept for 4 min, then back to A/B (95/5) in 0.1 min, and maintained for additional 1.9 min (13min in total).; Injection volume: 10 μL
Num peaks: 40
83.08736 2024
93.07117 2213
95.08777 3005
105.07227 3082
107.08623 3348
109.10242 2086
119.08722 4512
121.1016 2342
131.08644 1896
133.10118 3723
145.10188 6795
147.11754 3991
157.10081 3059
159.11848 6321
161.13205 2232
171.11829 2657
173.13304 2191
185.13274 3301
199.1492 5125
209.13416 2684
213.16592 6824
227.14436 2195
227.18214 4266
239.18028 3487
245.15482 4470
254.20601 3240
273.18625 2295
319.24387 5137
337.25449 9026
355.26358 184266
356.26703 47091
357.2724 5658
373.27405 174969
374.27802 45033
375.2811 5641
391.28525 8989
392.28979 2277
426.32104 14836
427.32513 5117
431.27814 32531
Name: Cholic acid
PrecursorMZ: 839.5664
PrecursorType: [2M+Na]+
IonMode: Positive
Formula: C24H40O5
SMILES: CC(CCC(=O)O)C1CCC2C1(C(CC3C2C(CC4C3(CCC(C4)O)C)O)O)C
InChI: 
InChIKey: BHQCQFFYRZLCQQ-OELDTZBJSA-N
RetentionTime: 7.353167
CCS: 
CollisionEnergy: 20-40 eV
InstrumentType: UPLC-QTOF-MS
Comment: PI: Cristina Nerin; Data collector: QiZhi Su, GUIA, University of Zaragoza, Spain; Collision energy: 20-40 V; Instrument: Waters HPLC-QTOF-MS (Xevo G2 QTof); Ionization: ESI; Deconvoluted by MS-DIAL; Column: Waters AtlantisTM premier BEH C18 AX column (2.1 × 100mm x 1.7μm); Flow rate: 0.3mL/min; Mobile phase A and B are water and methnaol, respectively, both with 0.1% formic acid; Gradient elution: from A/B (95/5) to A/B (100/0) in 7min, kept for 4 min, then back to A/B (95/5) in 0.1 min, and maintained for additional 1.9 min (13min in total).; Injection volume: 10 μL
Num peaks: 228
65.6586 463
65.6659 488
65.66995 458
65.80408 240
79.0565 695
81.07162 558
83.03326 374
83.08649 913
85.0653 821
85.07557 838
93.07011 549
93.07966 572
95.08607 590
99.03849 645
99.04543 666
101.05767 1789
101.06308 1787
105.07095 636
107.08603 1777
108.08768 408
108.09669 403
109.09726 254
109.10291 290
117.07392 744
121.10188 927
123.08031 769
123.08686 801
123.11799 755
127.0767 343
127.09627 427
131.08646 2829
132.09834 319
133.08524 2526
133.10049 1784
133.11826 1900
134.10454 439
134.11279 436
135.07962 311
135.08693 326
141.09474 298
142.09251 231
143.08421 783
143.10156 459
144.08617 238
144.09671 281
145.10098 251
146.10574 929
146.11568 921
147.11934 2537
148.12001 335
149.13246 273
149.13994 265
153.09312 467
155.10428 267
156.10693 351
158.09767 586
158.10823 627
159.11821 3556
160.12254 500
163.15912 282
169.10364 764
171.11914 992
172.10327 237
172.11693 763
172.12556 760
172.13802 585
173.13423 536
175.14719 472
177.13228 318
181.10048 364
181.10835 324
181.11992 717
183.11879 1532
184.10678 328
184.11986 338
184.13036 431
184.14305 238
185.13315 2182
187.14798 717
187.15604 545
189.18333 337
191.10812 232
193.13429 318
195.11356 309
196.1162 296
196.13129 428
197.12399 813
197.13564 1126
199.14923 4907
200.15359 1008
201.12984 276
201.16428 501
205.10429 256
205.1154 351
205.12296 357
207.13527 493
207.14568 227
209.13179 1345
209.15822 368
210.13907 519
211.1353 2175
211.15138 1432
212.14754 352
212.15887 609
212.16899 515
213.16611 3201
214.16811 1182
215.13919 355
215.15047 375
215.1779 1408
215.18871 1321
216.18127 232
221.15314 722
223.14542 222
223.1541 437
225.1404 408
225.16284 1020
225.18356 533
227.14346 2137
227.18047 406
228.13885 361
228.15692 417
228.17308 813
228.18863 745
229.14302 463
229.16261 452
235.1572 465
235.17384 389
237.1649 840
238.15968 327
238.17444 325
239.18021 842
241.15739 450
241.16733 430
241.1956 1922
242.19121 291
242.1992 482
243.17467 362
243.19151 421
245.1553 1436
246.14035 843
246.15659 561
246.16515 615
247.17284 1795
248.16103 384
248.17267 510
248.1823 401
249.18839 339
253.18692 551
253.20148 579
254.2121 610
255.16235 762
255.21309 1783
255.22525 1716
256.20822 447
256.22043 429
259.16904 1959
261.18414 939
262.17371 279
262.18884 354
263.20111 270
271.173 244
273.16916 2215
273.18616 2043
274.18942 416
275.19955 301
275.21045 284
281.19305 323
285.18506 312
287.20596 325
295.19873 315
295.24692 509
299.19766 586
299.20819 350
301.14218 603
301.15353 618
301.20435 281
301.21875 346
301.23175 260
310.25314 233
310.26205 243
319.24307 3047
337.25308 669
338.24866 371
355.26321 5433
373.33542 224
375.28107 1099
376.27866 268
377.22308 252
391.28348 3015
392.28076 684
392.29654 1648
393.29181 391
409.1795 481
409.19827 441
409.27551 576
410.29694 266
426.32202 18073
427.32516 4781
428.32388 563
428.3429 633
431.27707 21965
432.28171 3590
433.28094 1310
447.24188 3656
447.2598 836
448.26987 559
449.24084 228
470.31726 245
470.33435 311
470.35049 281
498.35501 264
632.8999 429
782.53998 589
783.57983 735
799.57172 20007
800.57422 9910
801.57825 2569
802.59082 426
819.59088 1016
820.57758 3575
820.60962 2099
821.60223 246
834.61023 4997
835.60925 2561
836.53497 236
837.54828 292
839.56512 11362
Name: Cholic acid
PrecursorMZ: 834.6104
PrecursorType: [2M+NH4]+
IonMode: Positive
Formula: C24H40O5
SMILES: CC(CCC(=O)O)C1CCC2C1(C(CC3C2C(CC4C3(CCC(C4)O)C)O)O)C
InChI: 
InChIKey: BHQCQFFYRZLCQQ-OELDTZBJSA-N
RetentionTime: 7.356983
CCS: 
CollisionEnergy: 20-40 eV
InstrumentType: UPLC-QTOF-MS
Comment: PI: Cristina Nerin; Data collector: QiZhi Su, GUIA, University of Zaragoza, Spain; Collision energy: 20-40 V; Instrument: Waters HPLC-QTOF-MS (Xevo G2 QTof); Ionization: ESI; Deconvoluted by MS-DIAL; Column: Waters AtlantisTM premier BEH C18 AX column (2.1 × 100mm x 1.7μm); Flow rate: 0.3mL/min; Mobile phase A and B are water and methnaol, respectively, both with 0.1% formic acid; Gradient elution: from A/B (95/5) to A/B (100/0) in 7min, kept for 4 min, then back to A/B (95/5) in 0.1 min, and maintained for additional 1.9 min (13min in total).; Injection volume: 10 μL
Num peaks: 205
65.66951 458
65.67463 498
73.02972 454
79.05277 651
79.05929 657
81.07034 1480
83.08671 920
85.06578 705
93.06671 853
93.07288 860
95.0862 1457
99.04467 832
101.05764 1433
101.06495 1438
101.06933 1455
105.07092 2568
106.08567 548
106.09973 329
107.0866 3618
108.085 376
108.09157 384
109.10168 1777
117.07024 368
117.07968 444
119.08607 3194
120.08947 367
120.10241 357
121.10175 1789
123.06939 493
123.08146 462
123.11765 399
123.13123 382
127.07716 427
129.07018 316
131.08383 2778
131.08998 2781
133.10257 3263
133.12048 3631
134.10478 423
135.1096 1205
135.11908 1216
143.07457 1301
143.0863 1428
144.09062 337
144.09973 335
145.10179 4080
146.10558 931
147.11821 2786
148.11551 334
148.12134 348
149.02327 482
149.03583 473
149.09697 529
149.12996 747
149.13885 641
153.09108 407
157.10109 2748
157.10977 2811
158.10115 439
158.11224 429
159.11702 5281
160.11301 664
160.11963 644
161.13316 1742
161.14259 1769
167.10477 630
167.11681 580
169.09799 968
169.10867 953
171.11699 2286
172.12192 738
172.13657 658
173.13213 2183
174.12686 370
174.1369 372
175.10944 443
175.12564 468
175.14581 1104
175.16101 911
181.1028 325
181.11279 572
183.09961 1343
183.11717 1725
184.11513 407
184.12778 415
185.1342 3772
186.11705 331
186.1324 692
186.14177 683
187.14917 1030
191.11575 317
193.11784 420
193.12613 455
195.11546 540
195.12964 436
195.14006 332
196.12369 406
196.13509 416
197.13066 812
197.14342 731
199.1494 5106
200.15163 1026
200.16328 1031
201.16316 780
205.12994 318
207.14006 797
209.13359 1744
210.12776 755
210.14175 795
211.14684 2055
211.16885 1115
212.15811 370
213.16562 5866
214.15057 1150
214.16699 1238
214.17766 1183
215.18114 1627
215.19038 1328
221.14656 662
221.15854 682
223.14076 463
223.15285 387
225.16017 1002
225.17107 890
227.14255 2991
227.18037 2885
228.13945 347
228.15068 431
228.18289 731
229.15916 414
233.1526 352
233.16231 349
235.17249 379
237.1487 800
237.16849 914
239.18127 3241
240.18634 625
241.15656 336
241.1976 2032
242.20218 419
243.16292 318
245.15398 3477
246.14378 696
246.15729 795
247.17131 1703
251.19078 319
253.18623 370
253.19824 513
253.21223 362
254.20534 3024
254.22893 370
255.20897 1866
255.21806 1874
259.17014 1515
261.17889 1246
261.18872 1232
262.18622 350
262.20169 321
273.18698 1756
287.18906 369
287.2034 563
295.22577 343
295.24429 334
299.18744 555
299.20508 723
301.13666 568
301.1593 518
301.21674 322
313.21545 848
313.23053 640
319.24332 2430
320.24521 746
320.25784 633
337.255 946
355.26364 8547
356.26688 1063
358.26898 433
391.28549 1267
392.2908 563
409.16791 336
409.18475 478
409.27585 555
426.32193 18103
427.3244 4359
428.32477 608
428.33914 628
431.27759 31394
432.28098 7600
433.2854 1313
447.24734 3682
448.23657 593
448.25284 854
632.40668 481
632.90869 439
781.55798 5170
781.58594 438
783.57941 735
799.57245 20007
800.57501 9910
801.58099 2569
802.58197 547
820.59381 3892
821.60437 525
834.60492 5153
834.64142 1023
Name: Cholic acid
PrecursorMZ: 817.5822
PrecursorType: [2M+H]+
IonMode: Positive
Formula: C24H40O5
SMILES: CC(CCC(=O)O)C1CCC2C1(C(CC3C2C(CC4C3(CCC(C4)O)C)O)O)C
InChI: 
InChIKey: BHQCQFFYRZLCQQ-OELDTZBJSA-N
RetentionTime: 7.360783
CCS: 
CollisionEnergy: 20-40 eV
InstrumentType: UPLC-QTOF-MS
Comment: PI: Cristina Nerin; Data collector: QiZhi Su, GUIA, University of Zaragoza, Spain; Collision energy: 20-40 V; Instrument: Waters HPLC-QTOF-MS (Xevo G2 QTof); Ionization: ESI; Deconvoluted by MS-DIAL; Column: Waters AtlantisTM premier BEH C18 AX column (2.1 × 100mm x 1.7μm); Flow rate: 0.3mL/min; Mobile phase A and B are water and methnaol, respectively, both with 0.1% formic acid; Gradient elution: from A/B (95/5) to A/B (100/0) in 7min, kept for 4 min, then back to A/B (95/5) in 0.1 min, and maintained for additional 1.9 min (13min in total).; Injection volume: 10 μL
Num peaks: 28
107.0752 4013
107.08753 4029
119.08682 4466
133.08723 4034
133.10263 4080
185.13402 4228
227.14426 3200
319.24237 3988
319.25571 4419
337.25305 10215
338.25665 2908
355.26367 255906
356.26675 65964
357.2717 7858
373.2738 270023
374.2774 68669
375.26913 9511
375.28104 9512
391.28516 12231
392.28506 2834
431.27664 32424
432.28156 7933
447.25037 3748
781.55414 5277
799.57111 20406
800.57422 10229
801.58136 2757
817.58221 158926
Name: Cholic acid
PrecursorMZ: 426.3222
PrecursorType: [M+NH4]+
IonMode: Positive
Formula: C24H40O5
SMILES: CC(CCC(=O)O)C1CCC2C1(C(CC3C2C(CC4C3(CCC(C4)O)C)O)O)C
InChI: 
InChIKey: BHQCQFFYRZLCQQ-OELDTZBJSA-N
RetentionTime: 7.39125
CCS: 
CollisionEnergy: 20-40 eV
InstrumentType: UPLC-QTOF-MS
Comment: PI: Cristina Nerin; Data collector: QiZhi Su, GUIA, University of Zaragoza, Spain; Collision energy: 20-40 V; Instrument: Waters HPLC-QTOF-MS (Xevo G2 QTof); Ionization: ESI; Deconvoluted by MS-DIAL; Column: Waters AtlantisTM premier BEH C18 AX column (2.1 × 100mm x 1.7μm); Flow rate: 0.3mL/min; Mobile phase A and B are water and methnaol, respectively, both with 0.1% formic acid; Gradient elution: from A/B (95/5) to A/B (100/0) in 7min, kept for 4 min, then back to A/B (95/5) in 0.1 min, and maintained for additional 1.9 min (13min in total).; Injection volume: 10 μL
Num peaks: 52
79.05531 1127
81.07109 2384
83.08657 962
93.07 1631
95.08565 2410
101.05916 1120
105.07011 2354
107.08381 2097
107.09023 1466
109.10416 994
119.08581 2553
121.1038 2166
131.08597 1913
133.10231 2908
135.11931 1196
143.08527 1128
145.10086 3066
147.11641 2705
149.02475 1913
157.10025 1476
159.11716 4235
161.13321 1257
171.11787 1016
173.13374 1503
183.11848 1354
185.13361 3115
187.15054 879
199.14919 3331
209.1317 1980
213.16576 4526
214.16783 1081
227.14435 2394
227.18234 1680
239.18037 2322
241.19783 1838
245.15515 3123
247.16963 1052
254.20123 1888
259.17184 1258
273.18524 1137
319.24118 1662
337.25232 4115
355.26315 86897
356.26804 19609
357.27032 2657
373.27313 73634
374.27682 17778
375.28458 1914
391.27347 1658
391.28687 2962
392.28424 891
426.32065 11565
Name: Cholic acid
PrecursorMZ: 431.2755
PrecursorType: [M+Na]+
IonMode: Positive
Formula: C24H40O5
SMILES: CC(CCC(=O)O)C1CCC2C1(C(CC3C2C(CC4C3(CCC(C4)O)C)O)O)C
InChI: 
InChIKey: BHQCQFFYRZLCQQ-OELDTZBJSA-N
RetentionTime: 7.39125
CCS: 
CollisionEnergy: 20-40 eV
InstrumentType: UPLC-QTOF-MS
Comment: PI: Cristina Nerin; Data collector: QiZhi Su, GUIA, University of Zaragoza, Spain; Collision energy: 20-40 V; Instrument: Waters HPLC-QTOF-MS (Xevo G2 QTof); Ionization: ESI; Deconvoluted by MS-DIAL; Column: Waters AtlantisTM premier BEH C18 AX column (2.1 × 100mm x 1.7μm); Flow rate: 0.3mL/min; Mobile phase A and B are water and methnaol, respectively, both with 0.1% formic acid; Gradient elution: from A/B (95/5) to A/B (100/0) in 7min, kept for 4 min, then back to A/B (95/5) in 0.1 min, and maintained for additional 1.9 min (13min in total).; Injection volume: 10 μL
Num peaks: 54
79.05531 1127
81.07109 2384
83.08657 962
93.07 1631
95.08565 2410
101.05916 1120
105.07011 2354
107.08381 2097
107.09023 1466
109.10416 994
119.08581 2553
121.1038 2166
131.08597 1913
133.10231 2908
135.11931 1196
143.08527 1128
145.10086 3066
147.11641 2705
149.02475 1913
157.10025 1476
159.11716 4235
161.13321 1257
171.11787 1016
173.13374 1503
183.11848 1354
185.13361 3115
187.15054 879
199.14919 3331
209.1317 1980
213.16576 4526
214.16783 1081
227.14435 2394
227.18234 1680
239.18037 2322
241.19783 1838
245.15515 3123
247.16963 1052
254.20123 1888
259.17184 1258
273.18524 1137
319.24118 1662
337.25232 4115
355.26315 86897
356.26804 19609
357.27032 2657
373.27313 73634
374.27682 17778
375.28458 1914
391.27347 1658
391.28687 2962
392.28424 891
426.32065 11565
427.32214 2887
431.27728 22334
Name: Glycocholic acid
PrecursorMZ: 488.3006
PrecursorType: [M+Na]+
IonMode: Positive
Formula: C26H43NO6
SMILES: CC(CCC(=O)NCC(=O)O)C1CCC2C1(C(CC3C2C(CC4C3(CCC(C4)O)C)O)O)C
InChI: 
InChIKey: RFDAIACWWDREDC-FRVQLJSFSA-N
RetentionTime: 7.566367
CCS: 
CollisionEnergy: 20-40 eV
InstrumentType: UPLC-QTOF-MS
Comment: PI: Cristina Nerin; Data collector: QiZhi Su, GUIA, University of Zaragoza, Spain; Collision energy: 20-40 V; Instrument: Waters HPLC-QTOF-MS (Xevo G2 QTof); Ionization: ESI; Deconvoluted by MS-DIAL; Column: Waters AtlantisTM premier BEH C18 AX column (2.1 × 100mm x 1.7μm); Flow rate: 0.3mL/min; Mobile phase A and B are water and methnaol, respectively, both with 0.1% formic acid; Gradient elution: from A/B (95/5) to A/B (100/0) in 7min, kept for 4 min, then back to A/B (95/5) in 0.1 min, and maintained for additional 1.9 min (13min in total).; Injection volume: 10 μL
Num peaks: 92
76.04018 1424
76.05296 1428
95.08746 280
105.06915 431
109.08504 239
112.06538 287
112.07337 236
119.06812 808
119.08586 282
119.09769 271
121.10078 298
131.07831 440
131.08817 459
131.10094 323
133.08246 633
143.08221 323
143.08972 347
143.10648 330
147.09956 470
147.11902 391
155.08209 281
155.08806 315
155.09483 337
158.08282 1029
159.11766 742
161.13412 363
171.11691 419
173.13393 235
175.11087 289
175.11975 302
183.11588 622
185.13399 608
186.11847 257
186.13182 267
187.11267 239
187.15022 317
189.14748 320
197.13402 342
199.15042 1211
200.13794 254
201.1443 250
201.16389 445
201.17278 417
209.13446 2814
210.13693 362
211.15012 284
213.1653 1660
214.1689 551
214.18974 688
223.14941 922
224.12929 290
224.14442 448
225.16577 478
226.15204 612
227.14439 1884
227.18042 1227
229.15613 710
229.16904 673
230.16042 234
230.18004 261
237.16264 361
237.17566 330
241.15401 260
241.16734 255
241.19603 683
243.17619 335
254.21149 235
255.16626 283
255.17848 325
255.19136 370
279.20306 253
283.22458 249
293.22488 527
293.2388 398
295.20312 359
295.21494 480
295.24686 298
309.25659 233
319.24347 3491
320.23267 1029
320.24646 1078
337.25293 6100
338.25702 1415
339.2684 260
355.25977 286
355.27234 291
412.28473 3102
413.28784 1646
414.28769 491
468.32047 349
483.34473 473
488.2981 22818
Name: Glycocholic acid
PrecursorMZ: 483.3444
PrecursorType: [M+NH4]+
IonMode: Positive
Formula: C26H43NO6
SMILES: CC(CCC(=O)NCC(=O)O)C1CCC2C1(C(CC3C2C(CC4C3(CCC(C4)O)C)O)O)C
InChI: 
InChIKey: RFDAIACWWDREDC-FRVQLJSFSA-N
RetentionTime: 7.608233
CCS: 
CollisionEnergy: 20-40 eV
InstrumentType: UPLC-QTOF-MS
Comment: PI: Cristina Nerin; Data collector: QiZhi Su, GUIA, University of Zaragoza, Spain; Collision energy: 20-40 V; Instrument: Waters HPLC-QTOF-MS (Xevo G2 QTof); Ionization: ESI; Deconvoluted by MS-DIAL; Column: Waters AtlantisTM premier BEH C18 AX column (2.1 × 100mm x 1.7μm); Flow rate: 0.3mL/min; Mobile phase A and B are water and methnaol, respectively, both with 0.1% formic acid; Gradient elution: from A/B (95/5) to A/B (100/0) in 7min, kept for 4 min, then back to A/B (95/5) in 0.1 min, and maintained for additional 1.9 min (13min in total).; Injection volume: 10 μL
Num peaks: 139
76.04041 4131
85.0602 1210
85.06714 1208
111.11788 539
114.05729 519
114.06509 544
117.07259 232
123.10844 312
123.12166 434
123.14026 249
131.08322 900
131.09253 820
135.11255 990
135.12132 1002
143.08623 622
145.10284 836
156.07448 254
157.10118 1017
158.08185 4232
159.08415 670
159.09271 959
159.11781 1604
163.13904 300
163.14862 301
166.12328 242
169.10269 391
170.10127 241
170.1096 244
171.11755 893
172.11543 346
172.12672 363
173.08888 262
181.08737 237
181.10165 326
183.11684 1142
184.09492 451
184.11232 687
184.1232 313
185.13402 1248
186.1125 388
186.1394 253
189.12671 335
189.1391 750
191.14349 264
195.116 590
196.10985 242
197.12137 751
197.132 449
198.0914 244
198.11098 436
198.12341 315
199.1494 3969
200.13013 482
200.14941 432
200.16278 298
209.13264 7842
210.11194 767
210.133 1362
210.1436 1068
211.14839 1819
212.12546 594
212.13359 460
212.17134 564
213.16513 4709
214.16774 262
223.14894 1305
224.11235 403
224.13191 452
225.16653 1262
226.1516 665
227.14453 4685
227.17999 2289
228.14642 1526
228.15819 1765
228.17749 1148
228.18892 870
229.15842 1253
229.17009 832
231.17522 300
237.16444 1394
237.18329 1711
239.18036 293
239.19713 1062
240.17822 273
241.14452 1789
241.16408 1326
241.19579 1713
243.17233 557
249.16391 249
250.1369 263
250.15392 448
253.19576 554
255.17468 552
263.18314 378
264.15466 412
264.1712 474
264.1846 445
265.18439 549
265.19592 445
277.19211 977
277.2052 1034
278.17096 250
278.19351 403
279.21011 278
281.17899 552
281.18704 581
281.19833 614
283.20163 275
291.21036 286
293.22745 1190
293.24579 627
295.20328 825
295.24249 1634
296.2399 488
296.25204 592
302.18213 338
309.21213 315
309.22903 752
309.25916 740
310.26343 322
319.24197 12112
320.24741 4479
337.25262 12365
338.25812 4734
355.26547 222
366.2767 234
370.25452 364
394.28305 245
412.28394 22072
413.28818 5061
414.2897 1025
449.30667 374
450.33322 833
466.20932 252
468.32367 898
470.27527 550
470.29462 578
483.34082 1183
483.35599 598
Name: Glycocholic acid
PrecursorMZ: 488.2976
PrecursorType: [M+Na]+
IonMode: Positive
Formula: C26H43NO6
SMILES: CC(CCC(=O)NCC(=O)O)C1CCC2C1(C(CC3C2C(CC4C3(CCC(C4)O)C)O)O)C
InChI: 
InChIKey: RFDAIACWWDREDC-FRVQLJSFSA-N
RetentionTime: 7.61585
CCS: 
CollisionEnergy: 20-40 eV
InstrumentType: UPLC-QTOF-MS
Comment: PI: Cristina Nerin; Data collector: QiZhi Su, GUIA, University of Zaragoza, Spain; Collision energy: 20-40 V; Instrument: Waters HPLC-QTOF-MS (Xevo G2 QTof); Ionization: ESI; Deconvoluted by MS-DIAL; Column: Waters AtlantisTM premier BEH C18 AX column (2.1 × 100mm x 1.7μm); Flow rate: 0.3mL/min; Mobile phase A and B are water and methnaol, respectively, both with 0.1% formic acid; Gradient elution: from A/B (95/5) to A/B (100/0) in 7min, kept for 4 min, then back to A/B (95/5) in 0.1 min, and maintained for additional 1.9 min (13min in total).; Injection volume: 10 μL
Num peaks: 82
69.07245 915
76.0404 5465
81.07091 1552
85.06461 1161
93.07066 1086
95.08669 2015
105.07089 1315
107.08801 2301
109.10217 1572
119.0851 1261
121.10072 1599
123.08073 867
131.08688 1451
133.10168 1804
135.12126 979
143.08652 887
145.10069 1147
147.11676 1930
149.0966 799
157.10164 2221
158.08174 6130
159.11926 3401
161.13507 2162
169.101 837
171.1143 1129
171.12341 784
173.13263 1247
175.14771 882
183.11554 1145
183.12404 819
184.09793 721
185.13312 1720
197.13678 1108
199.15112 5129
201.16388 1179
209.13425 8900
210.13831 1828
211.14792 2890
213.16383 5813
214.17192 834
215.1779 728
223.15103 2503
225.16508 3179
227.14427 7155
227.17908 3626
228.14877 1219
228.18394 857
229.15988 1628
237.16814 1160
239.18112 1227
241.1636 900
241.19711 2374
243.17738 1085
255.17632 745
263.17569 1085
277.19852 786
293.2287 1210
295.20731 1079
295.24301 1453
309.25854 1333
319.24304 14605
320.23877 1626
320.25198 2008
337.25293 27981
338.25671 6201
355.27112 881
412.28534 61777
413.28799 18531
414.27695 931
414.29355 2086
430.29544 50450
431.29816 13823
432.30106 1224
448.3056 32977
449.30945 8168
450.31665 1163
466.31653 71524
467.31897 19032
468.32404 3000
470.29437 869
483.34546 1843
488.29828 22759
Name: Chenodeoxycholic acid
PrecursorMZ: 415.2825
PrecursorType: [M+Na]+
IonMode: Positive
Formula: C24H40O4
SMILES: CC(CCC(=O)O)C1CCC2C1(CCC3C2C(CC4C3(CCC(C4)O)C)O)C
InChI: 
InChIKey: RUDATBOHQWOJDD-BSWAIDMHSA-N
RetentionTime: 7.688684
CCS: 
CollisionEnergy: 20-40 eV
InstrumentType: UPLC-QTOF-MS
Comment: PI: Cristina Nerin; Data collector: QiZhi Su, GUIA, University of Zaragoza, Spain; Collision energy: 20-40 V; Instrument: Waters HPLC-QTOF-MS (Xevo G2 QTof); Ionization: ESI; Deconvoluted by MS-DIAL; Column: Waters AtlantisTM premier BEH C18 AX column (2.1 × 100mm x 1.7μm); Flow rate: 0.3mL/min; Mobile phase A and B are water and methnaol, respectively, both with 0.1% formic acid; Gradient elution: from A/B (95/5) to A/B (100/0) in 7min, kept for 4 min, then back to A/B (95/5) in 0.1 min, and maintained for additional 1.9 min (13min in total).; Injection volume: 10 μL
Num peaks: 65
67.05502 1288
67.07364 1243
85.06628 245
85.07395 236
99.04392 1530
99.05926 1556
122.10636 748
141.08076 350
141.0905 372
155.10599 493
155.11229 465
159.11906 572
161.0856 310
161.0957 289
161.10406 292
163.12828 1004
167.0889 237
169.09196 203
171.12175 255
177.11354 1594
183.11777 338
185.1187 260
185.13037 258
185.13893 254
190.98192 294
191.13051 225
197.13837 213
203.15773 925
207.16594 209
209.14833 593
211.15044 719
213.15121 237
213.16521 332
213.18494 444
223.16302 300
225.15181 277
225.16711 326
227.17468 304
227.19058 309
241.17953 412
241.19687 262
241.20773 296
243.17073 408
243.18686 684
257.19238 446
258.20807 295
295.2287 259
295.24496 288
357.2782 203
357.46609 319
358.28134 2063
375.28891 5099
376.29147 1729
383.28143 652
383.2981 780
393.28201 725
393.30051 633
394.30457 248
401.28891 1497
401.30621 1240
402.29309 349
402.31378 250
410.32394 320
411.19247 782
415.2804 20239
Name: Chenodeoxycholic acid
PrecursorMZ: 785.5902
PrecursorType: [2M+H]+
IonMode: Positive
Formula: C24H40O4
SMILES: CC(CCC(=O)O)C1CCC2C1(CCC3C2C(CC4C3(CCC(C4)O)C)O)C
InChI: 
InChIKey: RUDATBOHQWOJDD-BSWAIDMHSA-N
RetentionTime: 7.711517
CCS: 
CollisionEnergy: 20-40 eV
InstrumentType: UPLC-QTOF-MS
Comment: PI: Cristina Nerin; Data collector: QiZhi Su, GUIA, University of Zaragoza, Spain; Collision energy: 20-40 V; Instrument: Waters HPLC-QTOF-MS (Xevo G2 QTof); Ionization: ESI; Deconvoluted by MS-DIAL; Column: Waters AtlantisTM premier BEH C18 AX column (2.1 × 100mm x 1.7μm); Flow rate: 0.3mL/min; Mobile phase A and B are water and methnaol, respectively, both with 0.1% formic acid; Gradient elution: from A/B (95/5) to A/B (100/0) in 7min, kept for 4 min, then back to A/B (95/5) in 0.1 min, and maintained for additional 1.9 min (13min in total).; Injection volume: 10 μL
Num peaks: 35
83.08588 2449
83.09931 2536
93.07053 1853
93.08522 1593
95.0857 2655
99.04417 974
101.04134 947
105.08941 3901
107.08635 1378
119.08665 1277
133.08412 2700
133.10204 2459
135.11807 2797
149.13304 2036
159.10353 1077
161.13382 1274
173.127 1630
173.13509 1630
177.11853 1333
177.12828 1773
195.13882 1251
215.18063 1065
229.16504 1011
276.20239 1217
276.21198 1153
339.26868 2605
358.28137 3234
359.28516 6104
375.28876 20346
376.29181 4548
377.29474 1739
431.25351 871
749.56989 3274
750.57428 1738
785.58997 83841
Name: Chenodeoxycholic acid
PrecursorMZ: 802.6213
PrecursorType: [2M+NH4]+
IonMode: Positive
Formula: C24H40O4
SMILES: CC(CCC(=O)O)C1CCC2C1(CCC3C2C(CC4C3(CCC(C4)O)C)O)C
InChI: 
InChIKey: RUDATBOHQWOJDD-BSWAIDMHSA-N
RetentionTime: 7.738167
CCS: 
CollisionEnergy: 20-40 eV
InstrumentType: UPLC-QTOF-MS
Comment: PI: Cristina Nerin; Data collector: QiZhi Su, GUIA, University of Zaragoza, Spain; Collision energy: 20-40 V; Instrument: Waters HPLC-QTOF-MS (Xevo G2 QTof); Ionization: ESI; Deconvoluted by MS-DIAL; Column: Waters AtlantisTM premier BEH C18 AX column (2.1 × 100mm x 1.7μm); Flow rate: 0.3mL/min; Mobile phase A and B are water and methnaol, respectively, both with 0.1% formic acid; Gradient elution: from A/B (95/5) to A/B (100/0) in 7min, kept for 4 min, then back to A/B (95/5) in 0.1 min, and maintained for additional 1.9 min (13min in total).; Injection volume: 10 μL
Num peaks: 51
67.05612 1485
69.06991 1900
81.07039 4845
83.08521 1805
93.06779 2010
93.07419 1435
95.08577 4923
105.07012 2879
107.08571 4272
109.10148 3882
119.08708 3410
121.10066 3612
121.10668 1286
133.1013 3112
135.11696 5809
147.1152 3217
147.12167 2335
149.13304 4269
159.11795 1840
161.13181 4567
163.11424 1211
163.14859 1619
175.14876 3488
181.12532 1390
189.16518 2557
195.1403 1985
201.16394 3529
215.18245 3128
221.15747 2441
223.20763 1691
229.19386 1860
243.20868 1826
247.17039 2140
257.2283 1319
275.20224 2026
321.25992 1565
339.2662 5067
339.28046 1488
357.27747 120257
358.2814 31247
359.28561 2786
375.28854 13251
376.29126 2890
411.19492 1225
415.27985 20914
416.27945 3348
416.29526 2093
431.24402 2033
749.55634 1246
785.58801 16438
786.59088 8643
Name: Chenodeoxycholic acid
PrecursorMZ: 410.3267
PrecursorType: [M+NH4]+
IonMode: Positive
Formula: C24H40O4
SMILES: CC(CCC(=O)O)C1CCC2C1(CCC3C2C(CC4C3(CCC(C4)O)C)O)C
InChI: 
InChIKey: RUDATBOHQWOJDD-BSWAIDMHSA-N
RetentionTime: 7.741967
CCS: 
CollisionEnergy: 20-40 eV
InstrumentType: UPLC-QTOF-MS
Comment: PI: Cristina Nerin; Data collector: QiZhi Su, GUIA, University of Zaragoza, Spain; Collision energy: 20-40 V; Instrument: Waters HPLC-QTOF-MS (Xevo G2 QTof); Ionization: ESI; Deconvoluted by MS-DIAL; Column: Waters AtlantisTM premier BEH C18 AX column (2.1 × 100mm x 1.7μm); Flow rate: 0.3mL/min; Mobile phase A and B are water and methnaol, respectively, both with 0.1% formic acid; Gradient elution: from A/B (95/5) to A/B (100/0) in 7min, kept for 4 min, then back to A/B (95/5) in 0.1 min, and maintained for additional 1.9 min (13min in total).; Injection volume: 10 μL
Num peaks: 51
67.0538 1221
69.07089 1226
79.05556 1005
81.07089 5365
83.08479 1343
89.06028 1147
91.0534 1510
93.06796 2587
93.07382 1354
95.08591 4323
101.06267 1032
105.07037 2147
107.08583 3793
109.10227 3437
119.08643 2331
121.10131 4016
123.11771 1290
125.09676 1038
131.08711 1035
133.10199 3388
135.11758 4899
145.10127 1309
147.11871 3666
149.13248 3228
159.11719 1645
161.13295 4349
163.14716 1712
175.14844 3472
177.12624 1320
181.12302 1579
189.16153 1315
189.17003 932
195.13971 1823
201.16551 1842
203.18234 882
207.13736 1026
215.18062 2984
221.15607 1234
223.20543 1058
229.19481 1226
243.21162 1850
257.23276 987
275.20074 1622
321.25656 1669
339.26843 4919
340.27057 1074
357.27802 86464
358.28223 20907
359.28479 2612
375.28873 9227
376.2868 1233
Name: Chenodeoxycholic acid
PrecursorMZ: 415.2816
PrecursorType: [M+Na]+
IonMode: Positive
Formula: C24H40O4
SMILES: CC(CCC(=O)O)C1CCC2C1(CCC3C2C(CC4C3(CCC(C4)O)C)O)C
InChI: 
InChIKey: RUDATBOHQWOJDD-BSWAIDMHSA-N
RetentionTime: 7.741967
CCS: 
CollisionEnergy: 20-40 eV
InstrumentType: UPLC-QTOF-MS
Comment: PI: Cristina Nerin; Data collector: QiZhi Su, GUIA, University of Zaragoza, Spain; Collision energy: 20-40 V; Instrument: Waters HPLC-QTOF-MS (Xevo G2 QTof); Ionization: ESI; Deconvoluted by MS-DIAL; Column: Waters AtlantisTM premier BEH C18 AX column (2.1 × 100mm x 1.7μm); Flow rate: 0.3mL/min; Mobile phase A and B are water and methnaol, respectively, both with 0.1% formic acid; Gradient elution: from A/B (95/5) to A/B (100/0) in 7min, kept for 4 min, then back to A/B (95/5) in 0.1 min, and maintained for additional 1.9 min (13min in total).; Injection volume: 10 μL
Num peaks: 53
67.0538 1221
69.07089 1226
79.05556 1005
81.07089 5365
83.08479 1343
89.06028 1147
91.0534 1510
93.06796 2587
93.07382 1354
95.08591 4323
101.06267 1032
105.07037 2147
107.08583 3793
109.10227 3437
119.08643 2331
121.10131 4016
123.11771 1290
125.09676 1038
131.08711 1035
133.10199 3388
135.11758 4899
145.10127 1309
147.11871 3666
149.13248 3228
159.11719 1645
161.13295 4349
163.14716 1712
175.14844 3472
177.12624 1320
181.12302 1579
189.16153 1315
189.17003 932
195.13971 1823
201.16551 1842
203.18234 882
207.13736 1026
215.18062 2984
221.15607 1234
223.20543 1058
229.19481 1226
243.21162 1850
257.23276 987
275.20074 1622
321.25656 1669
339.26843 4919
340.27057 1074
357.27802 86464
358.28223 20907
359.28479 2612
375.28873 9227
376.2868 1233
411.20184 1076
415.28204 19044
Name: Enoxolone
PrecursorMZ: 493.3296
PrecursorType: [M+Na]+
IonMode: Positive
Formula: C30H46O4
SMILES: CC1(C2CCC3(C(C2(CCC1O)C)C(=O)C=C4C3(CCC5(C4CC(CC5)(C)C(=O)O)C)C)C)C
InChI: 
InChIKey: MPDGHEJMBKOTSU-YKLVYJNSSA-N
RetentionTime: 7.9285
CCS: 
CollisionEnergy: 20-40 eV
InstrumentType: UPLC-QTOF-MS
Comment: PI: Cristina Nerin; Data collector: QiZhi Su, GUIA, University of Zaragoza, Spain; Collision energy: 20-40 V; Instrument: Waters HPLC-QTOF-MS (Xevo G2 QTof); Ionization: ESI; Deconvoluted by MS-DIAL; Column: Waters AtlantisTM premier BEH C18 AX column (2.1 × 100mm x 1.7μm); Flow rate: 0.3mL/min; Mobile phase A and B are water and methnaol, respectively, both with 0.1% formic acid; Gradient elution: from A/B (95/5) to A/B (100/0) in 7min, kept for 4 min, then back to A/B (95/5) in 0.1 min, and maintained for additional 1.9 min (13min in total).; Injection volume: 10 μL
Num peaks: 48
85.09965 307
85.10567 315
89.06037 1137
89.06717 1153
106.02281 225
106.03084 222
107.08586 320
109.10177 307
133.08664 872
133.10031 863
135.10123 733
135.11755 274
147.05945 177
147.06662 255
147.07663 286
147.08606 279
163.10124 198
171.13641 259
171.14525 247
189.16481 434
201.14072 181
217.17824 202
253.21278 313
263.1944 233
264.18652 230
270.10648 496
270.11932 522
270.13599 416
319.2229 181
319.23688 188
321.22696 428
323.22385 294
337.2377 202
357.2822 181
385.27472 319
412.27579 241
412.29739 321
429.31564 996
429.33249 873
430.29938 647
430.31903 384
435.33716 175
448.30807 464
454.25928 575
458.10327 262
470.28217 348
489.29626 232
493.32861 17448
Name: Enoxolone
PrecursorMZ: 471.3463
PrecursorType: [M+H]+
IonMode: Positive
Formula: C30H46O4
SMILES: CC1(C2CCC3(C(C2(CCC1O)C)C(=O)C=C4C3(CCC5(C4CC(CC5)(C)C(=O)O)C)C)C)C
InChI: 
InChIKey: MPDGHEJMBKOTSU-YKLVYJNSSA-N
RetentionTime: 7.95135
CCS: 
CollisionEnergy: 20-40 eV
InstrumentType: UPLC-QTOF-MS
Comment: PI: Cristina Nerin; Data collector: QiZhi Su, GUIA, University of Zaragoza, Spain; Collision energy: 20-40 V; Instrument: Waters HPLC-QTOF-MS (Xevo G2 QTof); Ionization: ESI; Deconvoluted by MS-DIAL; Column: Waters AtlantisTM premier BEH C18 AX column (2.1 × 100mm x 1.7μm); Flow rate: 0.3mL/min; Mobile phase A and B are water and methnaol, respectively, both with 0.1% formic acid; Gradient elution: from A/B (95/5) to A/B (100/0) in 7min, kept for 4 min, then back to A/B (95/5) in 0.1 min, and maintained for additional 1.9 min (13min in total).; Injection volume: 10 μL
Num peaks: 2
471.34659 841450
471.56424 8981
Name: Enoxolone
PrecursorMZ: 941.6836
PrecursorType: [2M+H]+
IonMode: Positive
Formula: C30H46O4
SMILES: CC1(C2CCC3(C(C2(CCC1O)C)C(=O)C=C4C3(CCC5(C4CC(CC5)(C)C(=O)O)C)C)C)C
InChI: 
InChIKey: MPDGHEJMBKOTSU-YKLVYJNSSA-N
RetentionTime: 7.95135
CCS: 
CollisionEnergy: 20-40 eV
InstrumentType: UPLC-QTOF-MS
Comment: PI: Cristina Nerin; Data collector: QiZhi Su, GUIA, University of Zaragoza, Spain; Collision energy: 20-40 V; Instrument: Waters HPLC-QTOF-MS (Xevo G2 QTof); Ionization: ESI; Deconvoluted by MS-DIAL; Column: Waters AtlantisTM premier BEH C18 AX column (2.1 × 100mm x 1.7μm); Flow rate: 0.3mL/min; Mobile phase A and B are water and methnaol, respectively, both with 0.1% formic acid; Gradient elution: from A/B (95/5) to A/B (100/0) in 7min, kept for 4 min, then back to A/B (95/5) in 0.1 min, and maintained for additional 1.9 min (13min in total).; Injection volume: 10 μL
Num peaks: 4
471.34659 786783
472.34958 225266
473.35287 33750
941.68445 61319
Name: Enoxolone
PrecursorMZ: 493.3274
PrecursorType: [M+Na]+
IonMode: Positive
Formula: C30H46O4
SMILES: CC1(C2CCC3(C(C2(CCC1O)C)C(=O)C=C4C3(CCC5(C4CC(CC5)(C)C(=O)O)C)C)C)C
InChI: 
InChIKey: MPDGHEJMBKOTSU-YKLVYJNSSA-N
RetentionTime: 7.9856
CCS: 
CollisionEnergy: 20-40 eV
InstrumentType: UPLC-QTOF-MS
Comment: PI: Cristina Nerin; Data collector: QiZhi Su, GUIA, University of Zaragoza, Spain; Collision energy: 20-40 V; Instrument: Waters HPLC-QTOF-MS (Xevo G2 QTof); Ionization: ESI; Deconvoluted by MS-DIAL; Column: Waters AtlantisTM premier BEH C18 AX column (2.1 × 100mm x 1.7μm); Flow rate: 0.3mL/min; Mobile phase A and B are water and methnaol, respectively, both with 0.1% formic acid; Gradient elution: from A/B (95/5) to A/B (100/0) in 7min, kept for 4 min, then back to A/B (95/5) in 0.1 min, and maintained for additional 1.9 min (13min in total).; Injection volume: 10 μL
Num peaks: 8
189.16463 3844
235.17047 3953
317.21005 4156
425.33276 1846
471.34695 182697
472.34991 56399
473.35376 7961
493.32834 14487
Name: Glycodeoxycholic acid
PrecursorMZ: 472.3029
PrecursorType: [M+Na]+
IonMode: Positive
Formula: C26H43NO5
SMILES: CC(CCC(=O)NCC(=O)O)C1CCC2C1(C(CC3C2CCC4C3(CCC(C4)O)C)O)C
InChI: 
InChIKey: WVULKSPCQVQLCU-BUXLTGKBSA-N
RetentionTime: 8.019867
CCS: 
CollisionEnergy: 20-40 eV
InstrumentType: UPLC-QTOF-MS
Comment: PI: Cristina Nerin; Data collector: QiZhi Su, GUIA, University of Zaragoza, Spain; Collision energy: 20-40 V; Instrument: Waters HPLC-QTOF-MS (Xevo G2 QTof); Ionization: ESI; Deconvoluted by MS-DIAL; Column: Waters AtlantisTM premier BEH C18 AX column (2.1 × 100mm x 1.7μm); Flow rate: 0.3mL/min; Mobile phase A and B are water and methnaol, respectively, both with 0.1% formic acid; Gradient elution: from A/B (95/5) to A/B (100/0) in 7min, kept for 4 min, then back to A/B (95/5) in 0.1 min, and maintained for additional 1.9 min (13min in total).; Injection volume: 10 μL
Num peaks: 56
67.0555 2514
69.07023 1662
76.03994 6298
79.05492 2129
81.07095 5798
91.05521 1212
93.07046 3541
95.0863 5339
105.06953 1815
107.08601 4036
109.10186 3329
119.08595 2457
121.10005 3859
133.10104 2890
135.11694 4667
145.10254 1901
147.11734 3360
149.13129 2064
158.08101 3306
159.1216 1255
161.13263 4255
163.14915 1237
173.13123 1974
175.15045 2215
177.12622 1342
185.13052 1668
187.14876 1965
199.14822 1183
201.16502 3453
203.17946 1462
211.14923 4276
213.16432 1351
215.18059 6022
225.16338 2442
227.18117 2173
229.15976 3281
229.19676 2617
231.17714 1167
239.18036 1498
243.16858 1211
252.16182 1406
278.17657 1357
304.19318 1242
321.25812 9845
322.2637 2200
339.26834 15976
340.27203 3797
414.2991 116228
415.3027 33148
416.30649 5543
432.30927 33895
433.31387 10354
450.32053 65806
451.32449 18544
452.32941 3028
472.30176 27190
Name: Glycodeoxycholic acid
PrecursorMZ: 921.6196
PrecursorType: [M+H]+
IonMode: Positive
Formula: C26H43NO5
SMILES: CC(CCC(=O)NCC(=O)O)C1CCC2C1(C(CC3C2CCC4C3(CCC(C4)O)C)O)C
InChI: 
InChIKey: WVULKSPCQVQLCU-BUXLTGKBSA-N
RetentionTime: 8.027483
CCS: 
CollisionEnergy: 20-40 eV
InstrumentType: UPLC-QTOF-MS
Comment: PI: Cristina Nerin; Data collector: QiZhi Su, GUIA, University of Zaragoza, Spain; Collision energy: 20-40 V; Instrument: Waters HPLC-QTOF-MS (Xevo G2 QTof); Ionization: ESI; Deconvoluted by MS-DIAL; Column: Waters AtlantisTM premier BEH C18 AX column (2.1 × 100mm x 1.7μm); Flow rate: 0.3mL/min; Mobile phase A and B are water and methnaol, respectively, both with 0.1% formic acid; Gradient elution: from A/B (95/5) to A/B (100/0) in 7min, kept for 4 min, then back to A/B (95/5) in 0.1 min, and maintained for additional 1.9 min (13min in total).; Injection volume: 10 μL
Num peaks: 299
62.16476 155
62.31467 163
62.33063 200
64.18167 160
64.19547 154
67.05537 1568
67.07108 1850
67.07496 3282
69.07073 208
71.05054 182
71.06072 295
76.04018 2492
77.01939 175
80.05933 206
80.06826 210
81.07085 4732
83.04511 356
83.05094 348
83.08674 1142
83.09863 1129
91.05135 867
91.05792 865
93.07033 249
94.06082 361
94.06951 376
94.07617 377
95.08614 2924
96.0993 641
97.09968 605
97.1052 599
99.06964 299
99.08096 446
99.08973 412
106.19644 150
106.22315 317
106.29224 256
106.3716 276
106.38757 316
106.40237 264
106.41376 226
106.42966 188
106.48551 149
106.50211 221
106.50842 151
106.51859 187
106.52948 177
106.59586 159
106.60886 184
106.63802 172
106.64284 202
106.65125 148
106.66255 194
107.08628 4543
108.07582 402
109.10136 1735
111.08153 521
111.09229 571
112.06455 366
112.072 362
112.08111 375
112.08762 369
119.08662 1416
120.08478 301
120.09013 300
120.09875 287
121.10236 1387
123.0827 506
123.0946 552
123.11288 951
123.12353 930
125.09602 581
131.08101 1439
131.08763 1497
132.09149 229
133.08916 2891
133.10156 2829
135.11755 4958
137.13333 282
139.09286 315
139.11232 323
139.12466 311
142.04486 149
143.08606 469
143.10591 705
145.10233 2139
146.10619 282
146.12181 187
147.11745 3909
148.12241 703
148.13147 703
149.09798 542
149.13257 3240
149.1393 3231
150.10289 160
151.09438 551
151.11041 605
151.11708 622
152.10236 303
152.11055 309
152.1223 311
153.13257 307
153.14575 147
155.0759 237
155.08878 200
156.06517 637
156.08289 596
157.10089 1099
157.11226 1146
159.08955 307
159.1387 178
160.11748 453
160.12677 455
162.14023 150
163.13983 307
163.15018 718
164.11125 228
164.15285 150
165.125 250
165.13571 278
166.11993 148
171.10617 919
171.11366 993
171.12436 1046
171.14111 301
173.09656 245
173.15204 1593
175.09758 959
175.11322 921
176.15263 324
176.16856 383
177.12642 1634
177.17021 400
178.12143 242
178.13399 253
179.1519 181
183.11255 673
183.12036 702
183.13408 648
184.09543 165
184.11093 215
184.1252 153
185.12738 1738
185.13673 1640
186.10625 284
186.12067 450
186.1398 250
186.15303 207
187.1013 280
187.11528 527
187.14915 2275
189.12526 944
191.14108 916
191.15335 318
192.14854 174
192.15805 154
195.13097 190
197.12408 250
198.11 629
198.12447 607
200.12843 373
200.14279 343
200.1559 344
201.16393 2881
202.15126 361
202.16722 590
202.18315 464
203.16072 692
204.13101 270
204.1507 334
204.17369 346
204.18542 354
204.20067 313
205.1394 197
205.15437 496
212.11125 576
213.14375 1441
213.16425 2398
214.13579 196
214.16673 639
215.18013 1398
216.15434 181
216.18275 1270
217.15492 305
217.16803 596
219.17014 206
219.19244 171
224.05753 369
224.12685 324
224.14311 397
226.16023 946
226.17699 380
227.1734 1865
227.18369 1711
228.17532 422
228.18387 414
229.15909 529
229.19492 2268
230.19786 221
231.17482 560
232.18211 277
237.15036 449
238.14709 944
238.1656 488
240.15596 250
241.19624 1403
243.17781 2212
243.21355 637
244.17184 467
244.18445 469
244.20926 328
244.22571 351
245.1814 231
245.18903 602
245.20247 680
250.1517 446
250.97157 443
251.18867 408
253.15942 211
253.17789 392
253.19647 329
253.20766 346
255.21555 261
255.22823 268
257.18854 1343
257.19937 1343
258.18399 344
258.19958 359
258.20911 284
264.15781 333
265.17874 544
269.18341 153
278.17206 1753
278.18292 1761
279.23239 260
280.18704 199
280.21606 184
281.22354 291
283.18643 167
287.21725 155
287.23315 305
288.1568 199
289.19739 1204
292.17624 875
295.23654 616
297.26129 458
298.25723 255
304.18842 348
304.21857 156
306.24741 587
306.25897 611
311.2392 169
311.26794 479
311.28296 261
318.18002 214
318.20123 445
319.25305 160
320.20709 708
320.22607 732
321.25754 7574
322.26111 2805
332.22617 997
333.23318 173
334.22504 216
334.24323 215
337.2735 704
337.2843 802
338.27335 329
339.26801 4595
340.2699 3143
340.28314 3117
353.21643 218
357.27408 146
358.22354 180
358.27582 195
358.29907 146
368.2905 307
368.31393 208
378.26819 674
396.27704 1141
396.29007 1144
397.26614 542
397.28342 606
415.30273 7351
416.30664 7590
417.31619 895
435.30402 244
435.32361 211
452.32611 5138
454.27975 263
471.31131 187
472.30283 14511
473.30685 5807
474.31143 713
506.23788 157
507.35956 283
536.42969 158
902.63599 675
902.67328 669
921.61469 6663
Name: Glycocholic acid
PrecursorMZ: 948.6523
PrecursorType: [2M+NH4]+
IonMode: Positive
Formula: C26H43NO6
SMILES: CC(CCC(=O)NCC(=O)O)C1CCC2C1(C(CC3C2C(CC4C3(CCC(C4)O)C)O)O)C
InChI: 
InChIKey: RFDAIACWWDREDC-FRVQLJSFSA-N
RetentionTime: 7.6278
CCS: 
CollisionEnergy: 20-40 eV
InstrumentType: UPLC-QTOF-MS
Comment: PI: Cristina Nerin; Data collector: QiZhi Su, GUIA, University of Zaragoza, Spain; Collision energy: 20-40 V; Instrument: Waters HPLC-QTOF-MS (Xevo G2 QTof); Ionization: ESI; Deconvoluted by MS-DIAL; Column: Waters AtlantisTM premier BEH C18 AX column (2.1 × 100mm x 1.7μm); Flow rate: 0.3mL/min; Mobile phase A and B are water and methnaol, respectively, both with 0.1% formic acid; Gradient elution: from A/B (95/5) to A/B (100/0) in 7min, kept for 4 min, then back to A/B (95/5) in 0.1 min, and maintained for additional 1.9 min (13min in total).; Injection volume: 10 μL
Num peaks: 99
76.04 1099
105.06516 384
105.07023 389
109.09325 528
109.10275 484
119.08514 573
123.0968 420
143.10229 345
145.10103 597
145.11009 623
147.11636 1180
155.10579 346
156.06418 328
158.08174 2088
161.13367 825
181.0974 458
181.11021 357
184.11905 514
185.13365 379
187.14476 708
187.15413 695
198.1122 464
198.12668 414
199.1492 1496
199.16724 1120
200.132 352
201.16458 1076
209.13213 2714
210.12515 596
210.14104 488
213.16466 2481
223.14938 763
225.16432 1119
227.1436 2396
227.18028 710
231.19247 398
237.15845 473
237.16969 463
240.17642 355
241.15076 524
241.15916 681
241.17381 1502
243.16722 343
243.17575 366
249.17805 569
250.15099 419
250.16934 367
253.16998 321
254.20403 341
264.15463 353
264.18573 450
265.1907 513
265.21317 475
278.17044 364
278.18869 441
281.19342 335
291.20807 375
293.22672 617
293.24075 348
295.20782 355
309.23364 373
319.24231 4014
320.245 1339
337.25247 8575
338.25601 2598
339.25992 1170
339.27417 1116
410.34174 658
410.35675 426
412.28442 31552
413.28729 10722
414.29114 881
430.29486 25306
431.29788 6546
432.30243 1017
433.29941 385
442.33051 695
448.30508 13613
449.30804 4887
450.30511 1084
450.32422 1392
466.3157 29804
467.31903 5088
468.32159 1094
478.34424 395
483.33969 792
488.29785 7672
489.30356 3401
490.30865 434
500.32925 334
504.27304 1087
913.61017 380
932.62714 5061
933.62915 3870
934.63226 1294
935.62866 362
943.67072 486
948.6424 737
948.67969 483
Name: Glycocholic acid
PrecursorMZ: 953.6061
PrecursorType: [2M+Na]+
IonMode: Positive
Formula: C26H43NO6
SMILES: CC(CCC(=O)NCC(=O)O)C1CCC2C1(C(CC3C2C(CC4C3(CCC(C4)O)C)O)O)C
InChI: 
InChIKey: RFDAIACWWDREDC-FRVQLJSFSA-N
RetentionTime: 7.6278
CCS: 
CollisionEnergy: 20-40 eV
InstrumentType: UPLC-QTOF-MS
Comment: PI: Cristina Nerin; Data collector: QiZhi Su, GUIA, University of Zaragoza, Spain; Collision energy: 20-40 V; Instrument: Waters HPLC-QTOF-MS (Xevo G2 QTof); Ionization: ESI; Deconvoluted by MS-DIAL; Column: Waters AtlantisTM premier BEH C18 AX column (2.1 × 100mm x 1.7μm); Flow rate: 0.3mL/min; Mobile phase A and B are water and methnaol, respectively, both with 0.1% formic acid; Gradient elution: from A/B (95/5) to A/B (100/0) in 7min, kept for 4 min, then back to A/B (95/5) in 0.1 min, and maintained for additional 1.9 min (13min in total).; Injection volume: 10 μL
Num peaks: 35
76.04 7797
145.10103 3059
158.08174 7936
159.11606 2846
185.13365 3080
199.1492 6376
209.13213 12279
211.14883 3919
213.16466 7846
225.16432 3750
227.1436 9188
227.18028 5154
319.24231 20346
320.245 5690
337.25247 43420
338.25601 12092
412.28442 156330
413.28729 43049
414.29114 5948
430.29486 142198
431.29788 39271
432.30243 5348
448.30508 92379
449.30804 24653
450.30511 2659
466.3157 196967
467.31903 52889
468.32159 8896
488.29785 13854
489.30356 4681
931.62311 258265
932.62714 150223
933.62915 51369
934.63226 9759
953.60608 5815
Name: Glycocholic acid
PrecursorMZ: 931.6248
PrecursorType: [2M+H]+
IonMode: Positive
Formula: C26H43NO6
SMILES: CC(CCC(=O)NCC(=O)O)C1CCC2C1(C(CC3C2C(CC4C3(CCC(C4)O)C)O)O)C
InChI: 
InChIKey: RFDAIACWWDREDC-FRVQLJSFSA-N
RetentionTime: 7.646833
CCS: 
CollisionEnergy: 20-40 eV
InstrumentType: UPLC-QTOF-MS
Comment: PI: Cristina Nerin; Data collector: QiZhi Su, GUIA, University of Zaragoza, Spain; Collision energy: 20-40 V; Instrument: Waters HPLC-QTOF-MS (Xevo G2 QTof); Ionization: ESI; Deconvoluted by MS-DIAL; Column: Waters AtlantisTM premier BEH C18 AX column (2.1 × 100mm x 1.7μm); Flow rate: 0.3mL/min; Mobile phase A and B are water and methnaol, respectively, both with 0.1% formic acid; Gradient elution: from A/B (95/5) to A/B (100/0) in 7min, kept for 4 min, then back to A/B (95/5) in 0.1 min, and maintained for additional 1.9 min (13min in total).; Injection volume: 10 μL
Num peaks: 20
76.04 7653
83.08679 2534
199.15028 5282
207.15109 3684
227.14479 9865
337.25253 6984
412.28421 91352
413.28677 23038
414.29211 3658
430.29489 107948
431.2981 30588
432.3002 4262
448.30573 75964
449.30923 19788
450.29706 3461
450.31824 3072
466.31573 150069
467.31906 42505
468.32425 7611
931.62372 253331
Name: Glycocholic acid
PrecursorMZ: 466.3159
PrecursorType: [M+H]+
IonMode: Positive
Formula: C26H43NO6
SMILES: CC(CCC(=O)NCC(=O)O)C1CCC2C1(C(CC3C2C(CC4C3(CCC(C4)O)C)O)O)C
InChI: 
InChIKey: RFDAIACWWDREDC-FRVQLJSFSA-N
RetentionTime: 7.65445
CCS: 
CollisionEnergy: 20-40 eV
InstrumentType: UPLC-QTOF-MS
Comment: PI: Cristina Nerin; Data collector: QiZhi Su, GUIA, University of Zaragoza, Spain; Collision energy: 20-40 V; Instrument: Waters HPLC-QTOF-MS (Xevo G2 QTof); Ionization: ESI; Deconvoluted by MS-DIAL; Column: Waters AtlantisTM premier BEH C18 AX column (2.1 × 100mm x 1.7μm); Flow rate: 0.3mL/min; Mobile phase A and B are water and methnaol, respectively, both with 0.1% formic acid; Gradient elution: from A/B (95/5) to A/B (100/0) in 7min, kept for 4 min, then back to A/B (95/5) in 0.1 min, and maintained for additional 1.9 min (13min in total).; Injection volume: 10 μL
Num peaks: 17
76.0404 3357
157.10077 2285
158.08202 6085
199.1496 2775
209.13252 5410
213.16431 2824
225.18506 2982
227.14345 5271
227.18198 2296
241.196 2479
319.24118 9496
320.24493 2607
337.25177 17123
338.25647 5736
412.284 15962
413.28674 4894
466.31525 176435
Name: Glycocholic acid
PrecursorMZ: 948.6513
PrecursorType: [2M+NH4]+
IonMode: Positive
Formula: C26H43NO6
SMILES: CC(CCC(=O)NCC(=O)O)C1CCC2C1(C(CC3C2C(CC4C3(CCC(C4)O)C)O)O)C
InChI: 
InChIKey: RFDAIACWWDREDC-FRVQLJSFSA-N
RetentionTime: 7.673483
CCS: 
CollisionEnergy: 20-40 eV
InstrumentType: UPLC-QTOF-MS
Comment: PI: Cristina Nerin; Data collector: QiZhi Su, GUIA, University of Zaragoza, Spain; Collision energy: 20-40 V; Instrument: Waters HPLC-QTOF-MS (Xevo G2 QTof); Ionization: ESI; Deconvoluted by MS-DIAL; Column: Waters AtlantisTM premier BEH C18 AX column (2.1 × 100mm x 1.7μm); Flow rate: 0.3mL/min; Mobile phase A and B are water and methnaol, respectively, both with 0.1% formic acid; Gradient elution: from A/B (95/5) to A/B (100/0) in 7min, kept for 4 min, then back to A/B (95/5) in 0.1 min, and maintained for additional 1.9 min (13min in total).; Injection volume: 10 μL
Num peaks: 56
76.0397 7886
107.08514 1686
119.08541 1940
131.08707 1633
133.10059 1746
145.10362 2279
147.11781 1904
158.08226 7693
159.11763 3100
161.13268 1574
171.11797 1989
173.13364 1977
185.13425 2187
197.13246 1941
199.14871 5465
207.03384 2853
209.13199 11976
210.13707 2775
211.1487 4237
213.16518 6688
223.14923 2222
225.16467 3051
227.14427 9965
227.17981 4528
228.14876 1607
229.1601 2062
237.17041 1506
241.19424 1777
281.05112 2887
293.22491 1806
295.24063 2287
319.24228 17914
320.24466 4610
337.25305 37221
338.2562 9720
412.28333 111539
413.28683 30517
414.28879 4562
430.29449 96030
431.29791 26385
432.29898 3423
448.30524 62475
449.30884 16216
450.30777 2605
466.3154 127431
467.31839 35663
468.31064 1659
468.32629 4201
488.29849 20918
489.29901 6041
504.27042 2416
931.62292 149355
932.62689 80255
933.63092 26425
934.63818 4941
948.64557 1542
Name: Glycodeoxycholic acid
PrecursorMZ: 450.3203
PrecursorType: [M+H]+
IonMode: Positive
Formula: C26H43NO5
SMILES: CC(CCC(=O)NCC(=O)O)C1CCC2C1(C(CC3C2CCC4C3(CCC(C4)O)C)O)C
InChI: 
InChIKey: WVULKSPCQVQLCU-BUXLTGKBSA-N
RetentionTime: 8.0427
CCS: 
CollisionEnergy: 20-40 eV
InstrumentType: UPLC-QTOF-MS
Comment: PI: Cristina Nerin; Data collector: QiZhi Su, GUIA, University of Zaragoza, Spain; Collision energy: 20-40 V; Instrument: Waters HPLC-QTOF-MS (Xevo G2 QTof); Ionization: ESI; Deconvoluted by MS-DIAL; Column: Waters AtlantisTM premier BEH C18 AX column (2.1 × 100mm x 1.7μm); Flow rate: 0.3mL/min; Mobile phase A and B are water and methnaol, respectively, both with 0.1% formic acid; Gradient elution: from A/B (95/5) to A/B (100/0) in 7min, kept for 4 min, then back to A/B (95/5) in 0.1 min, and maintained for additional 1.9 min (13min in total).; Injection volume: 10 μL
Num peaks: 35
76.04001 7486
81.0711 7598
93.07089 2406
93.0864 2314
95.08678 5665
107.08617 2605
109.10207 3302
119.08547 2406
121.10113 3718
133.08379 3099
133.10132 2709
135.11801 4958
147.11751 2112
149.13239 2083
159.09821 3145
159.11734 2329
161.13249 2717
175.14989 2062
215.17984 6795
227.18077 2162
229.15199 4004
229.16223 4010
289.18085 2178
305.24911 2876
321.2583 2540
337.27466 2140
339.26761 9361
377.267 3316
414.29932 198079
415.30219 50491
432.30942 60557
433.3129 16873
434.30106 2520
434.31702 2789
450.32043 122128
Name: Meprobamate
PrecursorMZ: 241.1161
PrecursorType: [M+Na]+
IonMode: Positive
Formula: C9H18N2O4
SMILES: CCCC(C)(COC(=O)N)COC(=O)N
InChI: 
InChIKey: NPPQSCRMBWNHMW-UHFFFAOYSA-N
RetentionTime: 5.077883
CCS: 
CollisionEnergy: 20-40 eV
InstrumentType: UPLC-QTOF-MS
Comment: PI: Cristina Nerin; Data collector: QiZhi Su, GUIA, University of Zaragoza, Spain; Collision energy: 20-40 V; Instrument: Waters HPLC-QTOF-MS (Xevo G2 QTof); Ionization: ESI; Deconvoluted by MS-DIAL; Column: Waters AtlantisTM premier BEH C18 AX column (2.1 × 100mm x 1.7μm); Flow rate: 0.3mL/min; Mobile phase A and B are water and methnaol, respectively, both with 0.1% formic acid; Gradient elution: from A/B (95/5) to A/B (100/0) in 7min, kept for 4 min, then back to A/B (95/5) in 0.1 min, and maintained for additional 1.9 min (13min in total).; Injection volume: 10 μL
Num peaks: 246
53.54124 39
54.03035 59
54.19095 52
54.30458 43
54.932 44
55.05506 2615
55.1062 46
56.05725 225
56.06323 53
56.96532 56
57.03051 43
57.07006 79
59.04351 44
59.04641 101
59.05187 183
59.05699 122
59.62271 43
62.0219 169
62.09198 41
64.21575 43
66.81915 139
67.05921 141
67.91708 53
69.0695 2344
69.07687 382
70.07727 90
70.50993 41
71.08696 84
72.94096 46
72.9681 52
73.06884 63
75.27882 52
76.29664 49
77.24739 74
79.05703 63
79.06217 92
81.07247 45
81.94666 76
84.9625 481
85.03045 47
85.0636 44
85.94942 42
89.39728 43
89.95917 44
92.05312 66
94.62036 42
95.96309 135
96.97733 39
97.00404 54
97.0338 50
97.10122 3891
97.39625 73
97.9827 69
98.10294 382
98.1084 137
98.96125 47
98.98676 78
99.97118 3074
100.66795 70
100.93368 84
100.97089 68
101.05127 44
101.97878 70
103.05288 59
103.96896 98
105.06573 57
105.07372 102
107.09126 58
109.4675 54
110.81557 45
111.00111 59
111.01104 189
111.02064 96
111.16772 56
113.09364 41
114.12926 49
114.13899 55
114.95077 120
115.11543 213
115.97632 47
116.00534 39
116.99422 180
117.96436 50
118.08526 50
120.08131 44
120.13379 51
121.06685 79
123.01218 42
123.12557 107
124.03631 42
124.9663 70
125.03139 150
125.05525 64
126.98973 41
131.04938 52
131.05962 140
131.96169 48
132.97354 64
133.02625 43
133.08394 95
134.07019 77
135.05351 72
136.55176 57
136.98212 43
137.05898 113
137.06694 88
137.07759 70
138.01097 39
138.06404 59
138.95874 39
139.02274 43
139.03496 67
140.9501 49
141.98615 45
141.99788 42
143.08575 96
143.43709 62
144.01456 75
145.00246 41
146.99399 76
147.04564 91
149.02312 99
151.0455 54
151.07381 84
151.45937 120
152.96767 53
153.0125 298
153.02274 663
153.05621 1365
153.0683 245
153.08687 53
154.0193 76
154.06284 170
155.05 66
155.11079 42
155.9718 49
155.98616 54
156.95218 79
157.03993 56
157.99396 73
158.11449 815
158.13071 55
159.07304 45
160.93591 43
163.07848 43
164.02002 44
165.08707 67
167.00807 67
167.0282 114
167.03638 66
168.01634 47
168.02939 73
168.073 42
169.05136 88
169.05972 52
170.55032 42
171.06882 2064
171.08621 50
171.99396 44
172.02797 41
172.07265 156
172.12912 87
175.03906 48
177.01784 82
177.06209 66
177.0873 59
177.59686 57
179.09354 39
181.009 53
183.90707 49
184.05922 98
184.72668 78
186.05904 154
186.07304 54
186.94894 51
187.02402 61
187.04607 51
187.05829 44
187.24915 49
187.61182 57
188.10315 60
189.00688 41
191.04015 40
193.91785 42
194.03023 84
195.09132 69
196.05687 301
196.0728 195
197.91154 67
198.12561 45
199.03043 39
200.01642 85
200.06293 52
201.0591 51
201.08937 73
201.10406 65
201.88187 48
202.10901 45
204.08119 64
207.59108 124
207.59988 472
211.06581 45
213.07608 40
213.09801 150
213.11002 41
214.03038 69
214.07391 346
214.08426 235
215.04068 98
215.07568 101
215.08456 92
215.12997 73
217.07709 1044
217.0966 53
217.11963 115
218.0696 45
218.08194 47
219.13664 98
221.06477 66
221.07297 40
222.10451 40
224.14076 54
225.09999 48
225.13898 270
225.15002 305
227.21745 46
227.94321 86
228.11975 101
229.04213 52
229.05309 42
229.08069 81
231.05296 83
232.05536 135
232.0829 1153
232.09149 333
233.05002 320
233.08301 84
235.03984 51
237.08296 45
238.0946 112
238.10843 612
238.60269 93
239.11404 53
240.90616 62
241.10939 1801
241.12022 2863
Name: Glycodeoxycholic acid
PrecursorMZ: 899.6331
PrecursorType: [2M+H]+
IonMode: Positive
Formula: C26H43NO5
SMILES: CC(CCC(=O)NCC(=O)O)C1CCC2C1(C(CC3C2CCC4C3(CCC(C4)O)C)O)C
InChI: 
InChIKey: WVULKSPCQVQLCU-BUXLTGKBSA-N
RetentionTime: 8.0427
CCS: 
CollisionEnergy: 20-40 eV
InstrumentType: UPLC-QTOF-MS
Comment: PI: Cristina Nerin; Data collector: QiZhi Su, GUIA, University of Zaragoza, Spain; Collision energy: 20-40 V; Instrument: Waters HPLC-QTOF-MS (Xevo G2 QTof); Ionization: ESI; Deconvoluted by MS-DIAL; Column: Waters AtlantisTM premier BEH C18 AX column (2.1 × 100mm x 1.7μm); Flow rate: 0.3mL/min; Mobile phase A and B are water and methnaol, respectively, both with 0.1% formic acid; Gradient elution: from A/B (95/5) to A/B (100/0) in 7min, kept for 4 min, then back to A/B (95/5) in 0.1 min, and maintained for additional 1.9 min (13min in total).; Injection volume: 10 μL
Num peaks: 44
67.05523 3260
76.04001 7483
79.05515 2167
79.06159 2160
81.0711 7480
93.07089 4196
93.0864 4224
109.10207 2019
121.10113 2886
133.08379 3099
135.11801 2958
145.10316 2308
147.11751 3968
158.0809 5086
159.09821 3145
175.14989 2062
177.12685 2235
177.13748 2406
185.1346 2070
187.15282 2233
215.17984 6795
227.18077 2162
229.15199 4004
229.16223 4010
237.0891 3695
243.17563 2494
289.18085 2178
305.24911 2876
321.2583 14426
322.24814 3609
322.26172 3671
337.27466 2140
339.26761 22856
340.27341 5916
377.267 3270
414.29932 197823
415.30219 45704
432.30942 60557
433.3129 16873
434.31702 2770
450.32043 121036
451.32401 32936
452.32651 5299
899.63263 89741
Name: Glycocholic acid
PrecursorMZ: 504.2693
PrecursorType: [M+K]+
IonMode: Positive
Formula: C26H43NO6
SMILES: CC(CCC(=O)NCC(=O)O)C1CCC2C1(C(CC3C2C(CC4C3(CCC(C4)O)C)O)O)C
InChI: 
InChIKey: RFDAIACWWDREDC-FRVQLJSFSA-N
RetentionTime: 7.688717
CCS: 
CollisionEnergy: 20-40 eV
InstrumentType: UPLC-QTOF-MS
Comment: PI: Cristina Nerin; Data collector: QiZhi Su, GUIA, University of Zaragoza, Spain; Collision energy: 20-40 V; Instrument: Waters HPLC-QTOF-MS (Xevo G2 QTof); Ionization: ESI; Deconvoluted by MS-DIAL; Column: Waters AtlantisTM premier BEH C18 AX column (2.1 × 100mm x 1.7μm); Flow rate: 0.3mL/min; Mobile phase A and B are water and methnaol, respectively, both with 0.1% formic acid; Gradient elution: from A/B (95/5) to A/B (100/0) in 7min, kept for 4 min, then back to A/B (95/5) in 0.1 min, and maintained for additional 1.9 min (13min in total).; Injection volume: 10 μL
Num peaks: 33
73.04689 844
111.08169 660
127.08623 823
134.11044 1311
149.0463 616
161.13084 20396
167.10338 3531
181.11722 9456
187.15022 2531
196.13275 1575
203.16713 7569
207.0392 581
207.13635 5955
208.0318 607
208.12949 945
208.13821 1089
216.17805 2317
223.0645 725
223.07623 695
229.1904 8434
321.24072 12495
321.25967 12727
321.27521 15389
339.25458 51878
339.27121 51601
373.27621 1413
377.26645 1001
378.26297 694
378.28116 685
485.11417 635
488.29681 11393
490.31198 552
504.26978 3539
Name: Glycodeoxycholic acid
PrecursorMZ: 472.3043
PrecursorType: [M+Na]+
IonMode: Positive
Formula: C26H43NO5
SMILES: CC(CCC(=O)NCC(=O)O)C1CCC2C1(C(CC3C2CCC4C3(CCC(C4)O)C)O)C
InChI: 
InChIKey: WVULKSPCQVQLCU-BUXLTGKBSA-N
RetentionTime: 8.076966
CCS: 
CollisionEnergy: 20-40 eV
InstrumentType: UPLC-QTOF-MS
Comment: PI: Cristina Nerin; Data collector: QiZhi Su, GUIA, University of Zaragoza, Spain; Collision energy: 20-40 V; Instrument: Waters HPLC-QTOF-MS (Xevo G2 QTof); Ionization: ESI; Deconvoluted by MS-DIAL; Column: Waters AtlantisTM premier BEH C18 AX column (2.1 × 100mm x 1.7μm); Flow rate: 0.3mL/min; Mobile phase A and B are water and methnaol, respectively, both with 0.1% formic acid; Gradient elution: from A/B (95/5) to A/B (100/0) in 7min, kept for 4 min, then back to A/B (95/5) in 0.1 min, and maintained for additional 1.9 min (13min in total).; Injection volume: 10 μL
Num peaks: 84
69.07097 455
69.08282 436
73.02941 2044
73.03864 1978
73.04755 1983
73.06252 1980
79.0543 271
81.07061 1102
85.06663 361
85.07567 335
93.08784 610
109.10265 577
109.1091 570
117.08611 283
119.08641 520
119.10442 838
121.08438 272
121.10155 358
123.11524 333
123.12296 325
133.10057 459
135.11694 981
147.11775 304
149.09541 279
158.08279 666
161.13257 480
161.14386 422
163.14801 508
173.13103 671
173.1434 683
175.14981 787
175.16319 947
185.11469 458
201.1649 699
207.03127 276
207.03969 310
211.14885 271
213.14009 317
213.18727 434
223.05336 1488
223.06511 1561
223.07733 1472
224.06248 348
227.1628 331
227.18028 453
238.14813 297
239.15837 318
243.21291 355
245.1846 275
257.18906 292
257.21069 330
268.00165 513
281.04739 733
281.0582 728
282.05151 388
297.20987 439
305.23209 426
305.25232 314
322.25336 478
322.26355 408
339.26764 615
342.02261 312
343.01105 312
355.06802 934
357.08591 390
371.09726 1507
372.08701 470
372.104 595
414.29883 14718
415.30313 3059
416.29727 547
416.31058 465
432.30905 6665
433.29501 2628
433.31296 3165
434.31201 480
434.32834 300
450.31979 11622
451.3244 2986
452.32449 494
452.34573 567
454.28345 609
454.30212 510
472.30222 27025
Name: Glycodeoxycholic acid
PrecursorMZ: 921.6143
PrecursorType: [2M+Na]+
IonMode: Positive
Formula: C26H43NO5
SMILES: CC(CCC(=O)NCC(=O)O)C1CCC2C1(C(CC3C2CCC4C3(CCC(C4)O)C)O)C
InChI: 
InChIKey: WVULKSPCQVQLCU-BUXLTGKBSA-N
RetentionTime: 8.076966
CCS: 
CollisionEnergy: 20-40 eV
InstrumentType: UPLC-QTOF-MS
Comment: PI: Cristina Nerin; Data collector: QiZhi Su, GUIA, University of Zaragoza, Spain; Collision energy: 20-40 V; Instrument: Waters HPLC-QTOF-MS (Xevo G2 QTof); Ionization: ESI; Deconvoluted by MS-DIAL; Column: Waters AtlantisTM premier BEH C18 AX column (2.1 × 100mm x 1.7μm); Flow rate: 0.3mL/min; Mobile phase A and B are water and methnaol, respectively, both with 0.1% formic acid; Gradient elution: from A/B (95/5) to A/B (100/0) in 7min, kept for 4 min, then back to A/B (95/5) in 0.1 min, and maintained for additional 1.9 min (13min in total).; Injection volume: 10 μL
Num peaks: 132
60.08241 187
60.09882 193
71.08726 178
73.02941 1638
77.03942 126
79.0543 242
81.07061 555
85.06663 197
85.07567 174
89.04445 140
93.08784 653
99.06244 209
99.08193 251
106.06615 131
106.07535 116
110.09971 146
110.10678 145
119.08641 159
119.10442 464
132.10257 111
133.07716 233
135.0695 114
135.11694 215
135.14275 138
138.08197 158
138.09238 113
149.04132 162
149.05968 175
151.11488 135
158.08279 412
161.13257 169
161.14386 125
163.14801 170
164.14931 127
164.15532 125
165.12579 117
165.13527 113
169.10054 121
169.1138 204
172.12451 144
173.13103 220
173.1434 276
184.06042 124
185.11469 280
186.12086 116
191.13013 122
191.14336 174
197.15443 201
201.1649 299
203.19949 173
205.18121 193
207.03127 510
207.03969 574
211.14885 176
212.1552 147
213.14009 363
213.18727 386
214.1461 119
217.19547 173
223.06511 422
223.07733 351
224.06248 314
224.08253 230
225.05136 193
225.06493 181
225.07289 213
225.16498 115
227.20055 214
231.16902 117
238.13573 142
238.14813 149
239.15837 314
241.16917 115
243.21291 152
245.19456 110
250.96239 116
250.97646 115
251.17783 194
254.18565 121
257.18906 141
257.21069 323
265.18073 112
265.20023 133
265.21979 145
268.9957 243
269.01587 153
281.22958 110
282.05151 277
282.07074 130
283.05365 129
283.24988 172
283.26923 181
293.19495 207
294.20285 110
297.20987 455
297.22406 124
305.23209 305
305.25232 172
306.1998 149
306.20959 109
311.24969 124
322.23395 174
322.25336 326
322.26355 250
342.02261 157
355.06802 209
357.08591 387
358.07339 121
371.09726 1312
372.08701 399
372.104 552
373.10532 215
431.22717 125
433.29501 328
433.31296 866
452.34573 494
453.31546 159
454.28345 388
481.29767 115
504.22028 157
506.23956 190
575.38379 117
575.4165 137
619.42004 201
619.43756 126
633.12549 371
633.14874 1199
634.16754 424
635.13928 120
663.46039 215
916.65375 183
921.61908 10881
Name: Meprobamate
PrecursorMZ: 241.1164
PrecursorType: [M+Na]+
IonMode: Positive
Formula: C9H18N2O4
SMILES: CCCC(C)(COC(=O)N)COC(=O)N
InChI: 
InChIKey: NPPQSCRMBWNHMW-UHFFFAOYSA-N
RetentionTime: 5.162133
CCS: 
CollisionEnergy: 20-40 eV
InstrumentType: UPLC-QTOF-MS
Comment: PI: Cristina Nerin; Data collector: QiZhi Su, GUIA, University of Zaragoza, Spain; Collision energy: 20-40 V; Instrument: Waters HPLC-QTOF-MS (Xevo G2 QTof); Ionization: ESI; Deconvoluted by MS-DIAL; Column: Waters AtlantisTM premier BEH C18 AX column (2.1 × 100mm x 1.7μm); Flow rate: 0.3mL/min; Mobile phase A and B are water and methnaol, respectively, both with 0.1% formic acid; Gradient elution: from A/B (95/5) to A/B (100/0) in 7min, kept for 4 min, then back to A/B (95/5) in 0.1 min, and maintained for additional 1.9 min (13min in total).; Injection volume: 10 μL
Num peaks: 66
55.05564 3101
56.03898 161
56.05761 257
56.06264 235
59.04794 133
59.05509 128
69.07012 697
70.07157 83
93.05989 74
97.10152 6785
98.10174 582
98.10687 583
99.97033 2205
99.97705 2207
99.99384 512
115.10796 148
115.1144 175
115.12844 275
131.04842 142
131.05936 136
137.08835 144
140.98729 91
140.99699 103
153.05637 951
153.0685 910
154.05916 107
154.0672 100
155.78679 76
158.11499 389
158.12218 528
159.11617 118
159.12509 119
160.98624 97
169.05882 96
169.07262 90
170.07265 74
170.08047 108
170.09152 118
171.06975 1175
171.09773 172
180.0791 82
188.08447 71
188.09532 73
196.04076 81
196.0665 891
201.11601 99
207.59641 343
207.60953 352
213.08488 103
214.07388 694
215.0681 95
215.08351 80
217.10687 105
218.06644 107
218.07777 134
219.12187 230
219.13977 240
229.03008 124
229.04666 142
229.06483 88
230.05069 180
230.05904 201
232.09142 1003
234.07486 81
238.59344 114
241.11557 6972
Name: Meprobamate
PrecursorMZ: 257.0891
PrecursorType: [M+K]+
IonMode: Positive
Formula: C9H18N2O4
SMILES: CCCC(C)(COC(=O)N)COC(=O)N
InChI: 
InChIKey: NPPQSCRMBWNHMW-UHFFFAOYSA-N
RetentionTime: 5.162133
CCS: 
CollisionEnergy: 20-40 eV
InstrumentType: UPLC-QTOF-MS
Comment: PI: Cristina Nerin; Data collector: QiZhi Su, GUIA, University of Zaragoza, Spain; Collision energy: 20-40 V; Instrument: Waters HPLC-QTOF-MS (Xevo G2 QTof); Ionization: ESI; Deconvoluted by MS-DIAL; Column: Waters AtlantisTM premier BEH C18 AX column (2.1 × 100mm x 1.7μm); Flow rate: 0.3mL/min; Mobile phase A and B are water and methnaol, respectively, both with 0.1% formic acid; Gradient elution: from A/B (95/5) to A/B (100/0) in 7min, kept for 4 min, then back to A/B (95/5) in 0.1 min, and maintained for additional 1.9 min (13min in total).; Injection volume: 10 μL
Num peaks: 71
55.05564 3101
56.03898 161
56.05761 257
56.06264 235
59.04794 133
59.05509 128
69.07012 697
70.07157 83
93.05989 74
97.10152 6785
98.10174 582
98.10687 583
99.97033 2205
99.97705 2207
99.99384 512
115.10796 148
115.1144 175
115.12844 275
131.04842 142
131.05936 136
132.96213 69
137.08835 144
140.98729 91
140.99699 103
153.05637 951
153.0685 910
154.05916 107
154.0672 100
155.78679 76
158.11499 389
158.12218 528
159.11617 118
159.12509 119
160.98624 97
169.05882 96
169.07262 90
170.07265 74
170.08047 108
170.09152 118
171.06975 1175
171.09773 172
180.0791 82
188.08447 71
188.09532 73
196.04076 81
196.0665 891
201.11601 99
207.59641 343
207.60953 352
208.66237 68
213.08488 103
214.07388 694
215.0681 95
215.08351 80
217.10687 105
218.06644 107
218.07777 134
219.12187 230
219.13977 240
229.03008 124
229.04666 142
229.06483 88
230.05069 180
230.05904 201
232.09142 1003
234.07486 81
238.59344 114
242.11861 388
247.05757 71
248.04527 80
257.08087 3265
Name: Meprobamate
PrecursorMZ: 459.2408
PrecursorType: [2M+Na]+
IonMode: Positive
Formula: C9H18N2O4
SMILES: CCCC(C)(COC(=O)N)COC(=O)N
InChI: 
InChIKey: NPPQSCRMBWNHMW-UHFFFAOYSA-N
RetentionTime: 5.162133
CCS: 
CollisionEnergy: 20-40 eV
InstrumentType: UPLC-QTOF-MS
Comment: PI: Cristina Nerin; Data collector: QiZhi Su, GUIA, University of Zaragoza, Spain; Collision energy: 20-40 V; Instrument: Waters HPLC-QTOF-MS (Xevo G2 QTof); Ionization: ESI; Deconvoluted by MS-DIAL; Column: Waters AtlantisTM premier BEH C18 AX column (2.1 × 100mm x 1.7μm); Flow rate: 0.3mL/min; Mobile phase A and B are water and methnaol, respectively, both with 0.1% formic acid; Gradient elution: from A/B (95/5) to A/B (100/0) in 7min, kept for 4 min, then back to A/B (95/5) in 0.1 min, and maintained for additional 1.9 min (13min in total).; Injection volume: 10 μL
Num peaks: 89
55.05564 3101
56.03898 161
56.05761 257
56.06264 235
59.04794 133
59.05509 128
69.07012 697
70.07157 83
93.05989 74
97.10152 6785
98.10174 582
98.10687 583
99.97033 2205
99.97705 2207
99.99384 512
115.10796 148
115.1144 175
115.12844 275
131.04842 142
131.05936 136
132.96213 69
137.08835 144
140.98729 91
140.99699 103
153.05637 951
153.0685 910
154.05916 107
154.0672 100
155.78679 76
158.11499 389
158.12218 528
159.11617 118
159.12509 119
160.98624 97
169.05882 96
169.07262 90
170.07265 74
170.08047 108
170.09152 118
171.06975 1175
171.09773 172
180.0791 82
188.08447 71
188.09532 73
196.04076 81
196.0665 891
201.11601 99
207.59641 343
207.60953 352
208.66237 68
213.08488 103
214.07388 694
215.0681 95
215.08351 80
217.10687 105
218.06644 107
218.07777 134
219.12187 230
219.13977 240
229.03008 124
229.04666 142
229.06483 88
230.05069 180
230.05904 201
232.09142 1003
234.07486 81
238.59344 114
242.11861 388
247.05757 71
248.04527 80
257.08087 1494
259.0817 79
261.06693 290
261.07794 227
261.08914 163
275.09106 1276
293.04062 73
303.17099 165
318.09457 308
335.07175 97
346.18692 188
347.16913 103
347.18887 83
355.10309 95
370.0787 102
389.1824 164
389.19897 171
432.20316 78
459.64911 70
Name: "7,10,13,16,19-Docosapentaenoic acid, methyl ester, (7Z,10Z,13Z,16Z,19Z)-"
PrecursorMZ: 345.2782
PrecursorType: [M+H]+
IonMode: Positive
Formula: C23H36O2
SMILES: CCC=CCC=CCC=CCC=CCC=CCCCCCC(=O)OC
InChI: 
InChIKey: PTFHIRHGARALFY-JEBPEJKESA-N
RetentionTime: 8.641334
CCS: 
CollisionEnergy: 20-40 eV
InstrumentType: UPLC-QTOF-MS
Comment: PI: Cristina Nerin; Data collector: QiZhi Su, GUIA, University of Zaragoza, Spain; Collision energy: 20-40 V; Instrument: Waters HPLC-QTOF-MS (Xevo G2 QTof); Ionization: ESI; Deconvoluted by MS-DIAL; Column: Waters AtlantisTM premier BEH C18 AX column (2.1 × 100mm x 1.7μm); Flow rate: 0.3mL/min; Mobile phase A and B are water and methnaol, respectively, both with 0.1% formic acid; Gradient elution: from A/B (95/5) to A/B (100/0) in 7min, kept for 4 min, then back to A/B (95/5) in 0.1 min, and maintained for additional 1.9 min (13min in total).; Injection volume: 10 μL
Num peaks: 486
56.05037 71
56.05971 71
59.05509 84
67.05479 1843
67.06451 1888
67.09988 60
68.04952 230
71.0483 68
71.05661 83
73.02745 656
73.04565 1157
73.05006 1132
73.06355 1233
73.08321 153
74.66367 92
75.05089 67
77.01715 144
77.02231 317
77.04137 57
78.03054 56
78.04385 54
79.0537 704
80.03724 62
80.05087 175
80.05958 167
83.0869 1512
83.09144 1512
84.08629 160
84.09462 162
85.02475 97
85.03312 94
85.06363 227
85.07104 155
85.07508 190
87.0369 142
87.04398 142
87.06721 54
88.07374 122
91.05476 2620
92.04845 416
92.05824 330
92.07425 269
93.07062 2785
95.01984 55
95.04983 118
95.06482 130
95.10783 261
96.0603 54
96.08466 303
96.09315 299
96.09812 302
98.09557 66
98.10506 78
98.98668 95
100.11307 65
100.12473 67
103.04524 81
103.05385 105
104.05128 87
105.07072 1963
105.0769 1996
106.01867 404
106.02767 394
106.03329 429
106.04798 471
106.06497 349
106.07533 406
106.08656 411
107.01883 60
107.02835 94
107.04738 197
107.05448 218
107.08594 512
107.10211 379
108.07911 381
108.08741 380
108.09492 376
109.06203 108
109.06698 160
109.10126 747
110.07378 71
111.07945 468
111.08537 472
113.04223 85
113.95638 87
113.97831 88
115.01852 64
115.05606 303
116.05714 100
116.06933 111
117.07043 544
117.09061 703
118.07667 88
118.08954 105
119.08538 5327
119.1017 5114
120.08356 638
120.09317 188
121.02586 76
121.03413 84
121.10111 777
122.0835 64
122.10555 179
123.04126 81
123.07729 272
123.08186 272
124.04015 144
124.04756 130
124.07003 109
124.11457 130
124.12254 128
125.00558 76
125.01338 57
127.06504 122
127.07838 103
127.09483 85
127.10633 73
127.11789 66
127.95452 68
128.05754 119
128.0743 84
129.05615 156
129.07176 249
129.09467 165
130.07657 334
130.08727 329
131.0847 1584
131.10811 904
132.07608 292
132.09113 374
133.08447 2578
133.10179 1705
134.06914 64
134.0865 364
135.05339 153
135.06381 493
135.07693 475
135.08333 420
135.09181 409
136.07724 66
137.00694 89
137.01648 78
137.05339 95
138.1246 118
138.13237 102
138.13812 72
139.07254 65
140.11067 66
142.07649 236
142.09496 163
143.08356 416
144.07098 234
144.08899 281
145.00276 119
145.01115 126
145.06976 59
145.09966 1354
145.12236 704
146.0807 93
147.06744 582
147.08379 417
147.11685 1372
148.05244 113
148.06409 185
148.07487 162
148.08092 170
148.09041 197
148.11937 418
148.131 413
149.02019 799
149.02744 782
149.05069 64
149.06311 88
149.09512 166
149.10716 287
150.09685 107
151.0509 55
152.03766 73
152.04626 72
153.04117 131
153.05017 139
153.05806 150
155.01407 67
155.0321 73
155.07025 243
155.08405 364
155.09419 279
155.10931 80
157.08951 330
157.10028 338
157.10881 202
158.1071 66
159.11853 887
160.04401 56
160.11053 271
160.12111 253
161.08838 89
161.09991 138
161.13318 435
163.06009 208
163.0708 207
163.08005 235
163.11127 191
163.12198 160
165.09512 329
165.11443 68
166.0706 106
166.09389 153
166.10869 261
167.1346 138
167.14304 120
167.15254 124
168.0759 63
169.09386 203
169.10492 337
169.12303 203
169.13086 107
169.16006 65
170.10571 101
171.10155 614
171.11232 375
171.11909 481
171.13768 390
172.1158 85
173.08678 144
173.09671 124
173.13231 587
173.14545 509
174.11295 74
174.1376 188
175.05629 57
175.10757 205
175.14694 766
176.02628 67
176.08891 211
176.09628 227
176.1071 247
176.11803 235
176.13727 372
176.15289 247
178.12242 75
179.03268 56
179.05197 111
179.07497 130
179.10887 59
179.17543 87
179.1877 55
180.0692 54
180.10413 69
180.1118 67
181.05325 76
181.12454 60
182.09946 69
182.11327 68
183.06184 85
183.08998 83
183.13971 84
184.03011 63
184.07271 65
184.08939 112
184.10725 108
185.07175 89
186.11977 101
188.10599 82
188.14609 145
188.15517 139
189.12914 343
189.1647 684
191.02377 60
192.11415 1775
192.61362 524
192.62198 520
193.08804 94
193.15981 71
194.03069 80
194.10675 88
195.02972 57
195.06706 78
195.09744 148
195.11664 103
196.10136 96
197.13423 66
197.14308 68
197.16472 58
199.09927 76
199.12305 207
199.14948 396
200.14575 108
200.15997 113
202.17641 117
204.18341 91
205.15988 82
207.02534 661
207.03555 653
207.11128 82
208.03981 226
208.06071 88
208.12904 74
208.13768 87
209.13049 74
209.14662 199
209.16139 131
210.11528 58
210.14452 101
210.16084 69
211.1418 124
211.15147 265
211.16412 339
213.1391 128
213.18715 162
214.15631 59
215.1322 153
215.14723 159
217.13127 80
217.14592 314
217.15582 318
217.17493 157
217.1971 85
218.19775 101
219.17236 105
221.08502 843
221.10423 275
221.11761 210
221.13388 149
221.14766 216
221.18967 88
222.05096 90
222.07347 354
222.08376 297
222.15526 61
222.16591 55
223.02428 71
223.05789 863
223.06688 812
223.08281 826
223.1328 122
224.06183 217
224.07274 187
225.03398 87
225.05331 200
225.07321 156
225.15923 58
225.19374 97
227.09161 64
227.13322 65
227.15274 78
229.14311 121
229.15652 124
229.19395 237
231.21323 119
231.22726 96
233.15651 114
233.1949 194
233.22108 63
233.23401 68
235.04825 72
235.06061 79
235.16809 189
235.18623 78
235.1985 62
238.09378 738
238.15668 86
239.10732 150
239.17126 206
239.18205 133
239.19197 192
245.17955 54
248.17722 72
249.11974 57
249.1781 211
250.10339 113
250.15805 97
250.17827 103
250.19093 80
250.96701 56
251.12877 67
251.14854 115
251.1655 91
251.17526 117
251.2301 107
251.24117 61
253.17525 105
253.20134 118
253.20963 145
254.14253 72
256.25296 61
256.26639 66
258.11514 76
261.16571 143
261.17807 263
261.20197 347
261.21173 220
262.19046 72
263.22137 325
265.01614 80
265.02832 61
266.24176 54
267.21347 56
267.99554 224
270.10867 130
271.11432 428
271.20535 152
271.21469 163
273.1575 60
275.21747 229
275.24673 86
275.26785 56
277.11536 111
277.13007 92
277.22537 121
279.12994 62
279.17178 88
281.05066 586
282.05505 626
282.12036 70
282.26443 78
282.28152 180
283.0419 129
283.05951 294
283.26773 155
284.05545 183
284.12122 106
284.13626 118
284.28888 76
284.31445 71
285.1481 60
295.15018 54
295.21716 343
296.10251 143
296.12302 130
296.22693 76
297.08841 216
297.2001 79
297.31177 61
297.33102 55
298.07507 154
298.08502 159
304.06046 91
304.07791 71
305.06308 89
307.1311 93
307.15109 64
307.29874 79
307.31387 63
309.3334 95
310.14151 228
310.16083 335
311.14883 320
311.16815 404
313.0773 128
313.09799 135
313.29044 108
317.22217 93
317.23947 119
317.27618 92
319.18982 58
321.16187 61
321.17648 89
321.20651 126
323.14978 58
323.18527 60
323.20667 71
324.96881 65
324.9899 117
326.16141 60
326.95773 82
327.28604 74
332.28455 62
333.21161 68
333.28171 77
335.16562 65
335.26288 69
336.25122 122
337.16461 97
337.18494 76
338.26071 62
338.27576 84
339.2529 84
339.26855 68
341.01691 2176
341.33578 91
343.01434 467
343.26666 69
344.01328 94
344.03952 64
345.27612 2587
Name: "7,10,13,16,19-Docosapentaenoic acid, methyl ester, (7Z,10Z,13Z,16Z,19Z)-"
PrecursorMZ: 362.3045
PrecursorType: [M+NH4]+
IonMode: Positive
Formula: C23H36O2
SMILES: CCC=CCC=CCC=CCC=CCC=CCCCCCC(=O)OC
InChI: 
InChIKey: PTFHIRHGARALFY-JEBPEJKESA-N
RetentionTime: 8.641334
CCS: 
CollisionEnergy: 20-40 eV
InstrumentType: UPLC-QTOF-MS
Comment: PI: Cristina Nerin; Data collector: QiZhi Su, GUIA, University of Zaragoza, Spain; Collision energy: 20-40 V; Instrument: Waters HPLC-QTOF-MS (Xevo G2 QTof); Ionization: ESI; Deconvoluted by MS-DIAL; Column: Waters AtlantisTM premier BEH C18 AX column (2.1 × 100mm x 1.7μm); Flow rate: 0.3mL/min; Mobile phase A and B are water and methnaol, respectively, both with 0.1% formic acid; Gradient elution: from A/B (95/5) to A/B (100/0) in 7min, kept for 4 min, then back to A/B (95/5) in 0.1 min, and maintained for additional 1.9 min (13min in total).; Injection volume: 10 μL
Num peaks: 467
55.07418 211
56.05037 71
56.05971 71
59.0485 62
59.05509 84
67.05479 1876
67.06451 1977
67.09988 60
68.04952 230
71.0483 213
71.05661 224
72.07992 91
72.09042 62
73.02745 656
73.04565 1157
73.05006 1001
73.06355 1117
73.08321 272
74.0478 75
74.06102 230
74.66367 92
75.05089 67
77.01715 144
77.02231 317
77.04137 179
79.0537 653
80.03724 62
80.05087 146
80.05958 155
81.07045 653
81.08404 665
83.0869 1512
83.09144 1512
84.08629 160
84.09462 162
84.93738 54
85.06363 397
85.07104 301
85.07508 315
87.0369 142
87.04398 142
88.07374 122
91.05476 2609
92.04845 504
92.05824 399
92.07425 315
93.07062 3201
95.01984 59
95.04983 119
95.06482 130
95.10783 261
96.0603 54
96.08466 370
96.09315 345
96.09812 343
98.10506 78
98.98668 160
100.12473 57
101.05703 133
101.06649 108
103.04524 81
103.05385 105
104.05128 87
104.10542 70
105.07072 1861
105.0769 1898
106.01867 336
106.02767 266
106.03329 167
106.04798 471
106.06497 391
106.07533 449
106.08656 447
107.02835 94
107.04738 197
107.05448 218
107.08594 882
107.10211 777
108.07911 381
108.08741 380
108.09492 376
109.10126 925
110.05442 57
110.07378 71
111.07945 468
111.08537 472
113.04223 85
113.95638 87
113.97831 88
115.01852 62
115.03955 76
115.05606 303
116.05714 100
116.06933 111
117.07043 176
117.09061 703
119.08538 5327
119.1017 5194
120.08356 73
120.09317 268
121.02586 76
121.03413 84
121.06318 103
121.10111 1677
122.0835 64
122.10555 105
123.04126 65
123.07729 272
123.08186 272
124.04015 144
124.04756 130
124.07003 109
124.11457 130
124.12254 128
125.00558 76
125.01338 57
127.06504 122
127.07838 103
127.09483 85
127.10633 73
127.11789 70
127.95452 68
128.05754 237
128.0743 212
129.05615 312
129.07176 423
129.09467 308
130.07657 334
131.0847 1989
131.10811 904
132.07608 145
132.09113 324
133.08447 2247
133.10179 1103
134.06914 64
134.0865 205
135.05339 153
135.06381 493
135.07693 475
135.08333 437
135.09181 409
135.11769 364
137.00694 89
137.01648 78
137.05339 95
138.1246 118
138.13237 108
138.13812 90
139.07254 57
140.11067 66
142.07649 236
142.09496 163
143.08356 160
144.07098 234
144.08899 227
145.00276 94
145.01115 98
145.09966 1080
145.12236 704
146.0807 93
147.11685 1553
148.05244 113
148.06409 152
148.07487 105
148.08092 170
148.09041 188
148.11937 370
148.131 368
149.02744 159
149.05069 64
149.06311 88
149.09512 171
149.10716 225
149.13301 268
150.09685 111
152.03766 73
153.04117 131
153.05017 139
153.05806 150
155.01407 67
155.0321 72
157.08951 146
157.10028 168
157.10881 80
159.11853 989
160.04401 56
160.11053 263
160.12111 243
161.08838 75
161.09991 89
163.11127 288
165.08897 161
165.09512 112
166.0706 106
166.09389 89
166.10869 261
167.1346 138
167.14304 120
167.15254 124
169.09386 61
169.10492 232
169.12303 203
169.13086 107
169.16006 75
171.10155 650
171.11232 541
171.11909 673
171.13768 390
172.1158 102
173.02074 69
173.13231 518
173.14545 380
174.11295 74
174.1376 188
175.09807 163
175.10757 342
175.14694 397
176.01025 109
176.02628 90
176.08891 211
176.09628 227
176.1071 247
176.11803 235
176.13727 288
176.15289 94
178.12242 75
179.03268 56
179.05197 111
179.07497 113
179.10887 54
179.17543 87
179.1877 55
180.0692 54
180.10413 69
180.1118 78
181.05325 60
182.09946 69
182.11327 68
183.04762 55
183.06184 85
183.08998 83
183.13971 68
184.03011 63
184.07271 65
184.08939 112
184.10725 130
185.07175 89
186.11977 101
188.14609 145
188.15517 145
189.12914 343
189.1647 495
191.02377 60
192.11415 1352
192.61362 378
192.62198 383
193.08804 105
193.15981 71
194.10675 87
195.02972 57
195.05753 76
195.06706 101
195.09744 148
195.11664 103
195.13815 103
196.10136 96
197.16472 58
199.04446 66
199.09927 76
199.12305 134
199.14948 359
200.14575 108
200.15997 113
202.17641 117
207.02534 304
207.03555 216
208.03981 172
208.06071 88
208.12904 74
208.13768 87
209.13049 131
209.14662 199
209.16139 111
210.14452 101
211.1418 175
211.15147 283
211.16412 339
213.12331 68
213.1391 128
213.18715 162
214.15631 57
215.1322 153
215.14723 159
217.112 78
217.13127 113
217.14592 314
217.15582 318
217.17493 156
217.1971 166
218.19775 101
219.17236 179
221.11761 210
221.13388 196
221.14766 149
222.05096 90
223.02428 71
223.05789 309
223.06688 593
223.08281 704
223.1328 122
224.06183 72
225.03398 87
225.05331 200
225.07321 156
225.15923 130
225.19374 97
227.09161 64
227.13322 65
227.15274 78
229.14311 106
229.19395 237
231.21323 119
231.22726 96
233.15651 114
233.17563 124
233.1949 194
233.22108 63
233.23401 68
235.04825 72
235.06061 79
235.16809 74
235.1985 62
236.06187 59
238.09378 738
238.15668 79
239.10732 150
239.17126 216
239.18205 176
239.19197 192
240.1882 64
245.17955 54
247.1232 65
247.13747 78
248.17722 72
248.97244 65
248.98427 77
249.11974 57
249.1781 197
249.22226 87
250.10339 113
250.15805 97
250.96701 56
251.12877 67
251.14854 115
251.1655 91
251.17526 117
251.2301 107
251.24117 61
252.10147 84
253.17525 105
253.20134 133
253.20963 145
254.14253 72
256.25296 61
256.26639 66
258.11514 76
261.16571 143
261.17807 223
261.20197 347
261.21173 220
262.19046 72
263.22137 325
265.01614 101
265.02832 91
265.16504 124
265.17722 110
265.25189 69
265.26105 67
266.24176 54
267.20291 73
267.21347 98
270.10867 2219
270.12039 2180
271.11432 133
271.20535 138
271.21469 163
273.1575 69
275.21747 274
275.2326 84
275.24673 86
275.26785 56
277.11536 111
279.12994 62
279.17178 88
279.21353 257
280.20511 91
282.05505 494
282.12036 104
282.28152 180
283.26773 155
284.05545 123
284.10333 66
284.13626 55
284.31445 71
285.1481 60
295.21716 55
296.12302 130
296.22693 76
297.2001 79
297.31177 60
297.33102 62
298.07507 154
298.08502 159
304.06046 111
304.07791 90
305.06308 89
307.1311 93
307.15109 64
307.19739 61
310.14151 114
310.16083 335
311.14883 351
311.16815 482
311.3132 70
313.0773 112
313.09799 216
313.29044 108
317.22217 94
317.23947 119
317.27618 130
319.18982 58
319.25214 77
319.27707 82
321.16187 61
321.17648 89
321.20651 126
323.14978 58
323.18527 60
323.20667 71
324.96881 65
324.9899 117
326.95773 82
327.28604 74
331.28241 55
332.28455 62
333.28171 56
335.16562 65
335.26288 69
336.25122 122
338.26071 62
338.27576 84
339.2529 84
341.33578 91
343.26666 69
344.03952 64
346.28174 311
346.30219 171
349.17282 56
349.21823 62
351.2323 67
351.254 68
351.27072 79
357.27713 59
358.06955 152
358.08905 304
361.26126 105
361.28079 115
Name: Meprobamate
PrecursorMZ: 219.1344
PrecursorType: [M+H]+
IonMode: Positive
Formula: C9H18N2O4
SMILES: CCCC(C)(COC(=O)N)COC(=O)N
InChI: 
InChIKey: NPPQSCRMBWNHMW-UHFFFAOYSA-N
RetentionTime: 5.165933
CCS: 
CollisionEnergy: 20-40 eV
InstrumentType: UPLC-QTOF-MS
Comment: PI: Cristina Nerin; Data collector: QiZhi Su, GUIA, University of Zaragoza, Spain; Collision energy: 20-40 V; Instrument: Waters HPLC-QTOF-MS (Xevo G2 QTof); Ionization: ESI; Deconvoluted by MS-DIAL; Column: Waters AtlantisTM premier BEH C18 AX column (2.1 × 100mm x 1.7μm); Flow rate: 0.3mL/min; Mobile phase A and B are water and methnaol, respectively, both with 0.1% formic acid; Gradient elution: from A/B (95/5) to A/B (100/0) in 7min, kept for 4 min, then back to A/B (95/5) in 0.1 min, and maintained for additional 1.9 min (13min in total).; Injection volume: 10 μL
Num peaks: 43
55.05483 3101
56.06103 181
59.0481 133
59.05331 128
69.07039 764
70.07167 69
70.0778 69
93.06213 74
97.1013 6785
98.10133 582
98.11102 583
99.97141 2205
115.11141 174
116.99679 109
131.04857 142
131.06117 123
137.08955 89
139.03748 70
139.05136 73
140.99617 103
141.00708 86
153.05989 940
154.06519 103
158.1176 539
158.12521 544
159.12073 118
159.13036 119
160.98689 96
160.99811 87
170.08109 108
171.06831 1175
171.07947 1195
188.09784 73
196.06377 884
201.08427 98
207.59741 258
207.60707 289
214.07613 686
215.07053 95
217.105 236
218.07565 134
219.12628 85
219.13831 210
Name: "7,10,13,16,19-Docosapentaenoic acid, methyl ester, (7Z,10Z,13Z,16Z,19Z)-"
PrecursorMZ: 367.2603
PrecursorType: [M+Na]+
IonMode: Positive
Formula: C23H36O2
SMILES: CCC=CCC=CCC=CCC=CCC=CCCCCCC(=O)OC
InChI: 
InChIKey: PTFHIRHGARALFY-JEBPEJKESA-N
RetentionTime: 8.641334
CCS: 
CollisionEnergy: 20-40 eV
InstrumentType: UPLC-QTOF-MS
Comment: PI: Cristina Nerin; Data collector: QiZhi Su, GUIA, University of Zaragoza, Spain; Collision energy: 20-40 V; Instrument: Waters HPLC-QTOF-MS (Xevo G2 QTof); Ionization: ESI; Deconvoluted by MS-DIAL; Column: Waters AtlantisTM premier BEH C18 AX column (2.1 × 100mm x 1.7μm); Flow rate: 0.3mL/min; Mobile phase A and B are water and methnaol, respectively, both with 0.1% formic acid; Gradient elution: from A/B (95/5) to A/B (100/0) in 7min, kept for 4 min, then back to A/B (95/5) in 0.1 min, and maintained for additional 1.9 min (13min in total).; Injection volume: 10 μL
Num peaks: 477
55.07418 211
56.05037 71
56.05971 71
59.0485 62
59.05509 84
67.05479 1876
67.06451 1977
67.09988 60
68.04952 230
71.0483 213
71.05661 224
72.07992 91
72.09042 62
73.02745 656
73.04565 1157
73.05006 1001
73.06355 1118
73.08321 272
74.0478 75
74.06102 230
74.66367 92
75.05089 67
77.01715 144
77.02231 317
77.04137 179
79.0537 653
80.03724 62
80.05087 146
80.05958 155
81.07045 653
81.08404 665
83.0869 1512
83.09144 1512
84.08629 160
84.09462 162
84.93738 54
85.06363 397
85.07104 301
85.07508 315
87.0369 142
87.04398 142
88.07374 122
91.05476 2609
92.04845 504
92.05824 399
92.07425 315
93.07062 3202
95.01984 59
95.04983 119
95.06482 130
95.10783 261
96.0603 54
96.08466 370
96.09315 345
96.09812 343
98.10506 78
98.98668 160
100.12473 57
101.05703 133
101.06649 108
103.04524 81
103.05385 105
104.05128 87
104.10542 70
105.07072 1861
105.0769 1898
106.01867 336
106.02767 266
106.03329 167
106.04798 471
106.06497 391
106.07533 449
106.08656 447
107.02835 94
107.04738 197
107.05448 218
107.08594 882
107.10211 777
108.07911 381
108.08741 380
108.09492 376
109.10126 925
110.05442 57
110.07378 71
111.07945 468
111.08537 472
113.04223 85
113.95638 87
113.97831 88
115.01852 62
115.03955 76
115.05606 303
116.05714 100
116.06933 111
117.07043 176
117.09061 703
119.08538 5327
119.1017 5194
120.08356 73
120.09317 268
121.02586 76
121.03413 84
121.06318 103
121.10111 1677
122.0835 64
122.10555 105
123.04126 65
123.07729 272
123.08186 272
124.04015 144
124.04756 130
124.07003 109
124.11457 130
124.12254 128
125.00558 76
125.01338 57
127.06504 122
127.07838 103
127.09483 85
127.10633 73
127.11789 70
127.95452 68
128.05754 237
128.0743 212
129.05615 312
129.07176 423
129.09467 308
130.07657 334
131.0847 1989
131.10811 904
132.07608 145
132.09113 324
133.08447 2247
133.10179 1103
134.06914 64
134.0865 205
135.05339 153
135.06381 493
135.07693 475
135.08333 437
135.09181 409
135.11769 364
137.00694 89
137.01648 78
137.05339 95
138.1246 118
138.13237 108
138.13812 90
139.07254 57
140.11067 66
142.07649 236
142.09496 163
143.08356 161
144.07098 234
144.08899 227
145.00276 94
145.01115 98
145.09966 1080
145.12236 704
146.0807 93
147.11685 1553
148.05244 113
148.06409 152
148.07487 105
148.08092 170
148.09041 188
148.11937 370
148.131 368
149.02744 161
149.05069 64
149.06311 88
149.09512 171
149.10716 225
149.13301 268
150.09685 111
152.03766 73
153.04117 131
153.05017 139
153.05806 150
155.01407 67
155.0321 72
157.08951 146
157.10028 168
157.10881 80
159.11853 989
160.04401 56
160.11053 263
160.12111 243
161.08838 75
161.09991 89
163.11127 288
165.08897 161
165.09512 112
166.0706 106
166.09389 89
166.10869 261
167.1346 138
167.14304 120
167.15254 124
169.09386 61
169.10492 232
169.12303 203
169.13086 107
169.16006 75
171.10155 650
171.11232 541
171.11909 673
171.13768 390
172.1158 102
173.02074 69
173.13231 518
173.14545 380
174.11295 74
174.1376 188
175.09807 164
175.10757 342
175.14694 397
176.01025 109
176.02628 90
176.08891 211
176.09628 227
176.1071 247
176.11803 235
176.13727 288
176.15289 94
178.12242 75
179.03268 56
179.05197 111
179.07497 113
179.10887 54
179.17543 87
179.1877 55
180.0692 54
180.10413 69
180.1118 78
181.05325 60
182.09946 69
182.11327 68
183.04762 55
183.06184 85
183.08998 83
183.13971 68
184.03011 63
184.07271 65
184.08939 112
184.10725 130
185.07175 89
186.11977 101
188.14609 145
188.15517 145
189.12914 343
189.1647 495
191.02377 60
192.11415 1352
192.61362 378
192.62198 383
193.08804 105
193.15981 71
194.10675 87
195.02972 57
195.05753 76
195.06706 101
195.09744 148
195.11664 103
195.13815 103
196.10136 96
197.16472 58
199.04446 66
199.09927 76
199.12305 134
199.14948 359
200.14575 108
200.15997 113
202.17641 117
207.02534 304
207.03555 216
208.03981 172
208.06071 88
208.12904 74
208.13768 87
209.13049 131
209.14662 199
209.16139 111
210.14452 101
211.1418 175
211.15147 283
211.16412 339
213.12331 68
213.1391 128
213.18715 162
214.15631 57
215.1322 153
215.14723 159
217.112 78
217.13127 113
217.14592 314
217.15582 318
217.17493 156
217.1971 166
218.19775 101
219.17236 179
221.11761 210
221.13388 196
221.14766 149
222.05096 90
223.02428 71
223.05789 310
223.06688 593
223.08281 704
223.1328 122
224.06183 72
225.03398 87
225.05331 200
225.07321 156
225.15923 130
225.19374 97
227.09161 64
227.13322 65
227.15274 78
229.14311 106
229.19395 237
231.21323 119
231.22726 96
233.15651 114
233.17563 124
233.1949 194
233.22108 63
233.23401 68
235.04825 72
235.06061 79
235.16809 74
235.1985 62
236.06187 59
238.09378 738
238.15668 79
239.10732 150
239.17126 216
239.18205 176
239.19197 192
240.1882 64
245.17955 54
247.1232 65
247.13747 78
248.17722 72
248.97244 65
248.98427 77
249.11974 57
249.1781 197
249.22226 87
250.10339 113
250.15805 97
250.96701 56
251.12877 67
251.14854 115
251.1655 91
251.17526 117
251.2301 107
251.24117 61
252.10147 84
253.17525 105
253.20134 133
253.20963 145
254.14253 72
256.25296 61
256.26639 66
258.11514 76
261.16571 143
261.17807 223
261.20197 347
261.21173 220
262.19046 72
263.22137 325
265.01614 101
265.02832 91
265.16504 124
265.17722 110
265.25189 69
265.26105 67
266.24176 54
267.20291 73
267.21347 98
270.10867 2219
270.12039 2180
271.11432 133
271.20535 138
271.21469 163
273.1575 69
275.21747 274
275.2326 84
275.24673 86
275.26785 56
277.11536 111
279.12994 62
279.17178 88
279.21353 257
280.20511 91
282.05505 494
282.12036 104
283.26773 155
284.05545 123
284.10333 66
284.13626 55
284.31445 71
285.1481 60
295.21716 55
296.12302 130
296.22693 76
297.2001 79
297.31177 60
297.33102 62
298.07507 154
298.08502 159
304.06046 110
304.07791 90
305.06308 89
307.1311 93
307.15109 64
307.19739 61
310.14151 114
310.16083 335
311.14883 351
311.16815 482
311.3132 70
313.0773 112
313.09799 216
313.29044 108
317.22217 94
317.23947 119
317.27618 130
319.18982 58
319.25214 77
319.27707 82
321.16187 61
321.17648 89
321.20651 126
323.14978 58
323.18527 60
323.20667 71
324.96881 65
324.9899 117
326.95773 82
327.28604 74
331.28241 55
332.28455 62
333.28171 56
335.16562 65
335.26288 69
336.25122 122
338.26071 62
338.27576 84
339.2529 84
341.33578 91
343.26666 69
344.03952 64
346.28174 311
346.30219 171
349.17282 56
349.21823 62
351.2323 67
351.254 68
351.27072 79
357.27713 59
358.06955 152
358.08905 304
361.26126 105
361.28079 115
363.22391 78
363.28085 84
364.27328 63
365.16977 67
365.18854 106
365.23544 110
365.25504 159
365.27692 61
367.26108 191
367.28711 58
367.31161 99
Name: "7,10,13,16,19-Docosapentaenoic acid, methyl ester, (7Z,10Z,13Z,16Z,19Z)-"
PrecursorMZ: 383.2334
PrecursorType: [M+K]+
IonMode: Positive
Formula: C23H36O2
SMILES: CCC=CCC=CCC=CCC=CCC=CCCCCCC(=O)OC
InChI: 
InChIKey: PTFHIRHGARALFY-JEBPEJKESA-N
RetentionTime: 8.641334
CCS: 
CollisionEnergy: 20-40 eV
InstrumentType: UPLC-QTOF-MS
Comment: PI: Cristina Nerin; Data collector: QiZhi Su, GUIA, University of Zaragoza, Spain; Collision energy: 20-40 V; Instrument: Waters HPLC-QTOF-MS (Xevo G2 QTof); Ionization: ESI; Deconvoluted by MS-DIAL; Column: Waters AtlantisTM premier BEH C18 AX column (2.1 × 100mm x 1.7μm); Flow rate: 0.3mL/min; Mobile phase A and B are water and methnaol, respectively, both with 0.1% formic acid; Gradient elution: from A/B (95/5) to A/B (100/0) in 7min, kept for 4 min, then back to A/B (95/5) in 0.1 min, and maintained for additional 1.9 min (13min in total).; Injection volume: 10 μL
Num peaks: 510
56.05037 71
56.05971 71
67.05479 1793
67.06451 1870
67.09988 60
68.04952 230
71.0483 152
71.05661 170
73.02745 656
73.04565 1157
73.05006 1132
73.06355 1233
73.08321 209
74.06102 121
74.66367 92
75.05089 67
77.01715 144
77.02231 317
77.04137 136
78.03054 56
79.0537 664
80.03724 62
80.05087 171
80.05958 167
81.07045 98
81.08404 109
83.0869 1512
83.09144 1512
84.08629 160
84.09462 162
85.06363 316
85.07104 234
85.07508 262
87.0369 142
87.04398 142
88.07374 122
91.05476 2601
92.04845 474
92.05824 378
92.07425 305
93.07062 2895
95.01984 55
95.04983 118
95.06482 130
95.10783 261
96.0603 54
96.08466 354
96.09315 336
96.09812 338
98.09557 66
98.10506 78
98.98668 160
103.04524 81
103.05385 105
104.05128 87
104.10542 61
105.07072 1933
105.0769 1969
106.01867 404
106.02767 394
106.03329 429
106.04798 471
106.06497 394
106.07533 449
106.08656 447
107.01883 60
107.02835 94
107.04738 197
107.05448 218
107.08594 598
107.10211 507
108.07911 381
108.08741 380
108.09492 376
109.06203 69
109.06698 111
109.10126 761
110.07378 71
111.07945 468
111.08537 472
113.04223 85
113.95638 87
113.97831 88
115.01852 64
115.03955 56
115.05606 303
116.05714 100
116.06933 111
117.07043 410
117.09061 703
119.08538 5327
119.1017 5144
120.09317 222
121.02586 76
121.03413 84
121.06318 64
121.10111 1128
122.0835 64
122.10555 124
123.04126 81
123.07729 272
123.08186 272
124.04015 144
124.04756 130
124.07003 109
124.11457 130
124.12254 128
125.00558 76
125.01338 57
127.06504 122
127.07838 103
127.09483 85
127.10633 73
127.11789 60
127.95452 68
128.05754 204
128.0743 169
129.05615 240
129.07176 334
129.09467 223
130.07657 334
130.08727 329
131.0847 1823
131.10811 904
132.07608 220
132.09113 350
133.08447 2453
133.10179 1369
134.06914 64
134.0865 276
135.05339 153
135.06381 493
135.07693 475
135.08333 427
135.09181 409
137.00694 89
137.01648 78
137.05339 95
138.1246 118
138.13237 108
138.13812 78
139.07254 74
140.11067 66
142.07649 236
142.09496 163
143.08356 301
144.07098 234
144.08899 259
145.00276 119
145.01115 118
145.09966 1211
145.12236 704
146.0807 93
147.06744 534
147.11685 1488
148.05244 113
148.06409 185
148.07487 162
148.08092 170
148.09041 197
148.11937 413
148.131 409
149.02019 799
149.02744 782
149.05069 64
149.06311 88
149.09512 170
149.10716 257
150.09685 111
151.0509 55
152.03766 73
153.04117 131
153.05017 139
153.05806 150
155.01407 67
155.0321 73
155.07025 149
155.08405 207
157.08951 229
157.10028 232
157.10881 121
158.1071 67
159.11853 962
160.04401 56
160.11053 271
160.12111 253
161.08838 78
161.09991 111
161.13318 234
163.11127 231
163.12198 70
165.08897 95
166.0706 106
166.09389 118
166.10869 261
167.1346 138
167.14304 120
167.15254 124
168.0759 63
169.09386 148
169.10492 301
169.12303 203
169.13086 107
169.16006 75
170.10571 74
171.10155 650
171.11232 455
171.11909 591
171.13768 390
172.1158 102
173.08678 82
173.13231 555
173.14545 455
174.11295 74
174.1376 188
175.09807 106
175.10757 319
175.14694 589
176.01025 65
176.02628 73
176.08891 211
176.09628 227
176.1071 247
176.11803 235
176.13727 372
176.15289 187
178.12242 75
179.03268 56
179.05197 111
179.07497 118
179.10887 59
179.17543 87
179.1877 55
180.0692 54
180.10413 69
180.1118 78
181.05325 71
182.09946 69
182.11327 68
183.06184 85
183.08998 83
183.13971 85
184.03011 63
184.07271 65
184.08939 112
184.10725 116
185.07175 89
186.11977 101
188.14609 145
188.15517 145
189.12914 343
189.1647 615
191.02377 60
192.11415 1775
192.61362 486
192.62198 487
193.08804 105
193.15981 71
194.03069 74
194.10675 88
195.02972 57
195.05753 73
195.06706 101
195.09744 148
195.11664 103
195.13815 76
196.10136 96
197.16472 58
199.09927 76
199.12305 207
199.14948 385
200.14575 108
200.15997 113
202.17641 117
207.02534 661
207.03555 653
208.03981 200
208.06071 88
208.12904 74
208.13768 87
209.13049 131
209.14662 199
209.16139 129
210.14452 101
210.16084 69
211.1418 146
211.15147 276
211.16412 339
213.1391 128
213.18715 162
214.15631 57
215.1322 153
215.14723 159
217.112 60
217.13127 107
217.14592 314
217.15582 318
217.17493 158
217.1971 134
218.19775 101
219.17236 179
221.08502 183
221.11761 210
221.13388 164
221.14766 176
221.18967 88
222.05096 90
222.07347 308
222.08376 297
222.15526 57
222.16591 55
223.02428 71
223.05789 617
223.06688 812
223.08281 826
223.1328 122
224.06183 166
224.07274 101
225.03398 87
225.05331 200
225.07321 156
225.15923 93
225.19374 97
227.09161 64
227.13322 65
227.15274 78
229.14311 103
229.15652 73
229.19395 237
231.21323 119
231.22726 96
233.15651 114
233.1949 194
233.22108 63
235.04825 72
235.06061 79
235.16809 140
235.18623 78
235.1985 62
236.06187 59
238.09378 738
238.15668 86
239.10732 150
239.17126 216
239.18205 161
239.19197 192
245.17955 54
247.13747 78
248.17722 72
248.98427 71
249.11974 57
249.1781 201
249.22226 83
250.10339 113
250.15805 97
250.17827 80
250.96701 56
251.12877 67
251.14854 115
251.1655 91
251.17526 117
251.2301 107
251.24117 61
252.10147 81
253.17525 105
253.20134 136
253.20963 145
254.14253 72
256.25296 61
256.26639 66
258.11514 76
261.16571 143
261.17807 263
261.20197 347
261.21173 220
262.19046 72
263.22137 325
265.01614 101
265.02832 78
265.16504 94
265.17722 72
265.25189 56
266.24176 54
267.20291 58
267.21347 78
267.99554 127
270.10867 1045
270.12039 930
271.11432 428
271.20535 152
271.21469 163
273.1575 67
275.21747 259
275.2326 73
275.24673 86
275.26785 56
277.11536 111
277.13007 92
277.22537 121
279.10843 54
279.12994 62
279.17178 88
279.21353 154
280.20511 73
282.05505 626
282.12036 104
282.26443 63
282.28152 180
283.05951 99
283.26773 155
284.05545 158
284.12122 106
284.31445 71
285.1481 60
295.15018 54
295.21716 343
296.10251 89
296.12302 130
296.22693 76
297.2001 79
297.33102 61
298.07507 154
298.08502 159
304.06046 121
304.07791 111
305.06308 89
307.1311 93
307.15109 64
307.31387 63
309.3334 95
310.14151 172
310.16083 335
311.14883 351
311.16815 482
313.0773 106
313.09799 157
313.29044 108
317.22217 94
317.23947 119
317.27618 130
319.18982 58
319.25214 67
319.27707 82
321.16187 61
321.17648 89
321.20651 126
323.14978 58
323.18527 60
323.20667 71
324.96881 65
324.9899 117
326.95773 82
327.28604 74
332.28455 62
333.21161 59
333.28171 67
335.16562 65
335.26288 69
336.25122 122
337.16461 59
337.18494 76
338.26071 62
338.27576 84
339.2529 84
339.26855 68
341.01691 655
341.33578 91
343.01434 200
343.26666 69
344.01328 94
344.03952 64
346.28174 371
346.30219 171
349.17282 56
351.2323 67
351.254 68
351.27072 79
357.06766 114
358.06955 270
358.08905 304
361.26126 105
361.28079 115
363.22391 78
363.28085 71
364.27328 63
365.16977 67
365.18854 106
365.21777 87
365.23544 162
365.25504 159
367.26108 176
369.14017 88
371.10236 313
371.12909 81
372.07635 168
373.10611 499
375.27783 69
375.29791 78
375.33069 92
376.13959 54
377.2251 89
377.25128 81
377.2702 134
377.30206 62
379.22186 95
379.2312 106
379.24561 138
379.26309 94
381.19629 83
381.2254 77
Name: Theobromine
PrecursorMZ: 181.0733
PrecursorType: [M+H]+
IonMode: Positive
Formula: C7H8N4O2
SMILES: CN1C=NC2=C1C(=O)NC(=O)N2C
InChI: 
InChIKey: YAPQBXQYLJRXSA-UHFFFAOYSA-N
RetentionTime: 0.9584833
CCS: 
CollisionEnergy: 20-40 eV
InstrumentType: UPLC-QTOF-MS
Comment: PI: Cristina Nerin; Data collector: QiZhi Su, GUIA, University of Zaragoza, Spain; Collision energy: 20-40 V; Instrument: Waters HPLC-QTOF-MS (Xevo G2 QTof); Ionization: ESI; Deconvoluted by MS-DIAL; Column: Waters AtlantisTM premier BEH C18 AX column (2.1 × 100mm x 1.7μm); Flow rate: 0.3mL/min; Mobile phase A and B are water and methnaol, respectively, both with 0.1% formic acid; Gradient elution: from A/B (95/5) to A/B (100/0) in 7min, kept for 4 min, then back to A/B (95/5) in 0.1 min, and maintained for additional 1.9 min (13min in total).; Injection volume: 10 μL
Num peaks: 88
67.03126 2186
68.02412 238
68.03259 245
68.03911 239
68.05367 187
69.04533 1079
69.05138 1091
69.07033 56
70.03498 62
70.0598 62
81.01489 56
81.04328 169
82.04446 81
82.05141 85
83.06104 686
84.95656 288
84.96355 288
86.09404 60
89.05804 92
91.05398 57
93.04358 72
94.0389 396
94.04535 396
95.0231 60
95.02842 149
95.04021 209
95.04746 209
96.05605 591
97.04698 54
97.06297 56
107.01225 54
107.02666 94
107.0392 79
107.04327 73
108.05643 2590
109.03772 146
109.04379 260
109.05791 288
110.07281 2157
111.04313 143
111.05614 264
111.077 222
113.03136 189
113.03949 203
120.04391 116
120.0536 116
120.062 116
122.06006 1717
123.02686 268
123.04053 424
123.04735 471
123.05441 469
123.06429 358
133.07631 67
133.08818 68
135.06732 1750
135.08308 1795
136.06212 254
136.07196 229
137.05286 66
137.06761 1403
137.08423 1448
138.06766 3197
138.08807 194
138.94443 71
138.9527 75
138.96114 83
139.07469 340
139.08578 303
147.07706 87
147.08575 84
148.02798 136
148.03947 118
149.00871 69
149.01767 82
149.02927 82
163.06308 3364
164.06322 317
164.07074 318
164.98364 77
164.99895 86
165.02077 54
165.08588 53
176.01198 74
176.02354 67
180.0668 133
180.07616 124
181.07298 5265
Name: "Methyl cis,cis-11,14-eicosadienoate"
PrecursorMZ: 323.2937
PrecursorType: [M+H]+
IonMode: Positive
Formula: C21H38O2
SMILES: CCCCCC=CCC=CCCCCCCCCCC(=O)OC
InChI: 
InChIKey: GWJCFAOQCNNFAM-NQLNTKRDSA-N
RetentionTime: 8.98775
CCS: 
CollisionEnergy: 20-40 eV
InstrumentType: UPLC-QTOF-MS
Comment: PI: Cristina Nerin; Data collector: QiZhi Su, GUIA, University of Zaragoza, Spain; Collision energy: 20-40 V; Instrument: Waters HPLC-QTOF-MS (Xevo G2 QTof); Ionization: ESI; Deconvoluted by MS-DIAL; Column: Waters AtlantisTM premier BEH C18 AX column (2.1 × 100mm x 1.7μm); Flow rate: 0.3mL/min; Mobile phase A and B are water and methnaol, respectively, both with 0.1% formic acid; Gradient elution: from A/B (95/5) to A/B (100/0) in 7min, kept for 4 min, then back to A/B (95/5) in 0.1 min, and maintained for additional 1.9 min (13min in total).; Injection volume: 10 μL
Num peaks: 133
55.05316 323
57.07018 395
60.07933 335
67.05432 1185
69.0692 1438
69.07528 518
71.0505 350
71.08643 393
73.04688 2111
73.06559 231
77.0376 188
77.04267 213
79.05427 688
79.05862 237
81.07005 2440
83.04974 184
83.08614 1861
85.06925 318
85.09895 284
85.10367 549
89.06016 488
91.05333 311
91.05781 223
93.07191 889
95.08545 2890
96.08976 179
97.06569 409
97.07116 185
97.10168 1665
99.0854 289
105.07014 657
106.03027 1093
107.08229 411
107.08846 502
108.08755 232
109.06353 211
109.10158 1798
110.10946 206
111.0498 207
111.07915 333
111.09007 193
111.11549 501
113.09573 185
117.08775 302
117.09574 191
119.08079 297
119.08847 917
121.09908 699
121.10619 315
123.11851 809
125.09703 501
125.12814 249
133.08475 239
133.09995 513
133.10757 201
135.11903 1217
137.09515 438
137.13454 208
139.04114 493
145.09854 238
147.06519 4404
147.08075 289
147.11441 336
147.12158 240
148.06972 518
149.02007 557
149.02792 406
149.04482 526
149.06482 335
151.11139 261
153.06647 178
153.12907 310
159.11821 199
159.13025 181
161.13522 436
163.06177 700
163.11542 184
163.14742 271
164.06517 186
165.09608 708
165.1615 207
173.13397 189
175.12704 211
175.14943 378
177.16437 199
181.12019 319
189.16568 353
196.06271 203
201.13014 230
203.18202 220
207.02989 485
208.06413 343
209.04132 318
209.12212 347
215.18211 185
218.05937 203
220.09625 237
221.08623 3332
222.08121 500
222.09251 396
223.06161 995
223.07899 441
224.06206 241
235.1692 208
237.08177 4341
238.08145 565
238.10242 186
239.08063 331
265.01562 422
267.00497 432
268.1062 261
270.10495 814
270.11609 1236
271.10565 272
277.18137 187
279.16254 185
281.05084 17731
282.05267 4470
283.04922 3143
283.25607 184
284.03894 225
284.05389 406
284.09088 213
284.10428 255
295.10504 820
297.07861 192
297.09418 354
297.22977 286
298.10052 244
307.24692 755
309.24716 280
311.09171 438
323.22522 1442
Name: Theobromine
PrecursorMZ: 181.0724
PrecursorType: [M+H]+
IonMode: Positive
Formula: C7H8N4O2
SMILES: CN1C=NC2=C1C(=O)NC(=O)N2C
InChI: 
InChIKey: YAPQBXQYLJRXSA-UHFFFAOYSA-N
RetentionTime: 2.574667
CCS: 
CollisionEnergy: 20-40 eV
InstrumentType: UPLC-QTOF-MS
Comment: PI: Cristina Nerin; Data collector: QiZhi Su, GUIA, University of Zaragoza, Spain; Collision energy: 20-40 V; Instrument: Waters HPLC-QTOF-MS (Xevo G2 QTof); Ionization: ESI; Deconvoluted by MS-DIAL; Column: Waters AtlantisTM premier BEH C18 AX column (2.1 × 100mm x 1.7μm); Flow rate: 0.3mL/min; Mobile phase A and B are water and methnaol, respectively, both with 0.1% formic acid; Gradient elution: from A/B (95/5) to A/B (100/0) in 7min, kept for 4 min, then back to A/B (95/5) in 0.1 min, and maintained for additional 1.9 min (13min in total).; Injection volume: 10 μL
Num peaks: 65
67.03028 585
68.03404 75
68.04093 74
69.04616 393
70.04651 19
72.0444 27
78.98087 24
78.98644 21
80.95093 19
81.03353 75
81.96168 37
83.0448 211
83.06219 223
84.96243 75
86.95329 19
94.04051 94
95.02814 58
95.04782 68
96.05678 176
96.06425 174
97.04511 59
97.06151 42
98.96111 32
108.05652 771
108.0721 736
109.03129 53
109.04186 80
109.06326 51
109.07119 31
110.06348 589
110.07186 595
110.08024 591
111.07255 51
111.0855 29
113.03451 72
114.0672 19
121.03191 35
122.06073 403
123.0433 105
123.05115 108
134.96312 19
135.04111 23
135.06091 441
135.07025 445
136.05058 40
136.06752 47
136.07579 30
137.08354 395
138.06549 906
138.07448 920
139.05072 53
139.07358 78
139.09039 26
145.04703 23
145.06589 19
148.03316 46
148.04086 34
163.06242 919
164.0666 62
175.02028 25
175.02702 33
176.00589 27
180.06941 57
181.07062 1893
181.08171 552
Name: Silymarin
PrecursorMZ: 483.1282
PrecursorType: [M+H]+
IonMode: Positive
Formula: C25H22O10
SMILES: COC1=C(C=CC(=C1)C2C(OC3=C(O2)C=C(C=C3)C4C(C(=O)C5=C(C=C(C=C5O4)O)O)O)CO)O
InChI: 
InChIKey: SEBFKMXJBCUCAI-WAABAYLZSA-N
RetentionTime: 5.870767
CCS: 
CollisionEnergy: 20-40 eV
InstrumentType: UPLC-QTOF-MS
Comment: PI: Cristina Nerin; Data collector: QiZhi Su, GUIA, University of Zaragoza, Spain; Collision energy: 20-40 V; Instrument: Waters HPLC-QTOF-MS (Xevo G2 QTof); Ionization: ESI; Deconvoluted by MS-DIAL; Column: Waters AtlantisTM premier BEH C18 AX column (2.1 × 100mm x 1.7μm); Flow rate: 0.3mL/min; Mobile phase A and B are water and methnaol, respectively, both with 0.1% formic acid; Gradient elution: from A/B (95/5) to A/B (100/0) in 7min, kept for 4 min, then back to A/B (95/5) in 0.1 min, and maintained for additional 1.9 min (13min in total).; Injection volume: 10 μL
Num peaks: 252
67.05271 31
68.98229 51
68.98909 52
68.99666 51
71.05165 35
78.98277 45
78.99012 45
79.0555 53
85.56689 60
91.05658 46
91.06118 46
93.06822 112
93.07558 103
95.05568 36
96.97095 33
96.97962 33
100.93257 52
101.05527 34
103.05156 71
103.06597 85
109.03247 29
109.04779 36
109.0666 51
109.09535 44
109.10198 46
110.98272 45
111.04048 126
111.05116 126
111.07051 75
118.08374 28
121.02471 53
121.03178 52
122.9559 34
123.03826 105
123.0538 89
124.05715 71
125.05978 36
125.06759 47
125.09353 65
127.03739 32
130.04242 65
130.05228 59
132.05258 93
133.06296 96
133.07013 123
133.08792 55
133.09761 58
133.11107 32
135.0434 130
135.06787 106
135.1115 48
135.12538 49
137.06035 514
139.96808 39
143.06819 43
143.08226 53
145.10316 45
147.98364 32
147.99405 42
148.04358 55
148.05508 52
149.02509 305
149.05663 48
149.06879 105
149.07657 202
150.0666 28
150.08446 152
151.04453 41
151.07256 54
152.08086 34
153.01881 1282
153.05536 31
153.07961 40
154.00188 79
154.0146 171
154.02101 163
154.02963 154
155.00163 38
157.1109 42
158.06816 35
159.04239 96
159.12256 47
161.05942 107
162.01845 29
162.03497 40
162.06686 356
162.07454 373
162.09453 203
163.06654 1079
163.0773 1010
165.05328 54
166.05914 33
167.06732 28
173.99957 101
174.00755 106
176.65068 36
177.05632 181
177.12737 39
178.05151 87
179.0327 49
179.04524 43
179.07152 70
179.07745 53
181.07855 80
181.09442 54
187.03984 54
188.98802 52
194.04137 35
195.03117 523
196.03163 55
197.04787 50
201.03502 102
201.06442 37
201.51877 50
202.04678 38
202.05962 48
203.02394 111
203.03619 111
207.08354 28
211.03973 55
211.05025 78
211.08049 33
215.11374 47
216.01866 34
216.02858 41
217.0334 44
218.04964 59
218.05997 44
218.06941 47
221.09285 41
223.03146 102
223.04178 127
223.05287 49
223.0663 116
226.05666 37
227.05145 36
227.06558 55
232.96863 31
232.98119 30
236.02722 34
237.02325 97
237.03554 116
237.05984 59
239.02118 68
239.03114 32
239.07152 146
239.09503 39
241.04535 171
241.06165 181
242.05133 156
242.06166 29
243.05806 36
243.06839 35
251.07149 157
251.08592 154
251.10849 42
252.05623 35
252.07742 98
252.09341 61
254.07129 46
255.06184 114
257.04419 512
258.05426 68
259.09482 45
269.09018 48
269.10068 60
270.05173 73
271.09824 230
271.11481 142
271.12717 45
277.08481 35
277.09839 66
279.07553 40
279.10608 28
283.05545 254
283.0889 246
283.10056 241
283.11389 207
284.08884 72
285.02014 115
285.03085 129
285.07123 40
285.09448 37
286.03281 42
286.04254 54
287.03229 38
292.10522 41
292.11884 41
296.06824 37
296.09995 34
301.06595 28
301.10339 86
301.12759 62
303.04102 43
303.05585 58
305.06711 37
311.05313 432
311.06302 387
311.08884 60
312.0679 39
322.99899 124
323.04718 97
323.06274 81
325.00229 38
325.1608 34
325.17618 34
327.08966 47
331.10544 50
336.99731 28
340.99225 41
342.08594 53
346.09058 54
350.034 55
351.06708 53
351.10181 46
358.08246 66
358.10007 44
369.07278 84
370.08173 28
373.06741 50
373.10153 62
376.08572 32
379.12411 94
392.09866 61
397.00876 33
397.05896 37
401.09732 37
407.11041 198
408.11197 47
409.11746 105
412.05896 37
415.08832 74
419.1066 158
421.12775 31
433.0712 62
433.10303 307
435.10657 323
436.10132 94
436.112 104
437.12308 268
447.07343 64
448.10428 46
457.03491 29
457.06818 43
463.10916 52
465.10648 103
465.12558 211
466.11258 142
481.09982 41
483.13058 2769
483.21307 33
483.26871 35
Name: Phenacetin
PrecursorMZ: 202.0845
PrecursorType: [M+Na]+
IonMode: Positive
Formula: C10H13NO2
SMILES: CCOC1=CC=C(C=C1)NC(=O)C
InChI: 
InChIKey: CPJSUEIXXCENMM-UHFFFAOYSA-N
RetentionTime: 5.081617
CCS: 
CollisionEnergy: 20-40 eV
InstrumentType: UPLC-QTOF-MS
Comment: PI: Cristina Nerin; Data collector: QiZhi Su, GUIA, University of Zaragoza, Spain; Collision energy: 20-40 V; Instrument: Waters HPLC-QTOF-MS (Xevo G2 QTof); Ionization: ESI; Deconvoluted by MS-DIAL; Column: Waters AtlantisTM premier BEH C18 AX column (2.1 × 100mm x 1.7μm); Flow rate: 0.3mL/min; Mobile phase A and B are water and methnaol, respectively, both with 0.1% formic acid; Gradient elution: from A/B (95/5) to A/B (100/0) in 7min, kept for 4 min, then back to A/B (95/5) in 0.1 min, and maintained for additional 1.9 min (13min in total).; Injection volume: 10 μL
Num peaks: 122
65.0395 729
66.03729 203
66.04657 211
68.05944 47
72.0772 53
80.04847 73
80.05258 73
81.07124 42
82.06552 262
82.07481 260
93.05817 705
93.07085 1126
94.03719 152
94.06226 853
96.08417 40
97.07268 97
97.07767 94
97.09083 63
99.0817 50
99.08994 52
100.06939 110
100.07646 124
103.95074 43
104.51361 81
104.52245 80
105.07098 965
106.06501 56
106.07299 80
106.07932 75
108.037 297
108.04757 271
109.03471 367
110.06054 3471
110.07841 3547
111.02243 39
111.04424 991
111.0629 481
112.05669 77
112.06716 52
112.10194 45
112.1172 49
113.0896 47
121.07021 47
125.01562 45
129.09474 77
129.1053 86
134.06107 345
135.08444 87
136.06351 55
137.08139 79
137.08902 108
138.09239 1350
139.07437 137
139.09657 251
140.09851 56
148.98926 73
149.01421 173
149.5289 105
149.53523 105
152.06996 1354
153.06584 251
153.07405 246
153.08075 238
162.08925 899
162.09738 997
163.03282 62
163.04745 80
163.55379 62
165.94142 53
165.9639 61
167.08192 733
171.03812 1259
171.04616 1276
171.07753 40
171.53949 258
171.55096 247
172.00992 137
172.01746 156
172.02661 184
172.04033 82
172.11018 37
172.54129 52
172.55377 54
174.0361 63
174.04813 56
176.98326 46
177.06287 42
177.07005 51
179.09464 166
179.10545 180
180.10277 1342
181.09843 292
181.10825 311
183.07768 90
183.09042 108
185.05363 1624
185.06212 1630
185.07214 1510
185.55888 154
185.57545 182
186.04895 47
186.06586 83
189.98994 50
190.01865 1103
191.00023 99
191.01218 143
191.03033 57
191.08167 40
191.59196 55
193.04176 46
199.07603 1609
199.57971 236
199.59744 243
200.07971 89
201.00528 50
201.0175 38
201.04713 55
201.13307 74
201.14366 44
202.05083 1642
202.08481 459
202.09598 138
Name: Phenacetin
PrecursorMZ: 381.1787
PrecursorType: [2M+Na]+
IonMode: Positive
Formula: C10H13NO2
SMILES: CCOC1=CC=C(C=C1)NC(=O)C
InChI: 
InChIKey: CPJSUEIXXCENMM-UHFFFAOYSA-N
RetentionTime: 5.081617
CCS: 
CollisionEnergy: 20-40 eV
InstrumentType: UPLC-QTOF-MS
Comment: PI: Cristina Nerin; Data collector: QiZhi Su, GUIA, University of Zaragoza, Spain; Collision energy: 20-40 V; Instrument: Waters HPLC-QTOF-MS (Xevo G2 QTof); Ionization: ESI; Deconvoluted by MS-DIAL; Column: Waters AtlantisTM premier BEH C18 AX column (2.1 × 100mm x 1.7μm); Flow rate: 0.3mL/min; Mobile phase A and B are water and methnaol, respectively, both with 0.1% formic acid; Gradient elution: from A/B (95/5) to A/B (100/0) in 7min, kept for 4 min, then back to A/B (95/5) in 0.1 min, and maintained for additional 1.9 min (13min in total).; Injection volume: 10 μL
Num peaks: 206
65.0395 648
66.03729 188
66.04657 194
68.05944 47
72.0772 53
80.04847 75
80.05258 75
81.07124 27
82.06552 216
82.07481 214
83.04832 31
93.05817 625
93.07085 1036
94.03719 102
94.06226 853
94.09472 26
96.08417 40
97.07268 84
97.07767 81
97.09083 59
97.10151 30
99.0817 50
99.08994 52
100.06939 97
100.07646 111
103.95074 43
104.51361 83
104.52245 81
105.07098 965
106.06501 49
106.07299 73
106.07932 67
108.037 296
108.04757 272
109.03471 400
110.02621 29
110.06054 2330
110.07841 2401
111.00993 27
111.02243 36
111.04424 930
111.0629 388
112.05669 55
112.06716 37
112.10194 45
112.1172 49
113.0896 47
113.97325 32
120.52246 30
121.05865 26
121.07021 43
125.01562 45
129.09474 77
129.1053 86
134.06107 306
135.06389 27
135.08444 91
136.04596 29
136.06351 51
137.08139 54
137.08902 84
138.09239 1039
139.07437 162
139.09657 225
140.09851 62
148.98926 67
149.01421 173
149.5289 107
149.53523 107
150.03226 28
150.09746 27
151.07854 35
152.06996 1255
153.06584 238
153.07405 235
153.08075 226
162.08925 850
162.09738 945
163.03282 61
163.04745 62
163.55379 62
164.05521 31
165.94142 53
165.9639 61
167.08192 154
167.63458 32
171.00562 27
171.03812 1214
171.04616 1233
171.07753 40
171.0963 33
171.53949 249
171.55096 242
172.00992 152
172.01746 169
172.02661 197
172.04033 80
172.11018 37
172.54129 49
172.55377 54
174.0361 60
174.04813 53
175.01236 33
175.03685 27
176.98326 46
177.06287 45
177.07005 51
178.09009 27
179.09464 166
179.10545 180
180.05353 27
180.10277 1127
181.09843 265
181.10825 285
182.11252 37
183.07768 84
183.09042 104
184.086 31
185.05363 1624
185.06212 1630
185.07214 1523
185.55888 136
185.57545 158
186.04895 47
186.06586 83
187.0545 29
189.98994 48
190.01865 1069
191.00023 99
191.01218 121
191.03033 46
191.08167 40
191.59196 55
192.00624 34
192.01591 34
193.02382 26
193.04176 46
194.00403 25
194.02794 32
197.36928 29
199.07603 1593
199.39145 30
199.57971 231
199.59744 248
200.07971 93
201.00528 50
201.0175 38
201.04713 130
201.09721 28
201.13307 74
201.14366 44
202.05083 59
202.08481 328
202.09598 228
202.4238 37
203.07785 61
203.10468 47
203.15994 33
203.48482 40
204.04688 497
204.05408 458
204.15666 78
205.0495 229
205.06177 201
205.0853 28
207.06131 38
208.03368 97
216.16908 36
218.05 53
220.06142 47
226.19359 33
234.1667 204
235.01299 82
235.02924 40
235.05389 41
235.16214 64
235.18576 53
236.02415 231
236.03853 154
237.03348 40
237.04082 47
245.11269 26
248.09859 47
254.02792 48
255.07457 25
264.04944 112
264.06363 237
265.08615 59
265.13657 32
268.04977 31
271.99152 53
279.03149 87
279.05637 26
280.01938 64
280.03683 97
280.64767 27
281.0369 196
281.04865 320
282.04547 25
288.00363 27
288.63522 26
302.01205 40
307.9902 33
317.09857 60
339.23596 51
379.13721 32
Name: Phenacetin
PrecursorMZ: 180.1031
PrecursorType: [M+H]+
IonMode: Positive
Formula: C10H13NO2
SMILES: CCOC1=CC=C(C=C1)NC(=O)C
InChI: 
InChIKey: CPJSUEIXXCENMM-UHFFFAOYSA-N
RetentionTime: 5.093534
CCS: 
CollisionEnergy: 20-40 eV
InstrumentType: UPLC-QTOF-MS
Comment: PI: Cristina Nerin; Data collector: QiZhi Su, GUIA, University of Zaragoza, Spain; Collision energy: 20-40 V; Instrument: Waters HPLC-QTOF-MS (Xevo G2 QTof); Ionization: ESI; Deconvoluted by MS-DIAL; Column: Waters AtlantisTM premier BEH C18 AX column (2.1 × 100mm x 1.7μm); Flow rate: 0.3mL/min; Mobile phase A and B are water and methnaol, respectively, both with 0.1% formic acid; Gradient elution: from A/B (95/5) to A/B (100/0) in 7min, kept for 4 min, then back to A/B (95/5) in 0.1 min, and maintained for additional 1.9 min (13min in total).; Injection volume: 10 μL
Num peaks: 24
65.03908 4267
82.06655 1805
82.08173 1782
92.05029 5390
92.06411 5383
93.03347 10578
93.05646 2361
94.03819 1166
94.04475 1332
94.06172 938
109.04913 2042
109.05501 2063
110.06086 52035
111.04476 3654
111.06392 3448
111.07418 3136
134.0614 1091
138.09186 13671
139.07877 1145
139.09494 1096
152.07132 2936
162.09419 1909
171.04475 2205
180.10281 11608
Name: Galanthamine
PrecursorMZ: 575.3109
PrecursorType: [2M+H]+
IonMode: Positive
Formula: C17H21NO3
SMILES: CN1CCC23C=CC(CC2OC4=C(C=CC(=C34)C1)OC)O
InChI: 
InChIKey: ASUTZQLVASHGKV-JDFRZJQESA-N
RetentionTime: 0.8709167
CCS: 
CollisionEnergy: 20-40 eV
InstrumentType: UPLC-QTOF-MS
Comment: PI: Cristina Nerin; Data collector: QiZhi Su, GUIA, University of Zaragoza, Spain; Collision energy: 20-40 V; Instrument: Waters HPLC-QTOF-MS (Xevo G2 QTof); Ionization: ESI; Deconvoluted by MS-DIAL; Column: Waters AtlantisTM premier BEH C18 AX column (2.1 × 100mm x 1.7μm); Flow rate: 0.3mL/min; Mobile phase A and B are water and methnaol, respectively, both with 0.1% formic acid; Gradient elution: from A/B (95/5) to A/B (100/0) in 7min, kept for 4 min, then back to A/B (95/5) in 0.1 min, and maintained for additional 1.9 min (13min in total).; Injection volume: 10 μL
Num peaks: 126
58.06583 1819
77.03883 2024
77.04781 2044
79.05499 3289
81.05518 1210
81.06941 1420
81.07481 1403
81.07868 1346
85.07578 1204
91.0556 1016
103.05451 1923
103.06514 1928
105.0703 38782
106.05408 3593
106.07333 3777
109.0712 1013
109.08215 993
132.07976 974
133.07042 1337
133.08696 1090
134.09534 981
135.06479 1573
135.07838 1855
135.08493 2192
137.06012 985
137.07056 1012
142.07698 995
143.06596 1083
143.0863 1344
151.08052 1200
153.06999 1727
153.08635 1712
155.05431 1235
159.0674 1377
159.08057 1383
160.07756 2950
160.08968 2887
161.0929 2789
161.10045 2446
162.07199 987
165.06329 1473
165.07414 1604
166.07761 2538
166.08942 2420
167.07768 1739
167.08897 1601
169.04892 2828
169.06412 3205
169.07217 3136
169.08723 1255
170.07361 3434
171.0824 2177
172.07768 1592
173.08243 985
175.07736 3488
175.10397 2193
175.1134 2173
178.07965 1003
178.08977 970
179.08701 3909
181.06667 5306
181.10239 3037
182.07239 11365
183.04567 7443
183.07458 2733
183.08133 2698
184.04832 1178
184.0578 3271
184.07672 2079
184.09265 2002
185.09735 5854
186.07344 1034
186.09428 1909
188.08168 1070
189.08842 2078
190.08055 1002
191.08672 1828
191.14963 1181
191.1597 1167
194.0746 1398
195.07259 1551
195.08467 1610
197.06122 3212
197.0977 5266
197.11174 5127
198.06818 62090
198.09773 2270
198.10538 2332
199.07381 12386
200.07597 1275
200.09457 1218
203.1055 5351
203.11897 5330
207.06694 1628
207.08189 1803
209.09636 5926
210.06355 1856
210.07635 2710
210.09811 1646
211.08316 1041
212.0842 1081
212.10388 970
213.09186 96324
214.09489 13151
215.09184 1680
215.10225 1694
225.09143 11068
226.09659 2033
227.09618 1030
227.10947 1759
227.12325 1382
231.1021 21623
232.1069 2977
239.10583 1147
253.13365 1454
254.11682 1185
255.12192 2720
255.13306 2798
270.1499 8414
271.15518 1351
288.16 15831
289.16513 2233
307.18173 2557
325.19092 13877
326.19327 2582
327.18521 1025
Name: Phenacetin
PrecursorMZ: 359.1992
PrecursorType: [2M+H]+
IonMode: Positive
Formula: C10H13NO2
SMILES: CCOC1=CC=C(C=C1)NC(=O)C
InChI: 
InChIKey: CPJSUEIXXCENMM-UHFFFAOYSA-N
RetentionTime: 5.093534
CCS: 
CollisionEnergy: 20-40 eV
InstrumentType: UPLC-QTOF-MS
Comment: PI: Cristina Nerin; Data collector: QiZhi Su, GUIA, University of Zaragoza, Spain; Collision energy: 20-40 V; Instrument: Waters HPLC-QTOF-MS (Xevo G2 QTof); Ionization: ESI; Deconvoluted by MS-DIAL; Column: Waters AtlantisTM premier BEH C18 AX column (2.1 × 100mm x 1.7μm); Flow rate: 0.3mL/min; Mobile phase A and B are water and methnaol, respectively, both with 0.1% formic acid; Gradient elution: from A/B (95/5) to A/B (100/0) in 7min, kept for 4 min, then back to A/B (95/5) in 0.1 min, and maintained for additional 1.9 min (13min in total).; Injection volume: 10 μL
Num peaks: 31
65.03908 3633
82.06655 1574
82.08173 1679
92.05029 5498
92.06411 5489
93.03347 10740
93.05646 1746
94.03819 1124
94.04475 1011
94.06172 1037
94.06866 550
109.04913 2080
109.05501 2100
110.06086 49029
111.04476 3464
111.06392 3058
111.07418 2635
134.0614 743
138.09186 12481
139.07877 939
139.09494 857
152.07132 1702
162.09419 1050
166.07825 3575
171.04475 1168
180.10281 8094
181.10535 782
190.01883 1600
190.03807 622
199.07622 699
264.05414 1022
Name: N-Nitrosodiphenylamine
PrecursorMZ: 199.0881
PrecursorType: [M+H]+
IonMode: Positive
Formula: C12H10N2O
SMILES: C1=CC=C(C=C1)N(C2=CC=CC=C2)N=O
InChI: 
InChIKey: UBUCNCOMADRQHX-UHFFFAOYSA-N
RetentionTime: 6.6863
CCS: 
CollisionEnergy: 20-40 eV
InstrumentType: UPLC-QTOF-MS
Comment: PI: Cristina Nerin; Data collector: QiZhi Su, GUIA, University of Zaragoza, Spain; Collision energy: 20-40 V; Instrument: Waters HPLC-QTOF-MS (Xevo G2 QTof); Ionization: ESI; Deconvoluted by MS-DIAL; Column: Waters AtlantisTM premier BEH C18 AX column (2.1 × 100mm x 1.7μm); Flow rate: 0.3mL/min; Mobile phase A and B are water and methnaol, respectively, both with 0.1% formic acid; Gradient elution: from A/B (95/5) to A/B (100/0) in 7min, kept for 4 min, then back to A/B (95/5) in 0.1 min, and maintained for additional 1.9 min (13min in total).; Injection volume: 10 μL
Num peaks: 33
65.03822 174
66.04758 9779
67.04559 604
67.0528 607
70.97694 124
70.98381 124
77.04004 1352
81.07061 102
91.04502 117
91.05594 115
104.051 2671
105.03725 229
105.0459 282
105.05461 220
105.06255 130
105.06937 113
141.06883 106
141.08195 116
143.06923 165
143.08527 124
166.06631 145
167.07346 2041
167.08928 1978
168.08299 7946
169.08969 5505
170.09222 768
170.09982 763
170.11501 316
188.05971 707
188.06656 706
188.07899 641
188.55542 180
188.56773 178
Name: Santonin
PrecursorMZ: 515.2401
PrecursorType: [2M+Na]+
IonMode: Positive
Formula: C15H18O3
SMILES: CC1C2CCC3(C=CC(=O)C(=C3C2OC1=O)C)C
InChI: 
InChIKey: XJHDMGJURBVLLE-BOCCBSBMSA-N
RetentionTime: 5.46285
CCS: 
CollisionEnergy: 20-40 eV
InstrumentType: UPLC-QTOF-MS
Comment: PI: Cristina Nerin; Data collector: QiZhi Su, GUIA, University of Zaragoza, Spain; Collision energy: 20-40 V; Instrument: Waters HPLC-QTOF-MS (Xevo G2 QTof); Ionization: ESI; Deconvoluted by MS-DIAL; Column: Waters AtlantisTM premier BEH C18 AX column (2.1 × 100mm x 1.7μm); Flow rate: 0.3mL/min; Mobile phase A and B are water and methnaol, respectively, both with 0.1% formic acid; Gradient elution: from A/B (95/5) to A/B (100/0) in 7min, kept for 4 min, then back to A/B (95/5) in 0.1 min, and maintained for additional 1.9 min (13min in total).; Injection volume: 10 μL
Num peaks: 79
79.0538 629
79.05828 629
91.03828 1154
91.05548 1116
91.06999 1151
105.06836 971
105.07427 978
107.08502 353
115.05503 468
116.05234 260
116.06228 245
118.0742 182
118.08408 205
121.10039 428
121.11082 430
128.0488 447
128.06439 556
129.07037 1459
130.07697 1023
130.08426 1030
133.08562 233
135.08122 6307
136.08597 532
141.05609 220
143.08076 487
143.0883 480
145.10196 5800
146.0744 288
146.1055 655
146.11296 662
147.08134 237
149.08667 999
149.09752 1050
153.0715 685
155.08748 1947
156.08914 245
156.09729 355
157.06342 952
157.07204 966
158.07329 8208
159.05681 301
159.08092 1965
160.07925 186
160.08885 245
160.10849 469
172.10471 501
173.09709 17917
175.10422 278
175.1142 240
186.10503 653
187.09451 264
199.03525 226
200.03172 610
200.0442 607
201.12791 2048
202.13121 290
202.14497 287
203.13637 468
203.14825 417
229.1304 193
229.14423 222
235.009 1226
236.98878 749
237.00282 838
237.01273 840
239.00084 268
239.01355 260
241.09007 731
244.11754 191
248.13432 407
269.11557 2066
270.11942 237
289.10904 320
301.04843 252
318.09943 240
318.11102 219
389.67212 260
512.71649 288
512.73157 374
Name: Santonin
PrecursorMZ: 493.2588
PrecursorType: [2M+H]+
IonMode: Positive
Formula: C15H18O3
SMILES: CC1C2CCC3(C=CC(=O)C(=C3C2OC1=O)C)C
InChI: 
InChIKey: XJHDMGJURBVLLE-BOCCBSBMSA-N
RetentionTime: 5.470467
CCS: 
CollisionEnergy: 20-40 eV
InstrumentType: UPLC-QTOF-MS
Comment: PI: Cristina Nerin; Data collector: QiZhi Su, GUIA, University of Zaragoza, Spain; Collision energy: 20-40 V; Instrument: Waters HPLC-QTOF-MS (Xevo G2 QTof); Ionization: ESI; Deconvoluted by MS-DIAL; Column: Waters AtlantisTM premier BEH C18 AX column (2.1 × 100mm x 1.7μm); Flow rate: 0.3mL/min; Mobile phase A and B are water and methnaol, respectively, both with 0.1% formic acid; Gradient elution: from A/B (95/5) to A/B (100/0) in 7min, kept for 4 min, then back to A/B (95/5) in 0.1 min, and maintained for additional 1.9 min (13min in total).; Injection volume: 10 μL
Num peaks: 38
79.05477 472
84.96136 371
84.97679 453
115.05521 501
127.05955 157
130.077 736
130.0892 736
135.08142 5096
136.08482 254
143.09409 158
144.08784 181
144.09761 192
146.06934 216
146.07747 209
147.09087 275
153.07053 538
157.04349 545
158.07312 6396
159.07893 1571
171.0847 233
173.09657 15369
175.1073 246
175.11703 284
202.15211 337
203.15903 327
204.03781 212
244.08897 221
248.14011 275
269.11365 1691
289.108 392
318.10565 194
318.1312 369
331.06497 263
335.11133 965
335.12561 748
336.09964 171
389.65311 319
389.68488 228
Name: Santonin
PrecursorMZ: 247.1341
PrecursorType: [M+H]+
IonMode: Positive
Formula: C15H18O3
SMILES: CC1C2CCC3(C=CC(=O)C(=C3C2OC1=O)C)C
InChI: 
InChIKey: XJHDMGJURBVLLE-BOCCBSBMSA-N
RetentionTime: 5.478083
CCS: 
CollisionEnergy: 20-40 eV
InstrumentType: UPLC-QTOF-MS
Comment: PI: Cristina Nerin; Data collector: QiZhi Su, GUIA, University of Zaragoza, Spain; Collision energy: 20-40 V; Instrument: Waters HPLC-QTOF-MS (Xevo G2 QTof); Ionization: ESI; Deconvoluted by MS-DIAL; Column: Waters AtlantisTM premier BEH C18 AX column (2.1 × 100mm x 1.7μm); Flow rate: 0.3mL/min; Mobile phase A and B are water and methnaol, respectively, both with 0.1% formic acid; Gradient elution: from A/B (95/5) to A/B (100/0) in 7min, kept for 4 min, then back to A/B (95/5) in 0.1 min, and maintained for additional 1.9 min (13min in total).; Injection volume: 10 μL
Num peaks: 62
105.05289 228
105.07024 709
105.09525 380
116.05383 447
116.06209 444
117.06929 1750
117.07525 1758
117.09029 1642
130.10187 286
135.10085 1896
141.0621 353
141.07016 362
144.05215 194
144.0629 169
145.0482 160
145.06635 126
146.10664 157
147.10591 116
153.09465 111
159.1013 123
161.09648 1686
165.07104 2349
166.07872 4208
167.07632 525
167.08765 503
169.05779 110
169.06833 154
169.08046 194
169.09102 223
170.0847 5481
171.08563 422
172.08813 1154
185.076 137
186.10744 1269
187.03029 270
187.04153 265
194.07791 116
199.02406 297
199.03424 299
199.0446 241
200.03459 309
200.04315 328
201.04701 10926
202.03133 1426
202.04637 1574
202.05676 1628
202.07619 219
203.04552 4000
203.07478 212
204.04927 471
204.0625 463
229.1239 432
232.09518 173
232.10645 192
233.10489 172
233.16673 425
235.00769 1018
236.00739 117
236.98569 354
237.00838 477
239.00162 124
247.13272 3570
Name: Santonin
PrecursorMZ: 269.1164
PrecursorType: [M+Na]+
IonMode: Positive
Formula: C15H18O3
SMILES: CC1C2CCC3(C=CC(=O)C(=C3C2OC1=O)C)C
InChI: 
InChIKey: XJHDMGJURBVLLE-BOCCBSBMSA-N
RetentionTime: 5.538983
CCS: 
CollisionEnergy: 20-40 eV
InstrumentType: UPLC-QTOF-MS
Comment: PI: Cristina Nerin; Data collector: QiZhi Su, GUIA, University of Zaragoza, Spain; Collision energy: 20-40 V; Instrument: Waters HPLC-QTOF-MS (Xevo G2 QTof); Ionization: ESI; Deconvoluted by MS-DIAL; Column: Waters AtlantisTM premier BEH C18 AX column (2.1 × 100mm x 1.7μm); Flow rate: 0.3mL/min; Mobile phase A and B are water and methnaol, respectively, both with 0.1% formic acid; Gradient elution: from A/B (95/5) to A/B (100/0) in 7min, kept for 4 min, then back to A/B (95/5) in 0.1 min, and maintained for additional 1.9 min (13min in total).; Injection volume: 10 μL
Num peaks: 43
79.05471 2027
91.05515 7142
105.0708 7155
115.05618 5474
117.07056 4555
121.101 1436
128.06409 2972
129.07076 9053
130.07759 7051
131.08337 2433
131.09087 1739
135.08142 34178
136.08154 1416
143.0872 2646
145.06741 1705
145.10236 31742
146.07437 2599
146.10585 3186
149.09712 5311
153.07057 2678
154.07959 1595
155.08714 14530
157.06564 4449
158.07346 44093
159.08089 11789
160.084 2211
161.09662 5952
171.08102 2394
172.08951 4483
173.09746 131429
174.10162 19957
186.10631 4147
200.03931 2360
201.0486 3620
201.12898 10645
203.14587 2100
235.0099 4690
237.00696 2538
239.07787 1979
241.0919 7466
247.13449 10736
248.13791 1987
269.11594 10220
Name: Santonin
PrecursorMZ: 515.2411
PrecursorType: [2M+Na]+
IonMode: Positive
Formula: C15H18O3
SMILES: CC1C2CCC3(C=CC(=O)C(=C3C2OC1=O)C)C
InChI: 
InChIKey: XJHDMGJURBVLLE-BOCCBSBMSA-N
RetentionTime: 5.5428
CCS: 
CollisionEnergy: 20-40 eV
InstrumentType: UPLC-QTOF-MS
Comment: PI: Cristina Nerin; Data collector: QiZhi Su, GUIA, University of Zaragoza, Spain; Collision energy: 20-40 V; Instrument: Waters HPLC-QTOF-MS (Xevo G2 QTof); Ionization: ESI; Deconvoluted by MS-DIAL; Column: Waters AtlantisTM premier BEH C18 AX column (2.1 × 100mm x 1.7μm); Flow rate: 0.3mL/min; Mobile phase A and B are water and methnaol, respectively, both with 0.1% formic acid; Gradient elution: from A/B (95/5) to A/B (100/0) in 7min, kept for 4 min, then back to A/B (95/5) in 0.1 min, and maintained for additional 1.9 min (13min in total).; Injection volume: 10 μL
Num peaks: 132
65.03267 136
65.03866 136
69.07327 273
79.05531 2100
83.03624 189
83.04632 213
83.06477 217
84.96053 539
91.05499 6944
93.05096 347
104.05919 143
105.05361 5827
106.06896 732
106.07683 738
106.0914 670
107.04717 236
107.0561 241
108.05864 152
108.09177 134
115.05573 5073
115.07294 5119
116.06182 1529
117.06995 5198
118.06771 668
118.07656 693
118.08347 688
119.08934 789
121.06647 568
128.06332 2634
128.09007 205
128.10114 202
129.07051 8358
130.0775 6435
130.08482 6449
130.09569 6557
131.08604 4017
133.05539 183
133.06512 225
140.06047 760
140.06946 771
141.0708 1102
141.07941 1111
143.08446 2179
143.09619 2174
144.06107 456
144.0715 682
144.09192 528
144.10605 519
145.06242 1914
145.07191 1905
145.07751 1872
146.10533 3770
147.10773 290
149.09709 4658
152.05234 432
152.06146 465
152.0748 399
154.05699 332
155.0858 12461
156.08054 1931
156.09216 1907
157.06583 4324
158.10573 386
158.11749 391
158.12897 257
160.08173 2472
160.09126 2470
162.09744 510
162.10812 500
162.96437 221
162.97441 333
162.9888 280
172.08397 3537
172.09232 3522
173.11858 865
173.13206 943
173.14532 845
175.04123 126
176.0936 132
176.1076 228
183.11681 355
187.08878 173
188.10851 211
199.11325 162
202.04118 645
203.14088 1801
203.15306 1827
204.14279 291
211.0374 638
211.10233 471
211.11421 512
212.23251 132
214.1062 207
222.11432 950
222.12694 925
223.11746 146
223.12311 143
229.02599 131
229.12389 1039
240.07234 362
240.08656 378
240.10483 157
240.23859 183
241.09235 7267
245.02007 400
245.03462 413
257.06027 541
257.07526 632
257.08676 204
269.11609 9584
285.08157 12530
289.07349 282
300.03738 201
300.05386 220
301.04596 767
301.05869 784
303.06369 325
317.07965 206
323.16812 126
323.18628 152
331.0741 942
345.17911 418
347.06729 198
367.17453 1724
389.67218 2256
443.24777 276
487.21829 1026
512.23163 4067
513.21393 196
513.23901 1170
513.73022 269
514.237 224
Name: Dexamethasone
PrecursorMZ: 807.3874
PrecursorType: [2M+Na]+
IonMode: Positive
Formula: C22H29FO5
SMILES: CC1CC2C3CCC4=CC(=O)C=CC4(C3(C(CC2(C1(C(=O)CO)O)C)O)F)C
InChI: 
InChIKey: UREBDLICKHMUKA-CXSFZGCWSA-N
RetentionTime: 6.5222
CCS: 
CollisionEnergy: 20-40 eV
InstrumentType: UPLC-QTOF-MS
Comment: PI: Cristina Nerin; Data collector: QiZhi Su, GUIA, University of Zaragoza, Spain; Collision energy: 20-40 V; Instrument: Waters HPLC-QTOF-MS (Xevo G2 QTof); Ionization: ESI; Deconvoluted by MS-DIAL; Column: Waters AtlantisTM premier BEH C18 AX column (2.1 × 100mm x 1.7μm); Flow rate: 0.3mL/min; Mobile phase A and B are water and methnaol, respectively, both with 0.1% formic acid; Gradient elution: from A/B (95/5) to A/B (100/0) in 7min, kept for 4 min, then back to A/B (95/5) in 0.1 min, and maintained for additional 1.9 min (13min in total).; Injection volume: 10 μL
Num peaks: 151
55.05069 59
55.05791 56
79.02004 62
84.95645 111
84.96284 111
84.97088 119
95.03271 50
95.04283 54
95.04954 75
95.05632 81
97.03587 58
106.07414 108
109.10224 76
113.04255 77
113.05911 73
115.05728 321
115.07645 328
116.08035 48
129.06531 236
129.0741 220
129.08205 234
133.06136 397
133.09045 502
133.10509 453
134.95766 94
135.08044 1449
137.0791 56
138.10501 156
149.11613 982
150.09242 73
150.10229 58
151.11699 155
155.07591 326
155.08546 356
155.10233 314
156.08994 68
157.06677 117
157.09618 51
159.1152 85
159.12418 73
162.97296 67
162.98277 72
165.08673 78
170.06206 87
177.08585 853
182.07111 232
182.07939 244
187.07524 852
187.11241 567
187.12451 570
187.13754 105
190.08307 106
190.09065 88
195.0816 496
197.13338 90
199.0988 430
201.04842 67
204.10298 420
205.06927 59
209.14561 435
211.13397 303
213.07849 190
213.09241 208
215.08597 239
215.13168 200
221.14232 242
222.10634 1220
222.13553 178
228.14395 115
228.16354 85
230.10699 133
230.1226 122
231.09988 197
231.11537 199
235.10156 1642
235.11584 1692
236.10986 423
237.12918 4734
238.13057 1053
239.10013 312
239.1133 298
240.11601 123
240.15375 219
241.12315 628
242.13673 117
245.13188 256
246.14107 104
247.1086 454
247.1257 452
249.12782 991
249.16791 139
250.14896 93
253.11113 150
253.12665 136
254.12079 148
254.13469 170
255.14754 55
257.13397 168
257.15094 106
258.09515 71
258.14182 77
258.1575 73
260.10837 340
261.16495 163
262.13681 794
270.30994 91
270.32156 123
271.32095 49
272.10568 168
272.11566 260
272.12857 249
273.12131 256
273.13599 258
274.12552 338
274.13446 364
274.1503 261
277.19565 63
278.18106 149
281.16092 186
281.18063 300
287.15201 174
288.15997 71
289.15866 814
292.15347 161
294.16675 84
309.18539 1478
310.20471 265
320.17139 81
321.17291 97
338.18079 625
338.20547 127
347.14633 103
356.17776 50
356.19385 1365
365.13681 78
411.15433 183
417.18399 67
431.16357 389
432.1752 93
477.1506 69
785.40833 265
785.43884 137
786.42273 555
796.34277 57
796.38623 264
796.90143 78
805.41248 212
805.84607 92
805.89075 314
807.37518 943
807.41064 1184
Name: Santonin
PrecursorMZ: 247.1345
PrecursorType: [M+H]+
IonMode: Positive
Formula: C15H18O3
SMILES: CC1C2CCC3(C=CC(=O)C(=C3C2OC1=O)C)C
InChI: 
InChIKey: XJHDMGJURBVLLE-BOCCBSBMSA-N
RetentionTime: 5.550416
CCS: 
CollisionEnergy: 20-40 eV
InstrumentType: UPLC-QTOF-MS
Comment: PI: Cristina Nerin; Data collector: QiZhi Su, GUIA, University of Zaragoza, Spain; Collision energy: 20-40 V; Instrument: Waters HPLC-QTOF-MS (Xevo G2 QTof); Ionization: ESI; Deconvoluted by MS-DIAL; Column: Waters AtlantisTM premier BEH C18 AX column (2.1 × 100mm x 1.7μm); Flow rate: 0.3mL/min; Mobile phase A and B are water and methnaol, respectively, both with 0.1% formic acid; Gradient elution: from A/B (95/5) to A/B (100/0) in 7min, kept for 4 min, then back to A/B (95/5) in 0.1 min, and maintained for additional 1.9 min (13min in total).; Injection volume: 10 μL
Num peaks: 51
79.0551 2244
91.05541 7264
105.07117 6015
115.03759 5012
115.05471 4974
116.06013 1463
117.0704 5307
128.06351 2642
129.07065 8592
130.07864 6495
131.08678 4181
135.08095 33996
136.0726 3258
136.08565 3277
143.08627 2347
145.06641 1890
145.10162 32064
146.07387 1817
146.1058 3688
146.12416 3510
149.09811 4749
153.0719 3457
154.0788 1580
155.08591 12910
156.09035 1878
157.06642 4554
158.07382 43541
159.07979 11810
160.08496 2560
160.10117 2545
161.09799 5578
171.08093 2530
172.09117 3505
173.09695 127532
174.10132 19564
175.09839 2266
175.10649 2365
175.11601 2380
186.10587 3840
200.02357 2070
200.04088 2010
201.1284 10440
202.13127 1428
202.14777 1283
203.14598 1660
235.00935 4400
237.00583 2690
239.07043 2082
239.07979 2082
241.09061 6750
247.13455 11146
Name: Quinine
PrecursorMZ: 325.1913
PrecursorType: [M+H]+
IonMode: Positive
Formula: C20H24N2O2
SMILES: COC1=CC2=C(C=CN=C2C=C1)C(C3CC4CCN3CC4C=C)O
InChI: 
InChIKey: LOUPRKONTZGTKE-WZBLMQSHSA-N
RetentionTime: 0.8937666
CCS: 
CollisionEnergy: 20-40 eV
InstrumentType: UPLC-QTOF-MS
Comment: PI: Cristina Nerin; Data collector: QiZhi Su, GUIA, University of Zaragoza, Spain; Collision energy: 20-40 V; Instrument: Waters HPLC-QTOF-MS (Xevo G2 QTof); Ionization: ESI; Deconvoluted by MS-DIAL; Column: Waters AtlantisTM premier BEH C18 AX column (2.1 × 100mm x 1.7μm); Flow rate: 0.3mL/min; Mobile phase A and B are water and methnaol, respectively, both with 0.1% formic acid; Gradient elution: from A/B (95/5) to A/B (100/0) in 7min, kept for 4 min, then back to A/B (95/5) in 0.1 min, and maintained for additional 1.9 min (13min in total).; Injection volume: 10 μL
Num peaks: 69
67.05517 3533
79.05476 15208
80.05164 3637
80.06104 3613
80.06927 2880
81.05485 26983
81.07035 26498
82.06571 6080
82.0738 6075
82.07932 6083
96.08142 2802
96.08834 2797
105.07035 27320
106.07018 4188
106.08511 3861
108.08013 2964
108.08753 2985
110.09658 8689
122.09706 2996
124.11243 2933
124.12463 2933
134.0965 6602
136.11353 2666
160.07619 26989
161.06241 2965
166.12404 4406
172.07625 25654
173.08298 12042
174.09132 8467
183.06133 3195
183.07243 4451
184.07616 35076
185.08224 6004
186.09134 18424
197.0838 4047
198.08987 28510
199.09113 3686
210.09225 6415
211.08524 4553
211.09682 4450
212.0959 3581
212.10695 3159
224.10561 4085
225.11362 5627
226.12152 4163
227.12045 6087
236.09698 3206
236.10625 3185
237.1091 2724
238.10844 2975
250.11943 2852
251.11888 8807
252.12434 6946
252.13959 6960
253.13429 24728
254.1382 5522
264.13538 9802
264.14691 9826
265.13724 5597
266.13943 3436
266.15811 3232
278.1402 3843
278.15439 3505
279.1507 9439
280.15546 2658
307.18091 45850
308.18326 10134
309.19022 2782
325.19116 265746
Name: Santonin
PrecursorMZ: 493.2581
PrecursorType: [2M+H]+
IonMode: Positive
Formula: C15H18O3
SMILES: CC1C2CCC3(C=CC(=O)C(=C3C2OC1=O)C)C
InChI: 
InChIKey: XJHDMGJURBVLLE-BOCCBSBMSA-N
RetentionTime: 5.550416
CCS: 
CollisionEnergy: 20-40 eV
InstrumentType: UPLC-QTOF-MS
Comment: PI: Cristina Nerin; Data collector: QiZhi Su, GUIA, University of Zaragoza, Spain; Collision energy: 20-40 V; Instrument: Waters HPLC-QTOF-MS (Xevo G2 QTof); Ionization: ESI; Deconvoluted by MS-DIAL; Column: Waters AtlantisTM premier BEH C18 AX column (2.1 × 100mm x 1.7μm); Flow rate: 0.3mL/min; Mobile phase A and B are water and methnaol, respectively, both with 0.1% formic acid; Gradient elution: from A/B (95/5) to A/B (100/0) in 7min, kept for 4 min, then back to A/B (95/5) in 0.1 min, and maintained for additional 1.9 min (13min in total).; Injection volume: 10 μL
Num peaks: 61
79.0551 2244
91.05541 7264
105.07117 6015
115.03759 5012
115.05471 4974
116.06013 1463
117.0704 5307
128.06351 2642
129.07065 8592
130.07864 6495
131.08678 4181
135.08095 33996
136.0726 3258
136.08565 3277
143.08627 2347
145.06641 1890
145.10162 32064
146.07387 1817
146.1058 3688
146.12416 3510
149.09811 4749
153.0719 3457
154.0788 1580
155.08591 12910
156.09035 1878
157.06642 4554
158.07382 43541
159.07979 11810
160.08496 2560
160.10117 2545
161.09799 5578
171.08093 2530
172.09117 3505
173.09695 127532
174.10132 19564
175.09839 2266
175.10649 2365
175.11601 2380
186.10587 3840
200.02357 2070
200.04088 2010
201.1284 10440
202.13127 1428
202.14777 1283
203.14598 1660
235.00935 4400
237.00583 2690
239.07043 2082
239.07979 2082
241.09061 6750
247.13455 10808
248.13676 1845
269.11575 9120
270.11932 1412
270.13611 1282
285.08191 12332
286.0863 1699
367.16913 1689
389.15305 4082
389.16595 4082
389.67004 1890
Name: Silibinin
PrecursorMZ: 965.2524
PrecursorType: [2M+H]+
IonMode: Positive
Formula: C25H22O10
SMILES: COC1=C(C=CC(=C1)C2C(OC3=C(O2)C=C(C=C3)C4C(C(=O)C5=C(C=C(C=C5O4)O)O)O)CO)O
InChI: 
InChIKey: SEBFKMXJBCUCAI-HKTJVKLFSA-N
RetentionTime: 5.775517
CCS: 
CollisionEnergy: 20-40 eV
InstrumentType: UPLC-QTOF-MS
Comment: PI: Cristina Nerin; Data collector: QiZhi Su, GUIA, University of Zaragoza, Spain; Collision energy: 20-40 V; Instrument: Waters HPLC-QTOF-MS (Xevo G2 QTof); Ionization: ESI; Deconvoluted by MS-DIAL; Column: Waters AtlantisTM premier BEH C18 AX column (2.1 × 100mm x 1.7μm); Flow rate: 0.3mL/min; Mobile phase A and B are water and methnaol, respectively, both with 0.1% formic acid; Gradient elution: from A/B (95/5) to A/B (100/0) in 7min, kept for 4 min, then back to A/B (95/5) in 0.1 min, and maintained for additional 1.9 min (13min in total).; Injection volume: 10 μL
Num peaks: 264
50.29761 105
62.15883 184
77.00697 92
81.07111 246
84.95795 548
84.96346 553
84.97084 104
91.05569 140
93.03541 91
95.08648 92
99.0571 156
103.05118 252
103.05811 296
105.07131 355
107.04841 128
111.04156 205
111.08778 120
115.05585 130
119.05083 155
121.03066 171
123.04365 147
123.06055 87
124.05059 213
127.0349 127
127.04352 184
129.06374 127
130.03906 261
131.05052 3133
132.05371 357
132.73203 97
133.02553 235
133.03467 354
133.09753 91
134.95421 120
135.04132 134
135.05009 238
137.05605 748
137.06367 1835
138.06401 204
139.03806 150
147.03783 191
147.0484 915
147.05965 119
149.02539 1894
149.05638 241
149.0657 721
150.0302 151
150.06544 285
150.07413 175
151.07256 214
152.0842 225
153.01807 5711
154.02209 424
156.04448 111
159.0466 165
159.09117 133
161.06108 728
161.09099 159
162.06113 526
162.07086 2043
163.07539 4154
163.08315 1006
164.0744 114
164.0853 163
165.05713 196
165.06929 832
165.08247 291
166.07668 1545
166.08719 986
167.03073 354
167.03917 386
167.07825 312
167.09134 222
168.036 133
168.08858 138
169.04044 114
170.07497 90
173.0983 411
174.10663 103
177.05792 954
178.05933 284
179.06746 402
179.07675 208
180.07703 776
187.04247 112
188.98788 137
194.02927 100
195.03157 2687
196.03802 292
198.06129 106
201.04805 7667
201.06897 106
202.04971 960
202.05798 489
202.46187 257
203.04562 2772
204.04756 234
205.0515 98
211.08463 325
213.05592 459
215.03371 99
216.53183 176
223.07568 95
223.08376 93
225.05733 98
227.03561 144
229.05229 754
230.0537 143
233.16933 248
235.00302 153
236.02652 102
236.0686 121
237.54176 101
239.06 123
239.07343 314
241.05174 1078
242.04996 111
242.06068 146
243.1006 89
251.06422 216
251.07652 313
252.07932 189
253.07895 138
255.0686 245
257.04398 911
257.05359 281
258.04739 114
258.09644 122
259.06836 108
260.07245 103
263.07892 105
267.0683 207
269.04526 101
269.06931 134
269.0842 121
270.08228 170
271.09314 639
272.10852 104
275.07159 148
279.07272 330
281.08737 263
282.08588 121
283.05826 312
283.06815 557
283.09924 971
284.06207 156
284.09671 184
285.04584 159
285.07245 148
285.08646 237
295.05847 392
297.02185 137
301.10107 96
301.11316 114
303.05347 129
311.04294 276
311.061 950
312.05783 94
313.07645 261
315.04382 104
315.0574 142
317.10168 94
318.12186 91
322.98801 153
323.05542 230
325.18201 164
325.19772 235
329.05426 242
329.07312 119
339.07843 88
340.99997 113
341.06171 115
341.08051 161
358.10645 87
359.09369 201
363.09344 92
369.07755 120
379.11261 455
380.12253 174
387.09555 259
388.07846 112
391.10745 381
391.12811 268
392.12363 87
397.08032 101
407.1185 875
407.13174 244
408.1077 141
409.13144 188
412.05817 107
412.56616 92
415.07767 143
417.08966 98
417.11044 113
419.08417 99
419.11456 934
420.10712 199
420.12512 196
433.07645 266
433.09491 649
433.11398 158
433.22543 144
434.09634 170
435.09552 418
435.11115 579
436.09546 111
436.11914 498
437.11588 451
437.13492 656
437.22391 125
438.13251 232
447.10556 146
447.12103 289
453.12274 265
454.12604 135
465.11749 2795
466.09778 118
466.11252 133
466.14536 94
483.12973 8667
484.11832 748
484.13687 1074
485.12659 119
485.15234 212
500.15619 892
501.13577 93
502.09894 167
502.1481 93
503.06583 131
505.11172 2714
506.10541 221
506.13446 270
507.03677 225
507.12436 119
516.16675 128
521.07568 1206
521.0946 651
522.05896 142
522.08484 339
527.1012 156
536.04749 191
537.03949 191
537.06183 203
538.05603 126
541.06934 89
549.11182 248
549.13422 488
550.15765 95
567.13568 224
568.15234 193
569.1391 101
653.0965 93
743.11786 109
743.14374 506
743.17303 424
743.66461 621
743.69061 157
744.15625 396
744.67712 98
789.40894 178
796.09979 89
922.97931 107
965.2287 253
965.2757 397
Name: Silibinin
PrecursorMZ: 483.1295
PrecursorType: [M+H]+
IonMode: Positive
Formula: C25H22O10
SMILES: COC1=C(C=CC(=C1)C2C(OC3=C(O2)C=C(C=C3)C4C(C(=O)C5=C(C=C(C=C5O4)O)O)O)CO)O
InChI: 
InChIKey: SEBFKMXJBCUCAI-HKTJVKLFSA-N
RetentionTime: 5.779317
CCS: 
CollisionEnergy: 20-40 eV
InstrumentType: UPLC-QTOF-MS
Comment: PI: Cristina Nerin; Data collector: QiZhi Su, GUIA, University of Zaragoza, Spain; Collision energy: 20-40 V; Instrument: Waters HPLC-QTOF-MS (Xevo G2 QTof); Ionization: ESI; Deconvoluted by MS-DIAL; Column: Waters AtlantisTM premier BEH C18 AX column (2.1 × 100mm x 1.7μm); Flow rate: 0.3mL/min; Mobile phase A and B are water and methnaol, respectively, both with 0.1% formic acid; Gradient elution: from A/B (95/5) to A/B (100/0) in 7min, kept for 4 min, then back to A/B (95/5) in 0.1 min, and maintained for additional 1.9 min (13min in total).; Injection volume: 10 μL
Num peaks: 196
50.22528 178
71.08253 148
79.05225 92
84.95463 159
84.9624 796
84.96724 206
91.05495 114
93.06572 105
103.05766 355
105.07137 242
107.05322 91
109.05085 114
111.00362 137
111.04591 122
111.08993 101
119.04871 155
119.05914 130
121.03316 95
121.06397 124
123.04575 106
123.05273 121
123.09288 109
124.05206 181
125.05956 113
129.06789 99
131.04965 3007
131.08743 191
132.05121 148
133.03003 241
133.06783 188
134.95915 214
134.96851 93
135.04234 207
135.0518 191
135.08446 196
137.06129 1578
137.07367 151
138.06404 254
139.0421 115
146.22691 105
147.0459 731
149.02267 1191
149.02863 494
149.05862 265
149.07175 179
150.02711 236
150.06433 222
150.07196 267
151.07025 119
151.07973 294
152.08342 193
153.01888 5445
154.01526 100
154.0244 254
156.04063 97
159.04791 195
160.07979 146
160.99496 175
161.0585 641
161.06648 324
162.06836 2006
163.07698 3890
164.07832 444
165.04631 174
165.07129 1294
166.07735 2117
166.09218 148
167.02802 328
167.03743 1072
167.08383 113
173.05057 119
173.09329 257
174.10732 180
177.04829 106
177.0594 265
178.06616 208
178.94344 126
179.07268 305
180.07149 116
180.07988 336
180.08926 125
181.00899 111
183.08307 99
187.03899 145
187.10876 253
193.12256 95
195.03163 2106
197.05644 124
197.07819 222
201.04739 6574
202.05183 1222
203.04453 1923
204.04613 462
211.07265 91
213.05682 283
213.08676 125
215.09856 125
216.06877 125
223.04375 134
223.08221 91
224.95134 102
227.00673 139
229.04306 296
229.0551 690
230.04817 109
231.06537 122
233.15907 132
239.07497 325
241.05246 496
242.06548 104
242.07951 124
251.07303 750
252.08144 101
253.08191 135
253.13979 177
255.06787 194
257.04767 1016
257.06342 153
258.0574 131
258.09323 149
259.05765 153
266.05661 115
267.06436 127
269.07272 221
271.08475 151
271.10251 511
271.51108 110
272.10272 105
279.06409 138
283.05289 162
283.07114 362
283.09879 810
284.07428 173
284.10272 92
285.03632 350
292.082 152
295.05792 585
295.07959 119
296.9744 130
299.05362 94
301.08957 123
301.10977 417
302.12445 95
311.04837 403
311.06134 478
313.0806 322
321.0834 117
323.05161 97
325.01328 95
325.19525 266
329.06308 103
329.07684 155
339.06302 115
341.00455 252
341.06927 240
341.08099 117
351.0983 169
363.08478 91
369.09305 198
379.11545 757
380.12225 141
381.11383 120
387.07108 158
387.08817 480
387.10971 123
388.07727 101
391.11426 481
392.12125 221
407.10355 144
407.12494 167
408.1105 110
408.12305 120
409.12308 94
412.05472 114
415.09061 165
419.11597 948
420.11679 260
423.10098 124
430.0929 147
433.09705 1232
434.09116 233
435.11517 1115
436.11234 350
437.10779 382
437.12964 1179
437.15329 170
438.12402 130
447.10065 402
448.11032 93
453.12088 264
465.11685 1884
466.10562 200
466.12503 410
467.12997 123
483.129 9090
483.3038 202
Name: Silibinin
PrecursorMZ: 965.249
PrecursorType: [2M+H]+
IonMode: Positive
Formula: C25H22O10
SMILES: COC1=C(C=CC(=C1)C2C(OC3=C(O2)C=C(C=C3)C4C(C(=O)C5=C(C=C(C=C5O4)O)O)O)CO)O
InChI: 
InChIKey: SEBFKMXJBCUCAI-HKTJVKLFSA-N
RetentionTime: 5.836433
CCS: 
CollisionEnergy: 20-40 eV
InstrumentType: UPLC-QTOF-MS
Comment: PI: Cristina Nerin; Data collector: QiZhi Su, GUIA, University of Zaragoza, Spain; Collision energy: 20-40 V; Instrument: Waters HPLC-QTOF-MS (Xevo G2 QTof); Ionization: ESI; Deconvoluted by MS-DIAL; Column: Waters AtlantisTM premier BEH C18 AX column (2.1 × 100mm x 1.7μm); Flow rate: 0.3mL/min; Mobile phase A and B are water and methnaol, respectively, both with 0.1% formic acid; Gradient elution: from A/B (95/5) to A/B (100/0) in 7min, kept for 4 min, then back to A/B (95/5) in 0.1 min, and maintained for additional 1.9 min (13min in total).; Injection volume: 10 μL
Num peaks: 233
49.8802 55
50.11807 27
51.21315 50
51.22932 33
68.99626 23
76.04839 31
81.03247 57
81.06738 50
81.07126 44
81.95053 21
89.06413 31
91.0491 119
91.0551 119
91.06194 119
93.03326 26
93.04052 26
95.04969 28
95.06219 40
95.08549 50
97.96611 29
97.97252 25
103.05332 99
103.06177 87
106.08861 21
107.04752 48
108.04395 108
108.04791 108
109.05158 37
111.04722 57
113.02963 33
116.05189 27
116.0586 22
116.0653 22
117.07504 46
121.02832 64
121.03683 63
123.04272 26
125.02097 50
125.09668 22
126.05904 40
128.06255 27
130.05003 40
131.04955 780
131.06882 238
134.95518 50
135.08337 58
135.09836 76
137.12144 23
138.05209 67
138.05939 69
138.07733 76
138.13701 32
139.03871 60
145.00867 27
145.0237 23
145.06316 55
147.0451 145
147.05342 165
148.04057 53
148.04906 47
148.87277 21
149.02182 215
149.03024 191
149.09219 44
151.05882 33
151.11127 28
152.06317 70
152.0939 42
153.01924 1933
154.02051 181
155.03665 56
155.05011 21
155.07195 28
155.09213 38
155.10065 54
159.07454 30
160.04176 24
160.05252 20
160.98599 101
160.99875 115
161.0186 49
162.06841 453
163.077 1389
164.05193 59
168.07762 35
171.08116 33
172.07787 24
173.09543 163
173.11012 208
174.11697 41
176.00453 44
176.02217 54
177.01561 87
177.02429 89
177.05557 129
178.05261 29
178.05943 30
180.07829 126
187.02434 22
189.0141 27
194.02432 43
194.04437 35
195.02898 72
196.03639 63
198.08575 36
200.04247 53
202.01726 32
204.04138 25
209.03087 49
209.04898 47
210.08231 45
211.08228 21
212.07626 25
213.08118 26
213.09373 44
214.06494 28
221.14078 49
223.03171 56
223.07935 72
225.04669 31
225.08565 47
227.12755 22
229.50719 21
234.05341 31
237.01401 675
237.05704 99
237.06439 96
237.07892 63
240.24216 21
241.05112 89
242.04602 33
242.05812 128
243.10257 63
243.11401 28
245.06303 25
249.04953 53
249.06245 46
251.07135 53
252.07732 22
253.07983 26
255.0511 36
255.06947 28
257.01358 79
259.03885 21
259.07056 21
261.11777 29
264.06931 22
264.07932 28
269.01712 35
269.08444 88
270.10266 27
272.0975 47
272.10739 51
283.07465 32
285.04285 59
285.06442 52
285.10806 32
286.0679 46
289.06824 46
292.07147 20
295.04089 95
295.05945 30
295.07144 37
302.09863 37
310.07343 34
311.03351 109
311.09628 34
312.04108 87
312.98181 30
313.05521 27
313.077 56
323.06613 35
325.00104 58
325.01724 28
325.03604 20
337.06009 33
341.0806 36
343.01376 37
351.08435 32
354.06604 23
359.06967 74
359.08676 102
359.10025 80
363.07874 24
364.11215 38
369.07645 123
370.04727 38
370.06451 27
379.11072 112
379.13632 128
380.14963 33
407.13428 78
408.11621 30
409.09848 25
409.12021 101
409.14236 131
412.06427 35
412.54709 38
417.08011 26
418.09354 55
418.11075 34
419.11261 47
420.10309 35
421.12573 23
433.0647 206
435.09683 100
437.11938 256
439.14816 31
448.13251 21
453.0947 45
455.12537 28
465.11325 1131
465.13071 228
466.10162 24
473.06528 46
484.14709 372
485.10852 60
485.60907 157
501.1499 21
502.10565 136
502.5954 41
502.61005 63
507.10654 37
522.09985 27
536.0603 29
537.03632 153
537.06567 65
567.1557 39
615.05701 24
710.4386 20
743.6618 26
965.22101 33
965.25568 483
Name: Silibinin
PrecursorMZ: 483.1288
PrecursorType: [M+H]+
IonMode: Positive
Formula: C25H22O10
SMILES: COC1=C(C=CC(=C1)C2C(OC3=C(O2)C=C(C=C3)C4C(C(=O)C5=C(C=C(C=C5O4)O)O)O)CO)O
InChI: 
InChIKey: SEBFKMXJBCUCAI-HKTJVKLFSA-N
RetentionTime: 5.840233
CCS: 
CollisionEnergy: 20-40 eV
InstrumentType: UPLC-QTOF-MS
Comment: PI: Cristina Nerin; Data collector: QiZhi Su, GUIA, University of Zaragoza, Spain; Collision energy: 20-40 V; Instrument: Waters HPLC-QTOF-MS (Xevo G2 QTof); Ionization: ESI; Deconvoluted by MS-DIAL; Column: Waters AtlantisTM premier BEH C18 AX column (2.1 × 100mm x 1.7μm); Flow rate: 0.3mL/min; Mobile phase A and B are water and methnaol, respectively, both with 0.1% formic acid; Gradient elution: from A/B (95/5) to A/B (100/0) in 7min, kept for 4 min, then back to A/B (95/5) in 0.1 min, and maintained for additional 1.9 min (13min in total).; Injection volume: 10 μL
Num peaks: 85
103.05306 170
108.04833 100
109.05717 79
111.04256 78
119.0509 79
123.04115 121
123.05116 115
124.0741 91
131.04955 764
132.05537 101
132.06256 83
135.04221 108
137.06026 430
139.02763 187
139.04176 174
145.06729 78
147.04396 398
147.05618 408
147.06876 122
149.02417 732
152.08212 88
152.09412 93
153.01939 1380
154.02402 155
161.04985 309
161.0621 255
162.06879 434
163.07622 1218
164.0743 196
164.08226 186
166.05565 111
167.03671 312
173.07758 100
173.09271 138
173.09985 133
177.02603 86
177.05811 203
195.02957 477
196.03685 95
223.07727 110
229.04916 187
237.06232 103
239.06694 108
241.04861 300
251.07291 199
252.08809 89
257.03311 266
257.04691 188
258.06418 86
269.03677 81
269.04736 82
283.05902 84
283.0788 310
283.09689 263
283.11441 119
295.05551 224
311.05429 128
323.04355 86
323.05576 126
329.06241 166
329.08032 138
341.08496 85
359.08359 81
379.11078 381
379.12784 362
380.11951 94
387.08017 88
387.09433 125
391.11276 141
391.13516 94
407.10327 282
407.11887 267
408.10413 93
409.11569 119
409.13745 161
419.11032 347
433.09058 219
435.10626 451
436.09378 120
437.10577 207
437.12283 318
453.11246 105
465.11771 942
466.11087 219
483.13031 7800
Name: N-Nitrosodiphenylamine
PrecursorMZ: 199.088
PrecursorType: [M+H]+
IonMode: Positive
Formula: C12H10N2O
SMILES: C1=CC=C(C=C1)N(C2=CC=CC=C2)N=O
InChI: 
InChIKey: UBUCNCOMADRQHX-UHFFFAOYSA-N
RetentionTime: 6.747334
CCS: 
CollisionEnergy: 20-40 eV
InstrumentType: UPLC-QTOF-MS
Comment: PI: Cristina Nerin; Data collector: QiZhi Su, GUIA, University of Zaragoza, Spain; Collision energy: 20-40 V; Instrument: Waters HPLC-QTOF-MS (Xevo G2 QTof); Ionization: ESI; Deconvoluted by MS-DIAL; Column: Waters AtlantisTM premier BEH C18 AX column (2.1 × 100mm x 1.7μm); Flow rate: 0.3mL/min; Mobile phase A and B are water and methnaol, respectively, both with 0.1% formic acid; Gradient elution: from A/B (95/5) to A/B (100/0) in 7min, kept for 4 min, then back to A/B (95/5) in 0.1 min, and maintained for additional 1.9 min (13min in total).; Injection volume: 10 μL
Num peaks: 32
65.03577 557
65.03983 557
65.04333 557
66.04722 31314
66.06109 31332
67.04678 1992
67.0517 1994
77.03911 4373
104.03485 9848
104.05051 9822
105.05322 726
105.06568 707
116.96964 349
141.06586 408
141.07253 424
142.07361 323
142.08234 320
143.01997 502
143.02536 503
143.03409 509
143.06839 503
143.07899 520
154.06181 370
154.07112 369
154.08165 332
166.0665 343
167.07445 8356
168.08182 31625
169.08919 20667
170.09282 2342
188.06288 4777
188.56464 1220
Name: Dexamethasone
PrecursorMZ: 393.2062
PrecursorType: [M+H]+
IonMode: Positive
Formula: C22H29FO5
SMILES: CC1CC2C3CCC4=CC(=O)C=CC4(C3(C(CC2(C1(C(=O)CO)O)C)O)F)C
InChI: 
InChIKey: UREBDLICKHMUKA-CXSFZGCWSA-N
RetentionTime: 6.3661
CCS: 
CollisionEnergy: 20-40 eV
InstrumentType: UPLC-QTOF-MS
Comment: PI: Cristina Nerin; Data collector: QiZhi Su, GUIA, University of Zaragoza, Spain; Collision energy: 20-40 V; Instrument: Waters HPLC-QTOF-MS (Xevo G2 QTof); Ionization: ESI; Deconvoluted by MS-DIAL; Column: Waters AtlantisTM premier BEH C18 AX column (2.1 × 100mm x 1.7μm); Flow rate: 0.3mL/min; Mobile phase A and B are water and methnaol, respectively, both with 0.1% formic acid; Gradient elution: from A/B (95/5) to A/B (100/0) in 7min, kept for 4 min, then back to A/B (95/5) in 0.1 min, and maintained for additional 1.9 min (13min in total).; Injection volume: 10 μL
Num peaks: 251
91.05305 651
91.05901 653
93.07051 963
93.0767 988
95.04627 460
95.05379 463
95.0856 1647
97.06633 603
97.07576 599
105.06177 1071
105.07113 1072
107.08252 3390
107.08939 3386
109.05366 543
109.06603 540
109.10271 937
111.07834 531
111.08376 526
115.06638 1065
115.07749 1001
119.08588 2489
121.06649 3453
121.1011 1398
123.08068 1430
123.09045 1428
125.05923 1160
125.07954 1182
125.09443 504
125.10143 489
131.0863 1408
133.0661 872
133.08385 1412
133.10228 935
135.08151 2918
137.09441 1200
137.10197 1197
141.06245 487
143.07033 1359
143.08273 1433
143.09734 1384
145.0659 1222
145.07323 1283
145.09244 907
145.09972 798
145.10846 783
147.08185 13533
148.08536 1570
149.076 1721
149.09462 2840
149.10312 2786
151.07202 532
151.08191 539
153.09135 1752
155.07024 516
155.08775 518
159.08066 3891
160.08372 535
161.097 3366
163.07214 506
163.08141 517
165.08401 725
167.08449 578
167.09807 983
167.10843 824
169.06386 493
169.07756 544
171.06174 7062
171.08121 6917
172.0762 1125
172.08919 1121
173.09572 3897
173.10341 3904
174.10045 527
177.09283 2174
178.09502 471
179.0795 750
179.09012 844
179.10452 728
183.07974 1022
183.08862 1047
185.09735 4309
186.0954 684
186.10738 686
187.0762 1800
187.11174 1397
189.07501 608
189.09366 660
191.09277 483
193.09425 867
193.10417 825
193.12366 519
195.10103 1670
195.11514 1494
195.12709 624
196.0784 576
196.09233 535
197.08932 2784
197.10086 2839
198.09955 611
199.11211 1144
204.0952 581
205.09126 486
205.10362 466
207.10809 502
207.11905 547
207.1349 516
208.08145 640
208.08859 692
208.10039 669
209.09572 1741
209.12428 756
209.13579 808
210.10138 925
211.11284 3586
212.10934 991
212.12352 988
212.13889 541
213.0827 628
213.09404 614
213.12965 1746
215.10825 1020
219.11771 971
221.09816 2185
221.12943 506
221.13751 491
222.08818 3039
222.10234 3141
223.1104 4408
224.1134 1599
224.12552 1581
225.08826 454
225.10216 452
225.12607 3003
225.13852 3036
226.13148 545
227.1053 572
227.11736 572
227.13744 1257
227.14679 1181
234.10365 590
235.11334 4048
236.11002 1230
236.12045 1258
237.12793 15322
238.13109 3131
239.09763 605
239.10831 621
239.14255 3441
240.15169 694
241.12253 1601
246.10422 458
247.10951 797
247.12039 872
248.11967 1219
249.12827 2316
249.13739 2331
249.15512 534
250.13226 602
250.14799 561
251.10815 691
251.14496 1211
252.14777 521
252.15901 514
253.1244 2762
253.15199 906
253.1618 978
254.12396 662
254.13582 620
255.14305 1304
259.11145 732
259.12173 734
260.12027 792
260.13013 776
261.12982 1976
262.13672 1783
262.15207 1602
263.14401 3868
264.14963 1180
264.16904 623
265.15912 988
265.17041 921
267.1369 1885
267.15891 1768
267.17746 1657
272.12265 488
274.12189 598
274.13477 651
275.1416 2731
276.14069 1394
276.15598 1508
277.12091 572
277.16034 5869
278.16431 2660
278.17444 2617
278.19302 543
279.12534 578
279.13943 559
279.17502 8382
280.17059 1445
280.18204 1425
281.147 595
281.16132 682
281.18777 828
281.19809 847
286.12473 832
286.14227 860
289.15735 2351
290.14926 527
290.16525 547
291.17514 7970
292.18042 1476
293.14011 508
293.1564 521
295.16803 1998
296.16458 672
296.18176 664
297.18567 1762
301.14713 3511
301.1608 3675
302.15787 766
302.17334 549
307.16653 4036
307.17786 3949
308.16995 804
308.18347 802
309.18558 5801
310.18661 1481
310.20447 1425
319.16901 11459
320.17148 2620
325.18015 3263
326.16696 463
326.18311 889
327.19534 1427
337.17902 14546
338.18414 3271
339.17139 517
339.18524 498
343.18164 477
343.20517 491
355.18945 26325
356.19272 5767
357.19299 816
357.20648 785
373.20108 32399
374.20404 7082
375.20078 1108
375.22034 1011
381.13287 756
381.15387 684
393.2056 45177
Name: Dexamethasone
PrecursorMZ: 785.4042
PrecursorType: [2M+H]+
IonMode: Positive
Formula: C22H29FO5
SMILES: CC1CC2C3CCC4=CC(=O)C=CC4(C3(C(CC2(C1(C(=O)CO)O)C)O)F)C
InChI: 
InChIKey: UREBDLICKHMUKA-CXSFZGCWSA-N
RetentionTime: 6.3661
CCS: 
CollisionEnergy: 20-40 eV
InstrumentType: UPLC-QTOF-MS
Comment: PI: Cristina Nerin; Data collector: QiZhi Su, GUIA, University of Zaragoza, Spain; Collision energy: 20-40 V; Instrument: Waters HPLC-QTOF-MS (Xevo G2 QTof); Ionization: ESI; Deconvoluted by MS-DIAL; Column: Waters AtlantisTM premier BEH C18 AX column (2.1 × 100mm x 1.7μm); Flow rate: 0.3mL/min; Mobile phase A and B are water and methnaol, respectively, both with 0.1% formic acid; Gradient elution: from A/B (95/5) to A/B (100/0) in 7min, kept for 4 min, then back to A/B (95/5) in 0.1 min, and maintained for additional 1.9 min (13min in total).; Injection volume: 10 μL
Num peaks: 276
91.05305 651
91.05901 653
93.07051 963
93.0767 988
95.04627 460
95.05379 463
95.0856 1647
97.06633 603
97.07576 599
105.06177 1071
105.07113 1072
107.08252 3390
107.08939 3386
109.05366 543
109.06603 540
109.10271 937
111.07834 531
111.08376 526
115.06638 1065
115.07749 1001
119.08588 2489
121.06649 3453
121.1011 1398
123.08068 1430
123.09045 1428
125.05923 1160
125.07954 1182
125.09443 504
125.10143 489
131.0863 1408
133.0661 872
133.08385 1412
133.10228 935
135.08151 2918
137.09441 1200
137.10197 1197
141.06245 487
141.07222 447
141.07973 421
143.07033 1359
143.08273 1433
143.09734 1384
145.0659 1222
145.07323 1283
145.09244 907
145.09972 798
145.10846 783
147.08185 13533
148.08536 1570
149.076 1721
149.09462 2840
149.10312 2786
151.07202 532
151.08191 539
151.10902 425
151.11729 423
153.09135 1752
155.07024 516
155.08775 518
159.08066 3891
160.08372 535
161.097 3366
163.06189 437
163.07214 506
163.08141 517
165.07132 426
165.08401 725
165.09497 438
167.07617 443
167.08449 578
167.09807 983
167.10843 824
169.06386 493
169.07756 544
171.06174 7062
171.08121 6917
172.0762 1125
172.08919 1121
173.09572 3897
173.10341 3904
174.10045 527
175.10007 431
175.11206 432
177.09283 2174
178.07956 440
178.09502 471
179.0795 750
179.09012 844
179.10452 728
183.07974 1022
183.08862 1047
185.09735 4309
186.0954 684
186.10738 686
187.0762 1800
187.11174 1397
189.07501 608
189.09366 660
191.09277 483
193.09425 867
193.10417 825
193.12366 519
195.10103 1670
195.11514 1494
195.12709 624
196.0784 576
196.09233 535
197.08932 2784
197.10086 2839
198.09955 611
199.11211 1144
203.10626 435
204.0952 581
205.09126 486
205.10362 466
207.10809 502
207.11905 547
207.1349 516
208.08145 640
208.08859 692
208.10039 669
209.09572 1741
209.12428 756
209.13579 808
210.10138 925
211.11284 3586
212.10934 991
212.12352 988
212.13889 541
213.0827 628
213.09404 614
213.12965 1746
215.10825 1020
219.11771 971
221.09816 2185
221.12943 506
221.13751 491
222.08818 3039
222.10234 3141
223.1104 4408
224.1134 1599
224.12552 1581
225.08826 454
225.10216 452
225.12607 3003
225.13852 3036
226.13148 545
227.1053 572
227.11736 572
227.13744 1257
227.14679 1181
234.10365 590
235.11334 4048
236.11002 1230
236.12045 1258
237.12793 15322
238.13109 3131
239.09763 605
239.10831 621
239.14255 3441
240.15169 694
241.12253 1601
243.10367 449
246.10422 458
247.10951 797
247.12039 872
248.11967 1219
249.12827 2316
249.13739 2331
249.15512 534
250.13226 602
250.14799 561
251.10815 691
251.14496 1211
252.14777 521
252.15901 514
253.1244 2762
253.15199 906
253.1618 978
254.12396 662
254.13582 620
255.14305 1304
259.11145 732
259.12173 734
260.12027 792
260.13013 776
261.12982 1976
262.13672 1783
262.15207 1602
263.14401 3868
264.14963 1180
264.16904 623
265.15912 988
265.17041 921
267.1369 1885
267.15891 1768
267.17746 1657
268.14545 429
270.31357 440
272.1095 423
272.12265 488
274.12189 598
274.13477 651
275.1416 2731
276.14069 1394
276.15598 1508
277.12091 572
277.16034 5869
278.16431 2660
278.17444 2617
278.19302 543
279.12534 578
279.13943 559
279.17502 8382
280.17059 1445
280.18204 1425
281.147 595
281.16132 682
281.18777 828
281.19809 847
286.12473 832
286.14227 860
289.15735 2351
290.14926 527
290.16525 547
291.17514 7970
292.18042 1476
293.14011 508
293.1564 521
295.16803 1998
296.16458 672
296.18176 664
297.18567 1762
301.14713 3511
301.1608 3675
302.15787 766
302.17334 549
307.16653 4036
307.17786 3949
308.16995 804
308.18347 802
309.18558 5801
310.18661 1481
310.20447 1425
319.16901 11459
320.17148 2620
325.18015 3263
326.16696 463
326.18311 889
327.19534 1427
337.17902 14546
338.18414 3271
339.17139 517
339.18524 498
339.19589 444
343.18164 477
343.20517 491
355.18945 26325
356.19272 5767
357.19299 816
357.20648 785
373.20108 32399
374.20404 7082
375.20078 1108
375.22034 1011
381.13287 756
381.15387 684
393.2056 41754
394.20789 9212
395.21353 897
415.19037 6593
416.18237 1321
416.20016 1398
431.15768 482
431.17365 533
785.40576 10450
Name: N-Nitrosodiphenylamine
PrecursorMZ: 199.088
PrecursorType: [M+H]+
IonMode: Positive
Formula: C12H10N2O
SMILES: C1=CC=C(C=C1)N(C2=CC=CC=C2)N=O
InChI: 
InChIKey: UBUCNCOMADRQHX-UHFFFAOYSA-N
RetentionTime: 6.690183
CCS: 
CollisionEnergy: 20-40 eV
InstrumentType: UPLC-QTOF-MS
Comment: PI: Cristina Nerin; Data collector: QiZhi Su, GUIA, University of Zaragoza, Spain; Collision energy: 20-40 V; Instrument: Waters HPLC-QTOF-MS (Xevo G2 QTof); Ionization: ESI; Deconvoluted by MS-DIAL; Column: Waters AtlantisTM premier BEH C18 AX column (2.1 × 100mm x 1.7μm); Flow rate: 0.3mL/min; Mobile phase A and B are water and methnaol, respectively, both with 0.1% formic acid; Gradient elution: from A/B (95/5) to A/B (100/0) in 7min, kept for 4 min, then back to A/B (95/5) in 0.1 min, and maintained for additional 1.9 min (13min in total).; Injection volume: 10 μL
Num peaks: 69
56.96756 143
65.03862 171
65.04669 259
67.05071 717
70.98265 180
77.03949 1531
78.04012 618
78.04638 618
78.05404 625
81.06575 117
81.07139 117
81.0787 117
92.04945 254
93.05905 111
93.06821 123
95.08047 126
105.05327 330
105.06725 574
115.03757 174
117.04848 197
117.06054 219
117.06956 190
123.08328 130
128.05084 240
128.06129 250
128.06784 244
139.03793 182
139.05574 222
140.04874 173
140.07085 176
142.05772 212
142.52692 151
142.53995 123
142.54642 129
142.55913 138
149.00241 130
151.04736 127
151.05537 168
154.0647 416
154.07536 449
154.08617 326
165.05771 190
165.07202 189
165.08942 120
166.05939 272
166.08299 373
167.07396 926
168.0816 1552
169.08862 4954
170.09399 994
181.01939 158
187.05408 121
187.54987 137
187.56192 151
188.06194 10652
188.08028 10940
188.56459 3127
189.05823 422
189.07118 418
191.05254 284
191.06883 296
192.06882 125
196.05136 161
196.06857 154
197.06679 674
197.08932 131
197.56844 190
198.06595 115
199.09726 164
Name: Ursodeoxycholic acid
PrecursorMZ: 785.592
PrecursorType: [2M+H]+
IonMode: Positive
Formula: C24H40O4
SMILES: CC(CCC(=O)O)C1CCC2C1(CCC3C2C(CC4C3(CCC(C4)O)C)O)C
InChI: 
InChIKey: RUDATBOHQWOJDD-UZVSRGJWSA-N
RetentionTime: 7.250317
CCS: 
CollisionEnergy: 20-40 eV
InstrumentType: UPLC-QTOF-MS
Comment: PI: Cristina Nerin; Data collector: QiZhi Su, GUIA, University of Zaragoza, Spain; Collision energy: 20-40 V; Instrument: Waters HPLC-QTOF-MS (Xevo G2 QTof); Ionization: ESI; Deconvoluted by MS-DIAL; Column: Waters AtlantisTM premier BEH C18 AX column (2.1 × 100mm x 1.7μm); Flow rate: 0.3mL/min; Mobile phase A and B are water and methnaol, respectively, both with 0.1% formic acid; Gradient elution: from A/B (95/5) to A/B (100/0) in 7min, kept for 4 min, then back to A/B (95/5) in 0.1 min, and maintained for additional 1.9 min (13min in total).; Injection volume: 10 μL
Num peaks: 29
81.07137 4218
135.1123 4724
135.11882 4721
161.13332 4808
175.14928 5353
189.16481 4325
195.13982 4251
201.16502 4432
215.18062 5823
243.2121 4964
247.15947 3562
247.17078 3569
275.20169 4112
321.25815 5154
339.26898 21939
340.2739 5577
357.27942 350215
358.28275 88519
359.28607 10217
375.28995 60205
376.29294 14179
397.2717 3527
415.2825 5007
589.44092 3645
749.57184 14880
750.578 7657
767.58429 12134
768.58386 6290
785.59204 29563
Name: Ursodeoxycholic acid
PrecursorMZ: 802.622
PrecursorType: [2M+NH4]+
IonMode: Positive
Formula: C24H40O4
SMILES: CC(CCC(=O)O)C1CCC2C1(CCC3C2C(CC4C3(CCC(C4)O)C)O)C
InChI: 
InChIKey: RUDATBOHQWOJDD-UZVSRGJWSA-N
RetentionTime: 7.27315
CCS: 
CollisionEnergy: 20-40 eV
InstrumentType: UPLC-QTOF-MS
Comment: PI: Cristina Nerin; Data collector: QiZhi Su, GUIA, University of Zaragoza, Spain; Collision energy: 20-40 V; Instrument: Waters HPLC-QTOF-MS (Xevo G2 QTof); Ionization: ESI; Deconvoluted by MS-DIAL; Column: Waters AtlantisTM premier BEH C18 AX column (2.1 × 100mm x 1.7μm); Flow rate: 0.3mL/min; Mobile phase A and B are water and methnaol, respectively, both with 0.1% formic acid; Gradient elution: from A/B (95/5) to A/B (100/0) in 7min, kept for 4 min, then back to A/B (95/5) in 0.1 min, and maintained for additional 1.9 min (13min in total).; Injection volume: 10 μL
Num peaks: 351
54.17495 41
54.3956 41
55.01532 41
55.30931 38
55.32227 40
60.07578 124
60.08216 117
60.08769 118
69.07228 96
76.53929 37
79.02219 110
79.02668 110
79.05386 108
83.04358 61
83.05132 62
83.08568 148
83.09029 147
92.05074 40
92.06022 40
95.08627 37
97.09943 46
97.10883 50
99.04304 101
99.04765 100
99.05511 104
105.06927 224
105.07478 226
106.0609 81
106.07235 73
106.07987 45
106.08763 44
107.06831 260
107.08561 375
107.09962 345
110.09597 43
110.10567 46
113.06944 38
113.08279 39
115.07214 86
115.07832 92
115.08648 110
118.07587 50
118.08558 51
119.06628 129
119.07393 576
119.08669 635
121.08568 94
121.10218 85
122.09496 141
122.1024 140
122.11172 141
123.12177 48
123.13042 60
129.07814 88
129.09045 56
131.08687 84
131.09811 86
133.06537 88
133.07239 53
133.08522 300
133.10359 285
135.11726 579
136.11475 82
136.12367 87
137.09467 147
139.08363 37
141.06537 44
141.08716 60
143.07404 70
143.08778 101
143.0945 111
143.11243 77
145.09074 117
145.10414 125
147.07106 60
147.08199 63
147.11281 512
147.12102 492
149.09088 46
149.11002 238
149.13228 477
151.14371 76
151.15131 56
154.09712 50
157.09274 91
157.10669 110
157.12271 87
159.11615 279
159.13188 296
161.13348 603
162.13788 75
163.1179 76
163.14859 385
164.14926 87
164.16078 104
165.07562 42
165.09821 71
165.11836 80
165.12943 76
167.08893 170
167.10396 134
167.12108 140
167.14107 80
169.10144 45
169.11986 137
173.13171 225
173.13904 229
175.12039 52
175.1505 418
176.13731 214
176.15092 181
176.16034 148
177.1223 137
177.132 129
178.13689 95
181.09654 43
181.12451 338
182.1414 39
185.1321 79
186.14272 40
187.14655 216
187.15559 223
188.15103 96
189.10941 146
189.12589 104
189.15579 175
189.16434 231
191.14418 50
191.15245 87
195.13054 59
196.13803 65
199.14928 89
201.16672 316
202.16905 73
202.18192 124
203.13773 67
203.15042 88
203.16249 203
203.17822 75
204.1846 106
204.92662 49
205.17032 62
207.11728 140
207.13715 200
207.14439 152
215.18202 239
217.19283 116
217.20245 88
219.15485 76
221.1516 257
221.16212 280
222.15797 60
224.1046 40
224.1239 52
225.16223 139
225.17339 145
229.13904 129
229.15237 233
229.17 303
229.19589 321
230.16403 39
230.19006 102
230.20428 52
231.19701 65
233.13837 50
233.16261 70
235.12407 39
235.14131 45
235.17308 169
237.17236 48
239.16837 79
239.1888 84
240.19469 55
243.21211 278
244.18823 86
244.24904 38
249.13176 46
249.14949 45
249.16393 80
249.18874 130
253.18893 94
253.19978 92
255.19429 78
255.20882 146
255.226 101
258.22507 44
261.16519 119
261.18607 115
261.43137 63
265.02985 40
265.11682 70
265.13336 58
265.15359 39
265.17725 63
265.19434 59
265.20905 112
277.18649 60
277.21503 40
287.1987 59
289.20914 37
289.21991 65
295.21036 37
297.20728 40
297.25851 57
298.2681 38
302.20392 55
302.21857 122
302.23987 58
310.30768 38
314.19748 56
319.22726 53
319.24582 50
321.12845 49
321.21204 72
321.26007 220
322.26608 42
337.25137 41
355.26459 101
356.29498 37
358.22675 60
359.28824 226
359.80167 37
360.27817 114
360.29196 143
360.52036 95
360.56927 79
379.20908 41
379.25473 262
379.27774 151
386.27441 52
393.19391 54
393.20407 43
393.31161 89
393.32745 88
396.2218 50
397.27472 1060
398.27951 143
399.29269 61
410.19394 105
410.32999 390
411.18423 248
411.20636 526
411.31027 46
411.32745 93
412.19241 230
412.20999 228
413.23944 339
414.22415 63
415.28293 3606
415.78708 37
416.28287 843
417.28415 186
417.31137 62
423.16733 88
429.18359 54
429.21021 171
429.31891 37
430.21243 66
430.23132 43
431.20334 189
431.25494 378
432.24472 85
432.26239 103
571.41095 242
571.45953 303
571.91193 47
573.40173 91
581.88446 40
582.41461 55
582.93146 74
583.92621 54
588.41931 39
589.38788 134
590.96088 69
591.4303 352
591.9212 336
591.93835 522
592.44037 90
598.89648 43
600.42889 655
600.44672 792
600.94238 852
600.97156 55
601.44781 232
601.91992 41
608.42944 60
608.93018 38
611.39514 142
611.42902 452
611.92767 316
612.42218 120
627.40247 119
627.89539 91
671.32178 56
731.53528 125
735.50647 42
750.59729 139
751.53046 67
754.56268 50
767.44629 37
768.48596 75
769.04803 135
769.52972 64
769.63141 79
770.03741 50
770.55573 61
771.52783 90
771.56635 129
772.5351 69
772.55688 95
776.49762 56
776.53265 73
776.56946 81
776.63184 44
777.04034 101
778.05438 65
778.53442 77
779.06152 58
779.5658 52
785.4657 68
786.51038 49
787.03436 155
787.50568 348
787.5528 214
787.58191 79
787.62708 235
788.06781 60
788.61792 86
789.51154 57
789.56158 150
789.58716 101
790.55762 70
790.59637 42
791.11578 61
791.56378 54
795.03796 64
795.06946 40
795.54865 60
796.0567 128
796.09296 51
796.50128 57
796.57947 1144
797.06354 364
797.09814 63
797.57983 637
798.05426 137
798.55219 69
802.59784 38
802.6377 190
803.05157 40
803.07312 55
Name: Nitrofurazone
PrecursorMZ: 199.0476
PrecursorType: [M+H]+
IonMode: Positive
Formula: C6H6N4O4
SMILES: C1=C(OC(=C1)[N+](=O)[O-])C=NNC(=O)N
InChI: 
InChIKey: IAIWVQXQOWNYOU-FPYGCLRLSA-N
RetentionTime: 3.664367
CCS: 
CollisionEnergy: 20-40 eV
InstrumentType: UPLC-QTOF-MS
Comment: PI: Cristina Nerin; Data collector: QiZhi Su, GUIA, University of Zaragoza, Spain; Collision energy: 20-40 V; Instrument: Waters HPLC-QTOF-MS (Xevo G2 QTof); Ionization: ESI; Deconvoluted by MS-DIAL; Column: Waters AtlantisTM premier BEH C18 AX column (2.1 × 100mm x 1.7μm); Flow rate: 0.3mL/min; Mobile phase A and B are water and methnaol, respectively, both with 0.1% formic acid; Gradient elution: from A/B (95/5) to A/B (100/0) in 7min, kept for 4 min, then back to A/B (95/5) in 0.1 min, and maintained for additional 1.9 min (13min in total).; Injection volume: 10 μL
Num peaks: 15
79.01879 87
79.05218 77
79.05809 77
81.04358 78
103.05222 77
105.07031 7353
106.06642 536
106.07649 539
106.08434 541
148.11356 191
148.1283 159
189.12054 488
189.14034 792
190.13947 118
190.14635 115
Name: Quinine
PrecursorMZ: 325.1914
PrecursorType: [M+H]+
IonMode: Positive
Formula: C20H24N2O2
SMILES: COC1=CC2=C(C=CN=C2C=C1)C(C3CC4CCN3CC4C=C)O
InChI: 
InChIKey: LOUPRKONTZGTKE-WZBLMQSHSA-N
RetentionTime: 2.117317
CCS: 
CollisionEnergy: 20-40 eV
InstrumentType: UPLC-QTOF-MS
Comment: PI: Cristina Nerin; Data collector: QiZhi Su, GUIA, University of Zaragoza, Spain; Collision energy: 20-40 V; Instrument: Waters HPLC-QTOF-MS (Xevo G2 QTof); Ionization: ESI; Deconvoluted by MS-DIAL; Column: Waters AtlantisTM premier BEH C18 AX column (2.1 × 100mm x 1.7μm); Flow rate: 0.3mL/min; Mobile phase A and B are water and methnaol, respectively, both with 0.1% formic acid; Gradient elution: from A/B (95/5) to A/B (100/0) in 7min, kept for 4 min, then back to A/B (95/5) in 0.1 min, and maintained for additional 1.9 min (13min in total).; Injection volume: 10 μL
Num peaks: 86
67.04252 762
67.05489 753
67.061 763
79.05555 1867
79.06967 1888
80.04984 601
81.05515 4569
81.07018 4480
82.06146 733
82.0667 765
82.08073 696
94.06724 470
96.07754 513
96.08211 516
108.07353 934
108.08327 870
108.09245 855
110.09627 1406
110.10214 1423
117.05421 1343
117.05993 1358
117.06839 1353
117.07626 1218
118.08761 478
134.0938 1044
134.10048 1059
134.11266 913
135.10023 410
135.10931 440
136.11201 522
136.11792 478
146.05496 792
146.06166 806
146.06805 786
159.06711 684
160.07681 3693
161.07893 564
161.08813 511
166.12308 504
172.05519 2089
172.07339 3388
172.08186 3363
173.07724 1327
173.08401 1395
174.05035 615
174.05878 705
174.06757 479
174.08446 1114
174.09528 994
184.07648 3895
185.07645 769
186.09286 2244
188.05675 539
188.07176 597
189.10101 559
197.08311 550
197.09225 503
198.09114 2555
199.08696 802
199.10054 793
210.08151 916
210.09341 970
211.09483 463
224.09546 608
224.11057 711
226.11972 681
226.13033 609
227.12082 514
250.12309 464
251.10938 842
251.11861 1172
252.10808 715
252.12608 771
253.13495 2843
254.15535 719
264.12619 1181
264.14462 1408
265.13629 785
278.14685 555
278.15683 587
279.14801 1746
279.16748 831
280.16147 459
307.18207 5648
308.1846 840
325.19147 40444
Name: Niflumic acid
PrecursorMZ: 283.0708
PrecursorType: [M+H]+
IonMode: Positive
Formula: C13H9F3N2O2
SMILES: C1=CC(=CC(=C1)NC2=C(C=CC=N2)C(=O)O)C(F)(F)F
InChI: 
InChIKey: JZFPYUNJRRFVQU-UHFFFAOYSA-N
RetentionTime: 9.43735
CCS: 
CollisionEnergy: 20-40 eV
InstrumentType: UPLC-QTOF-MS
Comment: PI: Cristina Nerin; Data collector: QiZhi Su, GUIA, University of Zaragoza, Spain; Collision energy: 20-40 V; Instrument: Waters HPLC-QTOF-MS (Xevo G2 QTof); Ionization: ESI; Deconvoluted by MS-DIAL; Column: Waters AtlantisTM premier BEH C18 AX column (2.1 × 100mm x 1.7μm); Flow rate: 0.3mL/min; Mobile phase A and B are water and methnaol, respectively, both with 0.1% formic acid; Gradient elution: from A/B (95/5) to A/B (100/0) in 7min, kept for 4 min, then back to A/B (95/5) in 0.1 min, and maintained for additional 1.9 min (13min in total).; Injection volume: 10 μL
Num peaks: 15
78.03497 5596
145.02669 22409
168.06937 17105
196.06395 20151
197.05392 10713
217.05785 30502
218.05261 7375
237.06421 3839
237.08009 3953
245.05362 81389
246.05589 10605
265.05954 352652
266.06277 49058
267.06573 3613
283.06998 58505
Name: Niflumic acid
PrecursorMZ: 305.0518
PrecursorType: [M+Na]+
IonMode: Positive
Formula: C13H9F3N2O2
SMILES: C1=CC(=CC(=C1)NC2=C(C=CC=N2)C(=O)O)C(F)(F)F
InChI: 
InChIKey: JZFPYUNJRRFVQU-UHFFFAOYSA-N
RetentionTime: 9.448767
CCS: 
CollisionEnergy: 20-40 eV
InstrumentType: UPLC-QTOF-MS
Comment: PI: Cristina Nerin; Data collector: QiZhi Su, GUIA, University of Zaragoza, Spain; Collision energy: 20-40 V; Instrument: Waters HPLC-QTOF-MS (Xevo G2 QTof); Ionization: ESI; Deconvoluted by MS-DIAL; Column: Waters AtlantisTM premier BEH C18 AX column (2.1 × 100mm x 1.7μm); Flow rate: 0.3mL/min; Mobile phase A and B are water and methnaol, respectively, both with 0.1% formic acid; Gradient elution: from A/B (95/5) to A/B (100/0) in 7min, kept for 4 min, then back to A/B (95/5) in 0.1 min, and maintained for additional 1.9 min (13min in total).; Injection volume: 10 μL
Num peaks: 109
55.05143 49
61.6637 46
68.78448 54
89.05851 77
89.06648 67
95.03004 61
95.04378 107
95.05985 58
95.10642 128
96.04335 48
99.96366 97
101.05958 50
111.04105 71
117.03905 62
119.00952 46
119.0211 55
119.06622 67
121.06821 60
122.02778 45
122.08451 52
122.10452 45
123.0835 67
131.08643 45
133.10039 61
133.11186 57
137.06168 68
140.06125 81
142.06412 56
145.0506 45
145.082 57
147.04486 85
153.03969 84
153.05673 69
155.00237 51
159.12152 45
159.14066 63
161.04315 245
161.0526 224
163.04407 182
168.00606 67
168.04012 82
169.03215 95
169.04427 68
170.01913 72
171.01247 55
171.02846 53
171.04454 92
175.12524 96
175.14023 68
176.01607 51
179.07973 147
187.06367 91
187.07536 103
191.06952 72
191.12953 63
193.08542 53
193.12553 45
195.1003 85
197.12767 45
197.13794 52
199.00983 67
199.02289 54
210.07831 125
216.04605 96
216.05815 107
216.06575 116
218.01898 55
218.04932 53
218.06355 154
220.07942 68
222.03758 89
223.04689 70
225.04332 59
226.07442 146
237.06882 180
237.10455 487
237.1423 49
237.15114 56
238.05077 47
238.07484 263
238.09857 83
243.05148 77
243.06837 75
245.20598 54
245.21686 59
249.23645 46
261.24377 57
261.25836 46
263.04749 136
263.0661 152
263.22739 64
264.09238 85
265.36093 82
266.11505 56
266.29919 47
267.03946 217
267.12122 89
267.20084 56
270.31451 58
270.32416 60
271.03299 48
281.24588 64
283.06958 4463
283.13861 58
284.07339 88
296.09244 81
296.1058 48
305.05289 1318
305.07932 52
Name: Galanthamine
PrecursorMZ: 288.1599
PrecursorType: [M+H]+
IonMode: Positive
Formula: C17H21NO3
SMILES: CN1CCC23C=CC(CC2OC4=C(C=CC(=C34)C1)OC)O
InChI: 
InChIKey: ASUTZQLVASHGKV-JDFRZJQESA-N
RetentionTime: 0.8671
CCS: 
CollisionEnergy: 20-40 eV
InstrumentType: UPLC-QTOF-MS
Comment: PI: Cristina Nerin; Data collector: QiZhi Su, GUIA, University of Zaragoza, Spain; Collision energy: 20-40 V; Instrument: Waters HPLC-QTOF-MS (Xevo G2 QTof); Ionization: ESI; Deconvoluted by MS-DIAL; Column: Waters AtlantisTM premier BEH C18 AX column (2.1 × 100mm x 1.7μm); Flow rate: 0.3mL/min; Mobile phase A and B are water and methnaol, respectively, both with 0.1% formic acid; Gradient elution: from A/B (95/5) to A/B (100/0) in 7min, kept for 4 min, then back to A/B (95/5) in 0.1 min, and maintained for additional 1.9 min (13min in total).; Injection volume: 10 μL
Num peaks: 119
58.06596 316
77.03507 226
77.03889 226
79.05346 211
79.06019 213
103.0531 198
103.05811 199
105.06969 4333
106.07348 500
132.08208 209
132.08849 196
133.08005 203
135.07442 394
135.08192 380
137.04683 214
137.06036 220
143.08429 210
143.09256 217
151.08646 232
152.06113 233
152.06877 240
153.0694 352
155.03979 215
155.05167 242
159.07393 199
159.08136 210
160.09814 253
161.08275 651
161.09433 696
161.10361 662
165.06671 329
165.08301 296
166.06638 417
166.0809 450
167.07823 419
167.08815 438
167.09714 378
169.06264 579
169.06911 581
170.05646 823
170.07188 972
170.08533 870
171.08185 461
171.09096 451
175.06729 809
175.07739 815
175.10304 604
175.1183 617
175.13245 524
179.08194 883
179.09302 881
181.06404 1012
181.10594 592
182.07016 2079
182.09142 1560
183.03555 1258
183.04614 1281
183.06956 613
183.08028 640
183.08836 637
184.03583 212
184.04712 211
185.09892 1142
189.06729 275
189.09077 466
189.10129 481
190.08859 195
191.06805 352
191.08023 449
191.09065 450
191.1031 340
191.14406 204
191.1579 221
194.06039 271
194.07153 336
194.08046 367
194.09247 224
195.07909 334
195.09775 236
197.05217 573
197.06079 652
197.07805 1223
197.09731 1011
198.06844 12022
199.06523 2003
199.07623 1958
200.08009 257
203.10555 1117
207.07378 427
207.08134 438
209.07806 893
209.0919 1066
209.10168 1064
210.06131 425
210.07088 448
210.09247 257
210.116 274
211.07875 282
213.09204 19280
214.08545 2802
214.09692 2812
215.09618 347
215.10858 324
225.09207 2183
225.11031 1583
226.09128 397
226.10527 359
227.11534 215
229.0954 196
231.10086 3766
232.09251 512
232.10883 528
254.11758 309
255.11508 656
255.12592 666
270.14853 1480
271.14084 296
271.15332 351
288.15869 2864
Name: Chlorbenzoxamine
PrecursorMZ: 435.2207
PrecursorType: [M+H]+
IonMode: Positive
Formula: C27H31ClN2O
SMILES: CC1=CC=CC=C1CN2CCN(CC2)CCOC(C3=CC=CC=C3)C4=CC=CC=C4Cl
InChI: 
InChIKey: VEVSKUJZSMGTMM-UHFFFAOYSA-N
RetentionTime: 5.11635
CCS: 
CollisionEnergy: 20-40 eV
InstrumentType: UPLC-QTOF-MS
Comment: PI: Cristina Nerin; Data collector: QiZhi Su, GUIA, University of Zaragoza, Spain; Collision energy: 20-40 V; Instrument: Waters HPLC-QTOF-MS (Xevo G2 QTof); Ionization: ESI; Deconvoluted by MS-DIAL; Column: Waters AtlantisTM premier BEH C18 AX column (2.1 × 100mm x 1.7μm); Flow rate: 0.3mL/min; Mobile phase A and B are water and methnaol, respectively, both with 0.1% formic acid; Gradient elution: from A/B (95/5) to A/B (100/0) in 7min, kept for 4 min, then back to A/B (95/5) in 0.1 min, and maintained for additional 1.9 min (13min in total).; Injection volume: 10 μL
Num peaks: 14
105.07127 1625
105.07819 1626
105.08585 1600
165.07181 7509
166.07884 12449
167.08249 1342
167.09169 1361
180.10986 433
201.04817 40501
202.05115 4970
203.04521 12668
204.04736 1608
233.16585 1140
435.22894 565
Name: Chlorbenzoxamine
PrecursorMZ: 435.2207
PrecursorType: [M+H]+
IonMode: Positive
Formula: C27H31ClN2O
SMILES: CC1=CC=CC=C1CN2CCN(CC2)CCOC(C3=CC=CC=C3)C4=CC=CC=C4Cl
InChI: 
InChIKey: VEVSKUJZSMGTMM-UHFFFAOYSA-N
RetentionTime: 5.291467
CCS: 
CollisionEnergy: 20-40 eV
InstrumentType: UPLC-QTOF-MS
Comment: PI: Cristina Nerin; Data collector: QiZhi Su, GUIA, University of Zaragoza, Spain; Collision energy: 20-40 V; Instrument: Waters HPLC-QTOF-MS (Xevo G2 QTof); Ionization: ESI; Deconvoluted by MS-DIAL; Column: Waters AtlantisTM premier BEH C18 AX column (2.1 × 100mm x 1.7μm); Flow rate: 0.3mL/min; Mobile phase A and B are water and methnaol, respectively, both with 0.1% formic acid; Gradient elution: from A/B (95/5) to A/B (100/0) in 7min, kept for 4 min, then back to A/B (95/5) in 0.1 min, and maintained for additional 1.9 min (13min in total).; Injection volume: 10 μL
Num peaks: 12
105.07129 3884
165.05043 1969
165.07076 17345
166.07884 31420
167.08261 4112
201.0482 95731
202.05148 12091
203.04532 29427
204.05003 3893
204.06604 3901
233.16756 3474
435.21948 3090
Name: Bis(2-ethylhexyl)amine
PrecursorMZ: 242.2853
PrecursorType: [M+H]+
IonMode: Positive
Formula: C16H35N
SMILES: CCCCC(CC)CNCC(CC)CCCC
InChI: 
InChIKey: SAIKULLUBZKPDA-UHFFFAOYSA-N
RetentionTime: 4.918
CCS: 
CollisionEnergy: 20-40 eV
InstrumentType: UPLC-QTOF-MS
Comment: PI: Cristina Nerin; Data collector: QiZhi Su, GUIA, University of Zaragoza, Spain; Collision energy: 20-40 V; Instrument: Waters HPLC-QTOF-MS (Xevo G2 QTof); Ionization: ESI; Deconvoluted by MS-DIAL; Column: Waters AtlantisTM premier BEH C18 AX column (2.1 × 100mm x 1.7μm); Flow rate: 0.3mL/min; Mobile phase A and B are water and methnaol, respectively, both with 0.1% formic acid; Gradient elution: from A/B (95/5) to A/B (100/0) in 7min, kept for 4 min, then back to A/B (95/5) in 0.1 min, and maintained for additional 1.9 min (13min in total).; Injection volume: 10 μL
Num peaks: 9
57.07041 8564
71.08614 27236
71.10395 27298
72.09058 1542
130.15897 7662
131.15579 597
131.1633 597
131.17522 615
242.28441 55520
Name: Bis(2-ethylhexyl)amine
PrecursorMZ: 242.2857
PrecursorType: [M+H]+
IonMode: Positive
Formula: C16H35N
SMILES: CCCCC(CC)CNCC(CC)CCCC
InChI: 
InChIKey: SAIKULLUBZKPDA-UHFFFAOYSA-N
RetentionTime: 5.0936
CCS: 
CollisionEnergy: 20-40 eV
InstrumentType: UPLC-QTOF-MS
Comment: PI: Cristina Nerin; Data collector: QiZhi Su, GUIA, University of Zaragoza, Spain; Collision energy: 20-40 V; Instrument: Waters HPLC-QTOF-MS (Xevo G2 QTof); Ionization: ESI; Deconvoluted by MS-DIAL; Column: Waters AtlantisTM premier BEH C18 AX column (2.1 × 100mm x 1.7μm); Flow rate: 0.3mL/min; Mobile phase A and B are water and methnaol, respectively, both with 0.1% formic acid; Gradient elution: from A/B (95/5) to A/B (100/0) in 7min, kept for 4 min, then back to A/B (95/5) in 0.1 min, and maintained for additional 1.9 min (13min in total).; Injection volume: 10 μL
Num peaks: 10
57.07032 15727
58.0722 883
58.07853 886
71.06754 56437
71.08584 56328
72.0707 3232
72.08971 3170
130.15895 15908
131.16382 1462
242.28403 85291
Name: Dipyridamole
PrecursorMZ: 505.3269
PrecursorType: [M+H]+
IonMode: Positive
Formula: C24H40N8O4
SMILES: C1CCN(CC1)C2=NC(=NC3=C2N=C(N=C3N4CCCCC4)N(CCO)CCO)N(CCO)CCO
InChI: 
InChIKey: IZEKFCXSFNUWAM-UHFFFAOYSA-N
RetentionTime: 4.46815
CCS: 
CollisionEnergy: 20-40 eV
InstrumentType: UPLC-QTOF-MS
Comment: PI: Cristina Nerin; Data collector: QiZhi Su, GUIA, University of Zaragoza, Spain; Collision energy: 20-40 V; Instrument: Waters HPLC-QTOF-MS (Xevo G2 QTof); Ionization: ESI; Deconvoluted by MS-DIAL; Column: Waters AtlantisTM premier BEH C18 AX column (2.1 × 100mm x 1.7μm); Flow rate: 0.3mL/min; Mobile phase A and B are water and methnaol, respectively, both with 0.1% formic acid; Gradient elution: from A/B (95/5) to A/B (100/0) in 7min, kept for 4 min, then back to A/B (95/5) in 0.1 min, and maintained for additional 1.9 min (13min in total).; Injection volume: 10 μL
Num peaks: 10
385.24557 66024
429.272 57494
430.27783 27440
460.29025 28978
487.3129 26640
505.32544 2469036
505.44241 39465
505.55008 99984
505.67957 40048
505.74377 34570
Name: Dipyridamole
PrecursorMZ: 1009.642
PrecursorType: [2M+H]+
IonMode: Positive
Formula: C24H40N8O4
SMILES: C1CCN(CC1)C2=NC(=NC3=C2N=C(N=C3N4CCCCC4)N(CCO)CCO)N(CCO)CCO
InChI: 
InChIKey: IZEKFCXSFNUWAM-UHFFFAOYSA-N
RetentionTime: 4.46815
CCS: 
CollisionEnergy: 20-40 eV
InstrumentType: UPLC-QTOF-MS
Comment: PI: Cristina Nerin; Data collector: QiZhi Su, GUIA, University of Zaragoza, Spain; Collision energy: 20-40 V; Instrument: Waters HPLC-QTOF-MS (Xevo G2 QTof); Ionization: ESI; Deconvoluted by MS-DIAL; Column: Waters AtlantisTM premier BEH C18 AX column (2.1 × 100mm x 1.7μm); Flow rate: 0.3mL/min; Mobile phase A and B are water and methnaol, respectively, both with 0.1% formic acid; Gradient elution: from A/B (95/5) to A/B (100/0) in 7min, kept for 4 min, then back to A/B (95/5) in 0.1 min, and maintained for additional 1.9 min (13min in total).; Injection volume: 10 μL
Num peaks: 12
385.24557 66027
429.272 57498
430.27783 27441
460.29025 28979
487.3129 26641
505.32544 2219682
505.44241 30825
505.55008 79197
505.67957 29364
505.74377 26217
506.32721 735412
507.33023 109224
Name: L-Thiaproline
PrecursorMZ: 134.0278
PrecursorType: [M+H]+
IonMode: Positive
Formula: C4H7NO2S
SMILES: C1C(NCS1)C(=O)O
InChI: 
InChIKey: DZLNHFMRPBPULJ-VKHMYHEASA-N
RetentionTime: 0.8709167
CCS: 
CollisionEnergy: 20-40 eV
InstrumentType: UPLC-QTOF-MS
Comment: PI: Cristina Nerin; Data collector: QiZhi Su, GUIA, University of Zaragoza, Spain; Collision energy: 20-40 V; Instrument: Waters HPLC-QTOF-MS (Xevo G2 QTof); Ionization: ESI; Deconvoluted by MS-DIAL; Column: Waters AtlantisTM premier BEH C18 AX column (2.1 × 100mm x 1.7μm); Flow rate: 0.3mL/min; Mobile phase A and B are water and methnaol, respectively, both with 0.1% formic acid; Gradient elution: from A/B (95/5) to A/B (100/0) in 7min, kept for 4 min, then back to A/B (95/5) in 0.1 min, and maintained for additional 1.9 min (13min in total).; Injection volume: 10 μL
Num peaks: 59
56.04521 75
56.05027 75
58.98629 210
58.99541 210
69.06802 333
69.07316 325
70.02572 70
70.03174 65
70.06545 293
70.07104 298
77.04207 71
84.07504 175
84.08404 160
86.09026 106
86.09876 77
86.1056 75
86.98932 424
86.99478 417
87.04771 89
87.05722 82
88.00611 3071
88.02202 3239
88.0386 3278
88.04588 264
88.05389 282
88.07175 232
88.0789 220
88.08647 219
89.01789 290
89.02492 308
89.03173 313
89.04151 460
102.08528 115
102.09116 115
111.09251 2077
112.07497 115
112.09308 184
113.03625 157
113.06962 160
113.07915 138
113.10548 359
113.11456 364
114.05268 272
114.06674 317
114.07411 254
116.0729 106
116.07768 91
120.06563 67
120.07631 72
122.03181 102
122.038 105
122.05552 93
131.08212 194
131.92412 140
131.94281 174
131.95718 81
134.02783 6475
134.05408 116
134.10065 93
Name: Captopril
PrecursorMZ: 218.0855
PrecursorType: [M+H]+
IonMode: Positive
Formula: C9H15NO3S
SMILES: CC(CS)C(=O)N1CCCC1C(=O)O
InChI: 
InChIKey: FAKRSMQSSFJEIM-RQJHMYQMSA-N
RetentionTime: 5.17725
CCS: 
CollisionEnergy: 20-40 eV
InstrumentType: UPLC-QTOF-MS
Comment: PI: Cristina Nerin; Data collector: QiZhi Su, GUIA, University of Zaragoza, Spain; Collision energy: 20-40 V; Instrument: Waters HPLC-QTOF-MS (Xevo G2 QTof); Ionization: ESI; Deconvoluted by MS-DIAL; Column: Waters AtlantisTM premier BEH C18 AX column (2.1 × 100mm x 1.7μm); Flow rate: 0.3mL/min; Mobile phase A and B are water and methnaol, respectively, both with 0.1% formic acid; Gradient elution: from A/B (95/5) to A/B (100/0) in 7min, kept for 4 min, then back to A/B (95/5) in 0.1 min, and maintained for additional 1.9 min (13min in total).; Injection volume: 10 μL
Num peaks: 8
70.08578 11145
116.07094 501
166.04794 175
166.05707 201
172.08012 288
212.04045 257
212.05222 272
218.08661 1885
Name: Captopril
PrecursorMZ: 240.0676
PrecursorType: [M+Na]+
IonMode: Positive
Formula: C9H15NO3S
SMILES: CC(CS)C(=O)N1CCCC1C(=O)O
InChI: 
InChIKey: FAKRSMQSSFJEIM-RQJHMYQMSA-N
RetentionTime: 5.2039
CCS: 
CollisionEnergy: 20-40 eV
InstrumentType: UPLC-QTOF-MS
Comment: PI: Cristina Nerin; Data collector: QiZhi Su, GUIA, University of Zaragoza, Spain; Collision energy: 20-40 V; Instrument: Waters HPLC-QTOF-MS (Xevo G2 QTof); Ionization: ESI; Deconvoluted by MS-DIAL; Column: Waters AtlantisTM premier BEH C18 AX column (2.1 × 100mm x 1.7μm); Flow rate: 0.3mL/min; Mobile phase A and B are water and methnaol, respectively, both with 0.1% formic acid; Gradient elution: from A/B (95/5) to A/B (100/0) in 7min, kept for 4 min, then back to A/B (95/5) in 0.1 min, and maintained for additional 1.9 min (13min in total).; Injection volume: 10 μL
Num peaks: 16
57.07157 566
70.06556 34848
71.06843 1346
71.08662 1552
75.02682 22429
76.02885 754
77.023 961
116.0715 17768
117.074 996
130.16302 667
154.01717 474
172.07823 961
212.04428 1112
218.07562 434
218.08995 687
240.06789 8363
Name: Captopril
PrecursorMZ: 457.1446
PrecursorType: [2M+Na]+
IonMode: Positive
Formula: C9H15NO3S
SMILES: CC(CS)C(=O)N1CCCC1C(=O)O
InChI: 
InChIKey: FAKRSMQSSFJEIM-RQJHMYQMSA-N
RetentionTime: 5.2039
CCS: 
CollisionEnergy: 20-40 eV
InstrumentType: UPLC-QTOF-MS
Comment: PI: Cristina Nerin; Data collector: QiZhi Su, GUIA, University of Zaragoza, Spain; Collision energy: 20-40 V; Instrument: Waters HPLC-QTOF-MS (Xevo G2 QTof); Ionization: ESI; Deconvoluted by MS-DIAL; Column: Waters AtlantisTM premier BEH C18 AX column (2.1 × 100mm x 1.7μm); Flow rate: 0.3mL/min; Mobile phase A and B are water and methnaol, respectively, both with 0.1% formic acid; Gradient elution: from A/B (95/5) to A/B (100/0) in 7min, kept for 4 min, then back to A/B (95/5) in 0.1 min, and maintained for additional 1.9 min (13min in total).; Injection volume: 10 μL
Num peaks: 22
57.07157 566
70.06556 34848
71.06843 1346
71.08662 1552
75.02682 22429
76.02885 754
77.023 961
116.0715 17768
117.074 996
130.16302 667
154.01717 474
172.07823 961
212.04428 1112
218.07562 434
218.08995 687
240.06789 8363
241.07983 465
242.28383 1972
242.29239 965
256.03265 4198
257.03455 467
457.14014 484
Name: Captopril
PrecursorMZ: 218.0859
PrecursorType: [M+H]+
IonMode: Positive
Formula: C9H15NO3S
SMILES: CC(CS)C(=O)N1CCCC1C(=O)O
InChI: 
InChIKey: FAKRSMQSSFJEIM-RQJHMYQMSA-N
RetentionTime: 5.3067
CCS: 
CollisionEnergy: 20-40 eV
InstrumentType: UPLC-QTOF-MS
Comment: PI: Cristina Nerin; Data collector: QiZhi Su, GUIA, University of Zaragoza, Spain; Collision energy: 20-40 V; Instrument: Waters HPLC-QTOF-MS (Xevo G2 QTof); Ionization: ESI; Deconvoluted by MS-DIAL; Column: Waters AtlantisTM premier BEH C18 AX column (2.1 × 100mm x 1.7μm); Flow rate: 0.3mL/min; Mobile phase A and B are water and methnaol, respectively, both with 0.1% formic acid; Gradient elution: from A/B (95/5) to A/B (100/0) in 7min, kept for 4 min, then back to A/B (95/5) in 0.1 min, and maintained for additional 1.9 min (13min in total).; Injection volume: 10 μL
Num peaks: 23
57.06886 252
57.07665 254
71.098 701
72.09534 99
75.02686 7519
76.0239 426
76.03083 427
77.02166 317
109.0771 78
114.0561 141
116.07125 1638
130.16017 257
172.07448 102
172.0849 171
201.07373 131
203.96133 81
203.97171 135
212.04533 889
214.2476 937
214.26039 917
215.26083 210
218.07893 448
218.08887 1781
Name: Prednisone
PrecursorMZ: 359.1857
PrecursorType: [M+H]+
IonMode: Positive
Formula: C21H26O5
SMILES: CC12CC(=O)C3C(C1CCC2(C(=O)CO)O)CCC4=CC(=O)C=CC34C
InChI: 
InChIKey: XOFYZVNMUHMLCC-ZPOLXVRWSA-N
RetentionTime: 5.794483
CCS: 
CollisionEnergy: 20-40 eV
InstrumentType: UPLC-QTOF-MS
Comment: PI: Cristina Nerin; Data collector: QiZhi Su, GUIA, University of Zaragoza, Spain; Collision energy: 20-40 V; Instrument: Waters HPLC-QTOF-MS (Xevo G2 QTof); Ionization: ESI; Deconvoluted by MS-DIAL; Column: Waters AtlantisTM premier BEH C18 AX column (2.1 × 100mm x 1.7μm); Flow rate: 0.3mL/min; Mobile phase A and B are water and methnaol, respectively, both with 0.1% formic acid; Gradient elution: from A/B (95/5) to A/B (100/0) in 7min, kept for 4 min, then back to A/B (95/5) in 0.1 min, and maintained for additional 1.9 min (13min in total).; Injection volume: 10 μL
Num peaks: 100
81.07178 1426
91.05515 1165
93.07076 4125
95.05049 1358
95.08521 2894
97.06761 1123
101.06174 1350
105.07209 1586
107.08671 2704
109.06503 2636
111.08006 1288
119.08716 2076
121.06544 5000
123.08066 1201
131.08694 1219
135.0816 5256
137.09778 2225
145.06816 1216
147.08101 23304
148.08478 2883
153.09088 1919
158.07355 1327
159.08139 9852
160.0854 1528
161.09698 5445
163.07585 1501
171.0809 12351
172.08432 1982
173.09708 7753
179.08536 2051
181.08003 1117
183.08211 1908
183.09904 2104
185.09766 2553
187.07616 2889
187.11247 3079
195.08067 1686
197.0965 7276
198.10368 1402
199.10919 2483
199.11809 1774
208.09015 1640
209.09686 5346
211.11385 3874
211.12288 1095
213.12863 5867
215.11034 1296
221.09695 3401
222.10324 4274
222.11244 1152
223.11243 5671
224.11743 1525
225.12685 3769
227.14217 2813
234.10425 1574
235.11269 4376
237.12831 15833
238.1339 2523
239.10008 1203
239.11038 2906
239.14374 3409
242.2892 1234
247.1118 1224
248.12076 1976
249.12775 4387
251.14552 1947
253.12413 6405
253.15791 1690
255.13844 4839
255.15236 1136
261.12854 4719
262.13696 2623
263.14438 7556
264.15298 3810
265.15857 12128
266.16772 1555
267.13904 12741
268.14047 1892
275.1445 1719
277.16101 8054
278.16299 1449
281.15381 3793
283.17157 2357
287.13516 1132
287.14548 2818
293.15491 3416
295.17041 16908
296.17181 2868
297.1485 1209
305.15503 9712
306.15952 1299
311.16422 2353
313.18076 19145
314.17798 2280
314.1915 1760
323.16513 14553
324.16644 3105
341.17514 33346
342.17819 7329
359.18527 108909
Name: Prednisone
PrecursorMZ: 717.3633
PrecursorType: [2M+H]+
IonMode: Positive
Formula: C21H26O5
SMILES: CC12CC(=O)C3C(C1CCC2(C(=O)CO)O)CCC4=CC(=O)C=CC34C
InChI: 
InChIKey: XOFYZVNMUHMLCC-ZPOLXVRWSA-N
RetentionTime: 5.794483
CCS: 
CollisionEnergy: 20-40 eV
InstrumentType: UPLC-QTOF-MS
Comment: PI: Cristina Nerin; Data collector: QiZhi Su, GUIA, University of Zaragoza, Spain; Collision energy: 20-40 V; Instrument: Waters HPLC-QTOF-MS (Xevo G2 QTof); Ionization: ESI; Deconvoluted by MS-DIAL; Column: Waters AtlantisTM premier BEH C18 AX column (2.1 × 100mm x 1.7μm); Flow rate: 0.3mL/min; Mobile phase A and B are water and methnaol, respectively, both with 0.1% formic acid; Gradient elution: from A/B (95/5) to A/B (100/0) in 7min, kept for 4 min, then back to A/B (95/5) in 0.1 min, and maintained for additional 1.9 min (13min in total).; Injection volume: 10 μL
Num peaks: 105
81.07178 1426
91.05515 1165
93.07076 4125
95.05049 1358
95.08521 2894
97.06761 1123
101.06174 1350
105.07209 1586
107.08671 2704
109.06503 2636
111.08006 1288
119.08716 2076
121.06544 5000
123.08066 1201
131.08694 1219
135.0816 5256
137.09778 2225
145.06816 1216
147.08101 23304
148.08478 2883
153.09088 1919
158.07355 1327
159.08139 9852
160.0854 1528
161.09698 5445
163.07585 1501
171.0809 12351
172.08432 1982
173.09708 7753
179.08536 2051
181.08003 1117
183.08211 1908
183.09904 2104
185.09766 2553
187.07616 2889
187.11247 3079
195.08067 1686
197.0965 7276
198.10368 1402
199.10919 2483
199.11809 1774
208.09015 1640
209.09686 5346
211.11385 3874
211.12288 1095
213.12863 5867
215.11034 1296
221.09695 3401
222.10324 4274
222.11244 1152
223.11243 5671
224.11743 1525
225.12685 3769
227.14217 2813
234.10425 1574
235.11269 4376
237.12831 15833
238.1339 2523
239.10008 1203
239.11038 2906
239.14374 3409
242.2892 1234
247.1118 1224
248.12076 1976
249.12775 4387
251.14552 1947
253.12413 6405
253.15791 1690
255.13844 4839
255.15236 1136
261.12854 4719
262.13696 2623
263.14438 7556
264.15298 3810
265.15857 12128
266.16772 1555
267.13904 12741
268.14047 1892
275.1445 1719
277.16101 8054
278.16299 1449
281.15381 3793
283.17157 2357
287.13516 1132
287.14548 2818
293.15491 3416
295.17041 16908
296.17181 2868
297.1485 1209
305.15503 9712
306.15952 1299
311.16422 2353
313.18076 19145
314.17798 2280
314.1915 1760
323.16513 14553
324.16644 3105
341.17514 33346
342.17819 7329
359.18527 108909
360.18832 21632
361.19284 3686
381.16708 6450
382.17542 1231
717.36304 16110
Name: 1-octyl-2-pyrrolidone
PrecursorMZ: 417.3481
PrecursorType: [2M+Na]+
IonMode: Positive
Formula: C12H23NO
SMILES: CCCCCCCCN1CCCC1=O
InChI: 
InChIKey: WPPOGHDFAVQKLN-UHFFFAOYSA-N
RetentionTime: 7.185733
CCS: 
CollisionEnergy: 20-40 eV
InstrumentType: UPLC-QTOF-MS
Comment: PI: Cristina Nerin; Data collector: QiZhi Su, GUIA, University of Zaragoza, Spain; Collision energy: 20-40 V; Instrument: Waters HPLC-QTOF-MS (Xevo G2 QTof); Ionization: ESI; Deconvoluted by MS-DIAL; Column: Waters AtlantisTM premier BEH C18 AX column (2.1 × 100mm x 1.7μm); Flow rate: 0.3mL/min; Mobile phase A and B are water and methnaol, respectively, both with 0.1% formic acid; Gradient elution: from A/B (95/5) to A/B (100/0) in 7min, kept for 4 min, then back to A/B (95/5) in 0.1 min, and maintained for additional 1.9 min (13min in total).; Injection volume: 10 μL
Num peaks: 7
86.06104 70517
198.18707 790461
198.31332 8158
198.32614 9660
199.18988 107656
200.19257 8178
220.16864 22171
Name: Prednisone
PrecursorMZ: 359.1858
PrecursorType: [M+H]+
IonMode: Positive
Formula: C21H26O5
SMILES: CC12CC(=O)C3C(C1CCC2(C(=O)CO)O)CCC4=CC(=O)C=CC34C
InChI: 
InChIKey: XOFYZVNMUHMLCC-ZPOLXVRWSA-N
RetentionTime: 5.863017
CCS: 
CollisionEnergy: 20-40 eV
InstrumentType: UPLC-QTOF-MS
Comment: PI: Cristina Nerin; Data collector: QiZhi Su, GUIA, University of Zaragoza, Spain; Collision energy: 20-40 V; Instrument: Waters HPLC-QTOF-MS (Xevo G2 QTof); Ionization: ESI; Deconvoluted by MS-DIAL; Column: Waters AtlantisTM premier BEH C18 AX column (2.1 × 100mm x 1.7μm); Flow rate: 0.3mL/min; Mobile phase A and B are water and methnaol, respectively, both with 0.1% formic acid; Gradient elution: from A/B (95/5) to A/B (100/0) in 7min, kept for 4 min, then back to A/B (95/5) in 0.1 min, and maintained for additional 1.9 min (13min in total).; Injection volume: 10 μL
Num peaks: 39
135.08092 1895
147.08115 8771
171.08101 3266
173.09665 2336
183.08203 2399
197.09793 2945
209.09659 3162
211.11211 2594
211.12091 2386
213.12837 4105
237.12738 7503
238.13141 2095
238.14194 1993
239.1071 2142
242.28453 19521
243.28061 3720
243.28941 3764
243.30644 3505
253.12317 2813
255.13666 2866
255.14641 2776
261.12891 3453
263.14462 4252
265.15933 4146
266.16461 1838
267.13922 8035
277.15939 2371
283.16953 2324
287.1441 2591
287.15588 2762
295.1698 11838
305.1546 6442
313.17978 14514
314.18362 3717
323.16483 11528
324.16711 3169
341.17474 20999
342.1792 5138
359.18524 179105
Name: 1-octyl-2-pyrrolidone
PrecursorMZ: 198.188
PrecursorType: [M+H]+
IonMode: Positive
Formula: C12H23NO
SMILES: CCCCCCCCN1CCCC1=O
InChI: 
InChIKey: WPPOGHDFAVQKLN-UHFFFAOYSA-N
RetentionTime: 7.189533
CCS: 
CollisionEnergy: 20-40 eV
InstrumentType: UPLC-QTOF-MS
Comment: PI: Cristina Nerin; Data collector: QiZhi Su, GUIA, University of Zaragoza, Spain; Collision energy: 20-40 V; Instrument: Waters HPLC-QTOF-MS (Xevo G2 QTof); Ionization: ESI; Deconvoluted by MS-DIAL; Column: Waters AtlantisTM premier BEH C18 AX column (2.1 × 100mm x 1.7μm); Flow rate: 0.3mL/min; Mobile phase A and B are water and methnaol, respectively, both with 0.1% formic acid; Gradient elution: from A/B (95/5) to A/B (100/0) in 7min, kept for 4 min, then back to A/B (95/5) in 0.1 min, and maintained for additional 1.9 min (13min in total).; Injection volume: 10 μL
Num peaks: 2
86.06113 98535
198.18703 805338
Name: Prednisone
PrecursorMZ: 717.3632
PrecursorType: [2M+H]+
IonMode: Positive
Formula: C21H26O5
SMILES: CC12CC(=O)C3C(C1CCC2(C(=O)CO)O)CCC4=CC(=O)C=CC34C
InChI: 
InChIKey: XOFYZVNMUHMLCC-ZPOLXVRWSA-N
RetentionTime: 5.863017
CCS: 
CollisionEnergy: 20-40 eV
InstrumentType: UPLC-QTOF-MS
Comment: PI: Cristina Nerin; Data collector: QiZhi Su, GUIA, University of Zaragoza, Spain; Collision energy: 20-40 V; Instrument: Waters HPLC-QTOF-MS (Xevo G2 QTof); Ionization: ESI; Deconvoluted by MS-DIAL; Column: Waters AtlantisTM premier BEH C18 AX column (2.1 × 100mm x 1.7μm); Flow rate: 0.3mL/min; Mobile phase A and B are water and methnaol, respectively, both with 0.1% formic acid; Gradient elution: from A/B (95/5) to A/B (100/0) in 7min, kept for 4 min, then back to A/B (95/5) in 0.1 min, and maintained for additional 1.9 min (13min in total).; Injection volume: 10 μL
Num peaks: 87
95.08661 2101
95.09621 2108
107.08668 1902
109.06531 1859
109.07643 1823
119.08623 1458
121.06633 3781
135.08092 4311
137.09874 1966
145.08449 1343
147.08115 20006
148.08601 1940
153.07687 1907
153.09317 1832
159.08174 6683
161.09676 3895
171.08101 11087
172.08517 1604
173.09665 5951
181.08568 1457
181.09776 1769
183.07449 1579
183.08203 2608
183.10011 3188
185.09729 1846
187.07053 2941
187.08011 2940
187.11192 1536
197.09793 5945
199.11238 3158
209.09659 1633
211.11211 3105
211.12091 3116
213.12837 5938
222.10371 3204
223.11296 4361
225.12747 3183
227.1367 1876
227.1451 1836
235.11279 1398
237.12738 14170
238.13141 3143
238.14194 3105
239.1071 3293
239.14195 3003
239.15637 3034
242.28453 19850
243.28061 3773
243.28941 3819
243.30644 3580
248.1208 1357
249.12923 3549
251.14389 1341
253.12317 5717
253.15959 1595
255.13666 4575
255.14641 4553
261.12891 4422
263.14462 7657
264.15094 3320
265.15933 11574
266.16461 2441
267.13922 14594
267.17471 1370
268.14261 2338
275.14456 1558
277.15939 6525
281.15509 2516
283.16953 3129
287.1441 3722
287.15588 3744
293.15601 2973
295.1698 17162
296.17462 2938
297.15067 1367
305.1546 10516
311.16464 2630
313.17978 20805
314.18362 4565
323.16483 17708
324.16711 3907
341.17474 38030
342.1792 8189
359.18524 127906
360.18771 27864
361.19003 1434
717.36322 40034
Name: 1-octyl-2-pyrrolidone
PrecursorMZ: 395.3658
PrecursorType: [2M+H]+
IonMode: Positive
Formula: C12H23NO
SMILES: CCCCCCCCN1CCCC1=O
InChI: 
InChIKey: WPPOGHDFAVQKLN-UHFFFAOYSA-N
RetentionTime: 7.189533
CCS: 
CollisionEnergy: 20-40 eV
InstrumentType: UPLC-QTOF-MS
Comment: PI: Cristina Nerin; Data collector: QiZhi Su, GUIA, University of Zaragoza, Spain; Collision energy: 20-40 V; Instrument: Waters HPLC-QTOF-MS (Xevo G2 QTof); Ionization: ESI; Deconvoluted by MS-DIAL; Column: Waters AtlantisTM premier BEH C18 AX column (2.1 × 100mm x 1.7μm); Flow rate: 0.3mL/min; Mobile phase A and B are water and methnaol, respectively, both with 0.1% formic acid; Gradient elution: from A/B (95/5) to A/B (100/0) in 7min, kept for 4 min, then back to A/B (95/5) in 0.1 min, and maintained for additional 1.9 min (13min in total).; Injection volume: 10 μL
Num peaks: 9
86.06113 102517
87.0642 9384
198.18703 790431
198.31375 8158
198.32645 9660
199.19002 107660
200.19286 8178
217.15973 11316
220.16893 14468
Name: Prednisone
PrecursorMZ: 739.3452
PrecursorType: [2M+Na]+
IonMode: Positive
Formula: C21H26O5
SMILES: CC12CC(=O)C3C(C1CCC2(C(=O)CO)O)CCC4=CC(=O)C=CC34C
InChI: 
InChIKey: XOFYZVNMUHMLCC-ZPOLXVRWSA-N
RetentionTime: 5.897284
CCS: 
CollisionEnergy: 20-40 eV
InstrumentType: UPLC-QTOF-MS
Comment: PI: Cristina Nerin; Data collector: QiZhi Su, GUIA, University of Zaragoza, Spain; Collision energy: 20-40 V; Instrument: Waters HPLC-QTOF-MS (Xevo G2 QTof); Ionization: ESI; Deconvoluted by MS-DIAL; Column: Waters AtlantisTM premier BEH C18 AX column (2.1 × 100mm x 1.7μm); Flow rate: 0.3mL/min; Mobile phase A and B are water and methnaol, respectively, both with 0.1% formic acid; Gradient elution: from A/B (95/5) to A/B (100/0) in 7min, kept for 4 min, then back to A/B (95/5) in 0.1 min, and maintained for additional 1.9 min (13min in total).; Injection volume: 10 μL
Num peaks: 123
81.07152 1015
91.05466 1045
93.07066 3361
95.05022 1669
95.08572 2144
101.05893 939
105.06979 1453
107.08483 1871
107.08974 864
109.06612 1699
111.08189 1154
119.08603 1881
121.06647 4013
123.08064 926
135.08167 3056
137.09749 1660
139.07634 906
145.06435 1213
147.08107 17678
148.08438 1508
153.09245 1432
159.08116 6737
160.08125 865
161.09761 3833
163.07457 1354
171.08113 10206
172.08104 810
173.09743 5856
174.10016 804
179.08582 1280
181.10022 911
183.08055 1067
183.1058 1366
185.09886 1999
187.07672 2357
187.11296 2344
195.08173 1260
196.09114 760
197.09697 5721
199.11177 2921
208.08844 1322
209.09592 2484
209.10435 971
210.10251 1230
211.1129 2136
212.11945 862
213.12636 4236
215.1089 1048
221.09691 1970
222.10529 3515
223.11098 3450
225.12492 1700
225.1335 1180
227.10765 755
227.1425 1660
234.10509 837
235.10962 1828
235.12024 1585
236.11922 1229
237.12836 11517
238.12938 1896
239.10715 2377
239.14241 3079
242.28563 5122
243.29193 757
247.11559 1003
248.11656 875
249.12822 3344
250.13832 1173
251.1445 1113
253.12463 4088
253.15753 1712
255.12894 947
255.14098 2237
261.13028 2777
262.13812 1544
263.14383 5078
264.14914 1451
265.15836 7615
265.16849 2530
267.14005 8885
267.17184 712
268.14471 2142
275.13712 706
277.15073 1661
277.16321 3671
281.15652 2484
283.1676 870
283.17984 807
287.14505 2610
293.15054 1712
293.1622 1007
295.17007 10442
296.17203 1861
296.1832 872
305.15396 5675
306.16022 892
311.16507 1680
313.18024 11120
314.18597 2448
323.16446 9388
324.16977 1872
341.17529 21584
342.17764 3649
359.18561 68829
360.19012 13833
361.19138 1986
367.12085 1203
381.16412 4625
382.17389 1076
443.13687 1070
505.32684 762
557.24255 1424
557.74969 1019
717.36621 6664
718.37219 2230
728.35156 861
736.33301 10083
736.83722 9633
737.33844 4126
737.82251 832
737.85767 758
739.33923 1181
Name: 1-octyl-2-pyrrolidone
PrecursorMZ: 220.1701
PrecursorType: [M+Na]+
IonMode: Positive
Formula: C12H23NO
SMILES: CCCCCCCCN1CCCC1=O
InChI: 
InChIKey: WPPOGHDFAVQKLN-UHFFFAOYSA-N
RetentionTime: 7.19715
CCS: 
CollisionEnergy: 20-40 eV
InstrumentType: UPLC-QTOF-MS
Comment: PI: Cristina Nerin; Data collector: QiZhi Su, GUIA, University of Zaragoza, Spain; Collision energy: 20-40 V; Instrument: Waters HPLC-QTOF-MS (Xevo G2 QTof); Ionization: ESI; Deconvoluted by MS-DIAL; Column: Waters AtlantisTM premier BEH C18 AX column (2.1 × 100mm x 1.7μm); Flow rate: 0.3mL/min; Mobile phase A and B are water and methnaol, respectively, both with 0.1% formic acid; Gradient elution: from A/B (95/5) to A/B (100/0) in 7min, kept for 4 min, then back to A/B (95/5) in 0.1 min, and maintained for additional 1.9 min (13min in total).; Injection volume: 10 μL
Num peaks: 22
57.07079 4777
57.07548 4777
69.03432 8091
69.04872 8255
69.05284 7484
71.08655 5345
71.0956 5426
86.06107 142755
87.06453 4787
98.06032 2114
98.06731 2089
128.10864 3050
148.07564 1583
148.08583 1603
153.07159 2589
180.06305 1455
180.08003 1433
181.08669 1872
181.0993 1730
200.19363 7828
217.6636 1752
220.1694 54144
Name: Methyl Red
PrecursorMZ: 292.1088
PrecursorType: [M+Na]+
IonMode: Positive
Formula: C15H15N3O2
SMILES: CN(C)C1=CC=C(C=C1)N=NC2=CC=CC=C2C(=O)O
InChI: 
InChIKey: CEQFOVLGLXCDCX-UHFFFAOYSA-N
RetentionTime: 7.2276
CCS: 
CollisionEnergy: 20-40 eV
InstrumentType: UPLC-QTOF-MS
Comment: PI: Cristina Nerin; Data collector: QiZhi Su, GUIA, University of Zaragoza, Spain; Collision energy: 20-40 V; Instrument: Waters HPLC-QTOF-MS (Xevo G2 QTof); Ionization: ESI; Deconvoluted by MS-DIAL; Column: Waters AtlantisTM premier BEH C18 AX column (2.1 × 100mm x 1.7μm); Flow rate: 0.3mL/min; Mobile phase A and B are water and methnaol, respectively, both with 0.1% formic acid; Gradient elution: from A/B (95/5) to A/B (100/0) in 7min, kept for 4 min, then back to A/B (95/5) in 0.1 min, and maintained for additional 1.9 min (13min in total).; Injection volume: 10 μL
Num peaks: 49
69.03442 495
71.07521 421
71.08697 379
77.03981 204
86.04284 9806
86.06138 9707
87.04455 1224
87.059 303
87.06497 320
87.0716 315
91.0547 289
92.04716 217
92.05433 205
92.06283 205
92.07191 327
98.05437 156
103.0436 231
103.06208 153
115.07674 494
129.05865 236
129.07216 267
129.08994 339
141.07097 361
148.07698 354
149.08855 170
152.06346 2220
166.06732 1307
168.06133 310
168.0723 467
168.08197 532
168.09438 414
178.06577 325
178.07985 488
179.07841 168
180.08125 2303
181.08871 411
193.07072 213
194.05638 208
194.06783 193
195.10585 317
199.19196 232
208.07727 632
220.16928 902
221.16629 225
221.18231 231
268.29126 226
268.30768 226
270.12689 559
292.10733 15084
Name: Methyl Red
PrecursorMZ: 561.2243
PrecursorType: [2M+Na]+
IonMode: Positive
Formula: C15H15N3O2
SMILES: CN(C)C1=CC=C(C=C1)N=NC2=CC=CC=C2C(=O)O
InChI: 
InChIKey: CEQFOVLGLXCDCX-UHFFFAOYSA-N
RetentionTime: 7.25045
CCS: 
CollisionEnergy: 20-40 eV
InstrumentType: UPLC-QTOF-MS
Comment: PI: Cristina Nerin; Data collector: QiZhi Su, GUIA, University of Zaragoza, Spain; Collision energy: 20-40 V; Instrument: Waters HPLC-QTOF-MS (Xevo G2 QTof); Ionization: ESI; Deconvoluted by MS-DIAL; Column: Waters AtlantisTM premier BEH C18 AX column (2.1 × 100mm x 1.7μm); Flow rate: 0.3mL/min; Mobile phase A and B are water and methnaol, respectively, both with 0.1% formic acid; Gradient elution: from A/B (95/5) to A/B (100/0) in 7min, kept for 4 min, then back to A/B (95/5) in 0.1 min, and maintained for additional 1.9 min (13min in total).; Injection volume: 10 μL
Num peaks: 90
79.05511 188
81.05033 98
91.08254 104
93.04277 64
93.05592 183
93.07046 127
105.03769 469
105.05223 394
105.05848 420
105.0758 354
106.06406 66
111.07569 60
111.08154 71
120.08171 212
121.02114 82
121.03197 66
121.0721 132
122.0536 63
122.08613 71
127.05177 60
132.04092 74
132.04906 78
132.05975 90
133.08789 131
133.09322 122
133.10751 79
134.06653 293
135.05998 128
135.06694 95
135.08116 170
135.09615 262
135.11563 130
139.03989 152
139.056 185
140.07396 63
142.07385 78
142.08099 95
150.071 112
150.08452 102
150.09653 98
151.05621 246
155.05411 331
155.08615 80
156.07074 195
156.08316 170
156.09177 156
167.04526 148
167.0843 101
167.11267 320
170.09558 69
170.11024 64
179.05103 61
179.10442 64
180.05598 1478
181.06218 743
182.0551 105
183.08958 86
184.07841 67
193.11867 72
194.09801 334
195.14302 73
196.11365 500
197.07707 100
197.1196 75
209.08533 2611
210.0894 121
211.09128 93
222.09358 67
222.11861 80
223.1006 288
226.11143 61
236.08455 96
237.11053 88
251.09743 594
251.10951 630
252.1152 1791
254.27972 69
271.14825 230
282.11292 209
282.14062 84
292.10727 5937
293.10971 857
294.11429 103
308.08057 171
314.09103 73
455.10626 135
455.12561 332
455.14291 394
471.10861 85
561.21881 171
Name: "N,N-Dimethylhexadecylamine"
PrecursorMZ: 270.3158
PrecursorType: [M+H]+
IonMode: Positive
Formula: C18H39N
SMILES: CCCCCCCCCCCCCCCCN(C)C
InChI: 
InChIKey: NHLUVTZJQOJKCC-UHFFFAOYSA-N
RetentionTime: 6.503083
CCS: 
CollisionEnergy: 20-40 eV
InstrumentType: UPLC-QTOF-MS
Comment: PI: Cristina Nerin; Data collector: QiZhi Su, GUIA, University of Zaragoza, Spain; Collision energy: 20-40 V; Instrument: Waters HPLC-QTOF-MS (Xevo G2 QTof); Ionization: ESI; Deconvoluted by MS-DIAL; Column: Waters AtlantisTM premier BEH C18 AX column (2.1 × 100mm x 1.7μm); Flow rate: 0.3mL/min; Mobile phase A and B are water and methnaol, respectively, both with 0.1% formic acid; Gradient elution: from A/B (95/5) to A/B (100/0) in 7min, kept for 4 min, then back to A/B (95/5) in 0.1 min, and maintained for additional 1.9 min (13min in total).; Injection volume: 10 μL
Num peaks: 36
55.05357 139
57.07043 535
70.06409 129
71.08521 472
77.03525 109
79.02005 263
81.07132 271
83.04691 168
84.96111 1594
84.96909 178
85.10138 116
86.10583 112
92.05244 120
93.07519 148
95.08478 463
97.068 155
100.9394 119
100.98693 184
105.01112 118
108.08338 150
109.10146 130
119.08903 268
149.01938 140
149.06252 108
162.97276 360
171.08556 110
173.0927 113
183.05057 126
201.0473 110
235.06215 113
242.29105 166
248.06465 193
250.18465 184
259.07498 110
266.15549 138
270.3158 10768
Name: Melamine
PrecursorMZ: 127.0736
PrecursorType: [M+H]+
IonMode: Positive
Formula: C3H6N6
SMILES: C1(=NC(=NC(=N1)N)N)N
InChI: 
InChIKey: JDSHMPZPIAZGSV-UHFFFAOYSA-N
RetentionTime: 0.56255
CCS: 
CollisionEnergy: 20-40 eV
InstrumentType: UPLC-QTOF-MS
Comment: PI: Cristina Nerin; Data collector: QiZhi Su, GUIA, University of Zaragoza, Spain; Collision energy: 20-40 V; Instrument: Waters HPLC-QTOF-MS (Xevo G2 QTof); Ionization: ESI; Deconvoluted by MS-DIAL; Column: Waters AtlantisTM premier BEH C18 AX column (2.1 × 100mm x 1.7μm); Flow rate: 0.3mL/min; Mobile phase A and B are water and methnaol, respectively, both with 0.1% formic acid; Gradient elution: from A/B (95/5) to A/B (100/0) in 7min, kept for 4 min, then back to A/B (95/5) in 0.1 min, and maintained for additional 1.9 min (13min in total).; Injection volume: 10 μL
Num peaks: 12
60.05799 81
68.02555 1480
69.02869 118
85.05125 7050
86.04456 276
86.05157 279
86.05609 279
107.06126 421
110.04324 297
110.04754 311
110.05474 292
127.07317 5439
Name: Melamine
PrecursorMZ: 127.0733
PrecursorType: [M+H]+
IonMode: Positive
Formula: C3H6N6
SMILES: C1(=NC(=NC(=N1)N)N)N
InChI: 
InChIKey: JDSHMPZPIAZGSV-UHFFFAOYSA-N
RetentionTime: 0.5664167
CCS: 
CollisionEnergy: 20-40 eV
InstrumentType: UPLC-QTOF-MS
Comment: PI: Cristina Nerin; Data collector: QiZhi Su, GUIA, University of Zaragoza, Spain; Collision energy: 20-40 V; Instrument: Waters HPLC-QTOF-MS (Xevo G2 QTof); Ionization: ESI; Deconvoluted by MS-DIAL; Column: Waters AtlantisTM premier BEH C18 AX column (2.1 × 100mm x 1.7μm); Flow rate: 0.3mL/min; Mobile phase A and B are water and methnaol, respectively, both with 0.1% formic acid; Gradient elution: from A/B (95/5) to A/B (100/0) in 7min, kept for 4 min, then back to A/B (95/5) in 0.1 min, and maintained for additional 1.9 min (13min in total).; Injection volume: 10 μL
Num peaks: 67
56.94661 34
60.9834 25
61.5082 68
65.0585 23
67.05229 25
68.01683 23
68.0238 171
79.02058 43
80.05056 34
81.07397 40
84.95589 26
84.96149 22
85.05 421
85.05506 312
85.06991 30
86.04407 30
86.05317 68
88.96141 25
88.96896 45
91.05465 20
93.05399 114
93.07082 30
94.05643 22
94.07076 113
94.58591 20
95.05718 21
97.96593 45
97.9724 52
100.92934 37
100.93698 106
101.93913 26
102.95061 64
103.95557 51
104.05389 23
105.06923 20
106.96228 27
107.05892 233
107.06465 221
107.08488 24
108.06337 20
110.0527 29
110.56957 48
112.99046 44
114.87533 21
114.94666 65
116.87199 34
118.92511 31
119.06413 20
119.9922 24
120.06465 34
120.07036 44
120.84972 27
121.07174 112
121.08057 163
121.09281 101
122.08239 597
122.09721 186
122.53168 21
122.84283 23
123.05285 20
123.08182 94
123.09071 60
123.12048 27
126.13849 27
127.06709 465
127.07551 210
127.08305 101
Name: Methyl Red
PrecursorMZ: 292.1057
PrecursorType: [M+Na]+
IonMode: Positive
Formula: C15H15N3O2
SMILES: CN(C)C1=CC=C(C=C1)N=NC2=CC=CC=C2C(=O)O
InChI: 
InChIKey: CEQFOVLGLXCDCX-UHFFFAOYSA-N
RetentionTime: 7.19315
CCS: 
CollisionEnergy: 20-40 eV
InstrumentType: UPLC-QTOF-MS
Comment: PI: Cristina Nerin; Data collector: QiZhi Su, GUIA, University of Zaragoza, Spain; Collision energy: 20-40 V; Instrument: Waters HPLC-QTOF-MS (Xevo G2 QTof); Ionization: ESI; Deconvoluted by MS-DIAL; Column: Waters AtlantisTM premier BEH C18 AX column (2.1 × 100mm x 1.7μm); Flow rate: 0.3mL/min; Mobile phase A and B are water and methnaol, respectively, both with 0.1% formic acid; Gradient elution: from A/B (95/5) to A/B (100/0) in 7min, kept for 4 min, then back to A/B (95/5) in 0.1 min, and maintained for additional 1.9 min (13min in total).; Injection volume: 10 μL
Num peaks: 53
77.03938 4363
79.03898 8112
79.0549 7440
91.05487 6453
105.05795 8239
115.05501 11458
118.06584 3255
120.08112 34453
129.07027 3072
141.07088 6089
148.07614 149513
149.07974 14060
151.05545 11864
151.07391 11943
152.06261 127551
153.07034 272619
154.07489 45898
155.084 16092
155.10486 6649
165.07068 28910
166.06674 66842
167.04945 4314
167.06848 18070
167.07664 18571
167.08667 18149
168.07976 5363
168.09161 5671
178.06096 9843
178.06883 10622
178.08055 10652
179.07558 7606
179.09221 7208
180.07996 127860
181.06036 7719
181.08813 191930
182.09158 25899
194.06383 3034
194.09731 26194
195.10443 23454
196.11255 60023
197.11569 8723
207.06866 9182
208.0766 71615
209.08409 130696
210.08641 18637
222.0927 46585
223.09886 30546
224.10716 27230
225.11154 4060
252.11397 102687
253.1163 18570
270.12509 10305
292.1066 13197
Name: Methyl Red
PrecursorMZ: 270.1269
PrecursorType: [M+NH4]+
IonMode: Positive
Formula: C15H15N3O2
SMILES: CN(C)C1=CC=C(C=C1)N=NC2=CC=CC=C2C(=O)O
InChI: 
InChIKey: CEQFOVLGLXCDCX-UHFFFAOYSA-N
RetentionTime: 7.19695
CCS: 
CollisionEnergy: 20-40 eV
InstrumentType: UPLC-QTOF-MS
Comment: PI: Cristina Nerin; Data collector: QiZhi Su, GUIA, University of Zaragoza, Spain; Collision energy: 20-40 V; Instrument: Waters HPLC-QTOF-MS (Xevo G2 QTof); Ionization: ESI; Deconvoluted by MS-DIAL; Column: Waters AtlantisTM premier BEH C18 AX column (2.1 × 100mm x 1.7μm); Flow rate: 0.3mL/min; Mobile phase A and B are water and methnaol, respectively, both with 0.1% formic acid; Gradient elution: from A/B (95/5) to A/B (100/0) in 7min, kept for 4 min, then back to A/B (95/5) in 0.1 min, and maintained for additional 1.9 min (13min in total).; Injection volume: 10 μL
Num peaks: 64
77.0394 5042
79.04016 7817
79.05478 7960
91.04079 6956
91.05427 6937
92.04985 3311
92.06201 3318
93.05289 3127
93.06976 2875
105.05799 8064
115.05508 11108
118.0656 4182
120.08119 33981
129.0695 2788
129.08176 2800
141.07077 8343
148.07628 149132
149.08 13594
151.05496 11613
152.06242 125682
153.07031 272167
154.07495 45130
155.06685 15568
155.08501 15868
165.07037 30775
166.06689 66194
167.07025 18289
167.08226 18149
168.08028 6735
168.09267 6195
168.10896 3574
178.06613 10502
178.07735 10501
179.07332 7549
179.0862 7312
180.05356 8391
180.07967 126244
181.06088 8559
181.08772 189195
182.06525 3105
182.09186 25463
183.08087 3668
193.08397 3146
194.0639 3584
194.09787 26043
195.10461 23006
196.11263 62397
197.11571 8764
199.17023 3388
199.19029 3824
204.0817 3168
204.09081 3186
207.06822 8176
208.07661 70841
209.08414 136984
210.08763 20000
222.09244 50450
223.09914 30749
224.10741 28106
225.11124 4060
251.1062 4059
252.11415 112163
253.11688 18625
270.12503 14260
Name: L-Thiaproline
PrecursorMZ: 134.0276
PrecursorType: [M+H]+
IonMode: Positive
Formula: C4H7NO2S
SMILES: C1C(NCS1)C(=O)O
InChI: 
InChIKey: DZLNHFMRPBPULJ-VKHMYHEASA-N
RetentionTime: 0.9661
CCS: 
CollisionEnergy: 20-40 eV
InstrumentType: UPLC-QTOF-MS
Comment: PI: Cristina Nerin; Data collector: QiZhi Su, GUIA, University of Zaragoza, Spain; Collision energy: 20-40 V; Instrument: Waters HPLC-QTOF-MS (Xevo G2 QTof); Ionization: ESI; Deconvoluted by MS-DIAL; Column: Waters AtlantisTM premier BEH C18 AX column (2.1 × 100mm x 1.7μm); Flow rate: 0.3mL/min; Mobile phase A and B are water and methnaol, respectively, both with 0.1% formic acid; Gradient elution: from A/B (95/5) to A/B (100/0) in 7min, kept for 4 min, then back to A/B (95/5) in 0.1 min, and maintained for additional 1.9 min (13min in total).; Injection volume: 10 μL
Num peaks: 78
58.991 497
58.99667 535
61.01039 468
61.01552 148
62.01566 133
62.0219 478
62.02557 146
62.99345 261
63.99835 711
64.00221 278
67.9906 247
67.99745 402
72.94101 181
76.02238 152
76.99999 135
78.01373 150
79.02217 7567
81.01965 224
81.03323 196
81.06614 133
84.95976 463
85.05154 147
86.00681 143
86.99084 885
88.02179 13113
88.03722 141
89.02486 343
89.05988 240
90.01677 496
90.0572 155
90.48351 1429
90.97811 188
91.48749 157
92.01041 221
93.0566 207
93.0761 262
94.06341 188
96.04221 141
97.97193 157
97.99243 502
99.01323 140
99.48817 1577
99.49385 772
99.51357 205
100.00227 132
100.50539 299
101.01305 176
103.91007 153
105.00137 631
105.98103 133
106.0304 161
106.50243 280
106.9993 619
107.00879 342
107.06179 600
107.47491 255
108.49225 491
108.99762 188
109.00914 196
111.09215 290
112.08149 134
114.05796 208
114.98563 296
115.98646 214
116.00612 154
116.91108 339
118.92104 227
118.92705 583
121.07103 186
121.07825 312
122.0854 1438
122.99998 142
123.00856 250
124.07628 1506
132.95018 136
133.94603 465
133.95509 251
134.02988 2058
Name: Metoxuron
PrecursorMZ: 229.0745
PrecursorType: [M+H]+
IonMode: Positive
Formula: C10H13ClN2O2
SMILES: CN(C)C(=O)NC1=CC(=C(C=C1)OC)Cl
InChI: 
InChIKey: DSRNRYQBBJQVCW-UHFFFAOYSA-N
RetentionTime: 4.9522
CCS: 
CollisionEnergy: 20-40 eV
InstrumentType: UPLC-QTOF-MS
Comment: PI: Cristina Nerin; Data collector: QiZhi Su, GUIA, University of Zaragoza, Spain; Collision energy: 20-40 V; Instrument: Waters HPLC-QTOF-MS (Xevo G2 QTof); Ionization: ESI; Deconvoluted by MS-DIAL; Column: Waters AtlantisTM premier BEH C18 AX column (2.1 × 100mm x 1.7μm); Flow rate: 0.3mL/min; Mobile phase A and B are water and methnaol, respectively, both with 0.1% formic acid; Gradient elution: from A/B (95/5) to A/B (100/0) in 7min, kept for 4 min, then back to A/B (95/5) in 0.1 min, and maintained for additional 1.9 min (13min in total).; Injection volume: 10 μL
Num peaks: 25
72.02489 69563
72.04379 69499
73.03281 1392
73.04833 1513
80.01355 724
80.02234 724
84.95966 835
106.02954 1762
134.01138 4646
134.01808 4661
134.99168 751
135.01132 1474
143.01451 2073
143.02264 2095
149.04678 925
156.02127 6348
158.01971 1951
218.00644 1478
219.00418 1003
219.01375 956
225.50819 1058
225.52541 1034
226.5112 747
226.5247 734
229.07549 1624
Name: Metoxuron
PrecursorMZ: 479.1238
PrecursorType: [M+H]+
IonMode: Positive
Formula: C10H13ClN2O2
SMILES: CN(C)C(=O)NC1=CC(=C(C=C1)OC)Cl
InChI: 
InChIKey: DSRNRYQBBJQVCW-UHFFFAOYSA-N
RetentionTime: 4.9522
CCS: 
CollisionEnergy: 20-40 eV
InstrumentType: UPLC-QTOF-MS
Comment: PI: Cristina Nerin; Data collector: QiZhi Su, GUIA, University of Zaragoza, Spain; Collision energy: 20-40 V; Instrument: Waters HPLC-QTOF-MS (Xevo G2 QTof); Ionization: ESI; Deconvoluted by MS-DIAL; Column: Waters AtlantisTM premier BEH C18 AX column (2.1 × 100mm x 1.7μm); Flow rate: 0.3mL/min; Mobile phase A and B are water and methnaol, respectively, both with 0.1% formic acid; Gradient elution: from A/B (95/5) to A/B (100/0) in 7min, kept for 4 min, then back to A/B (95/5) in 0.1 min, and maintained for additional 1.9 min (13min in total).; Injection volume: 10 μL
Num peaks: 33
72.02489 69563
72.04379 69499
73.03281 1392
73.04833 1513
80.01355 724
80.02234 724
84.95966 835
106.02954 1762
134.01138 4646
134.01808 4661
134.99168 751
135.01132 1474
143.01451 2073
143.02264 2095
149.04678 925
156.02127 6348
158.01971 1951
218.00644 1478
219.00418 1003
219.01375 956
225.50819 1058
225.52541 1034
226.5112 747
226.5247 734
229.07549 1248
248.04633 2445
249.04491 1534
249.06073 1552
251.05692 2842
253.0461 1025
253.06268 1003
313.02698 4372
315.02634 1675
Name: "1,5-Diphenylcarbazide"
PrecursorMZ: 507.2262
PrecursorType: [2M+Na]+
IonMode: Positive
Formula: C13H14N4O
SMILES: C1=CC=C(C=C1)NNC(=O)NNC2=CC=CC=C2
InChI: 
InChIKey: KSPIHGBHKVISFI-UHFFFAOYSA-N
RetentionTime: 5.2801
CCS: 
CollisionEnergy: 20-40 eV
InstrumentType: UPLC-QTOF-MS
Comment: PI: Cristina Nerin; Data collector: QiZhi Su, GUIA, University of Zaragoza, Spain; Collision energy: 20-40 V; Instrument: Waters HPLC-QTOF-MS (Xevo G2 QTof); Ionization: ESI; Deconvoluted by MS-DIAL; Column: Waters AtlantisTM premier BEH C18 AX column (2.1 × 100mm x 1.7μm); Flow rate: 0.3mL/min; Mobile phase A and B are water and methnaol, respectively, both with 0.1% formic acid; Gradient elution: from A/B (95/5) to A/B (100/0) in 7min, kept for 4 min, then back to A/B (95/5) in 0.1 min, and maintained for additional 1.9 min (13min in total).; Injection volume: 10 μL
Num peaks: 295
56.96585 53
65.03665 119
65.04053 117
65.04672 114
77.03812 3290
77.04303 3290
78.03162 369
78.04043 379
78.04701 379
79.03928 374
79.05193 324
79.05698 313
80.04327 275
80.05145 277
81.94706 388
81.95919 370
83.97502 62
83.98235 60
84.95919 135
84.96348 130
91.04659 189
91.05313 190
91.05936 231
91.06618 94
92.04967 2211
92.99863 55
93.01145 51
93.03831 4877
93.05714 4139
93.07596 4746
94.04515 1202
94.06416 1214
95.0097 59
95.07295 50
98.98649 1513
98.99217 1508
104.02319 88
105.02646 376
105.04266 473
105.0623 406
106.0311 107
106.04865 151
106.06187 118
106.06979 60
107.06073 2657
108.04836 3032
108.06745 2407
109.05029 379
109.05786 531
109.07183 406
109.08199 220
113.02215 85
113.04229 77
115.04012 64
116.5094 54
116.51795 54
116.98973 160
117.0022 137
119.05625 119
119.06272 104
120.02239 59
120.02773 52
125.02328 59
125.5165 62
125.52525 62
126.0318 96
126.05078 63
129.03659 60
129.04726 103
129.06242 117
129.07181 60
130.03998 50
132.00438 349
132.01401 360
132.02548 334
132.04723 151
132.05533 155
132.06456 128
133.0303 266
133.03947 219
133.04883 1046
133.06561 853
133.53601 440
134.02455 164
134.03593 285
134.04709 375
134.06027 423
134.06992 114
135.03261 54
135.05269 53
141.01938 67
141.02739 143
141.03995 166
142.53259 166
142.54587 165
144.99303 81
145.00706 112
145.01833 92
145.0605 66
145.07285 54
145.08011 61
146.00256 332
146.0154 297
146.02245 291
147.02312 427
147.53291 469
147.54012 466
148.03467 194
148.04355 223
148.05515 194
149.05638 63
150.02321 57
150.04349 77
152.07762 64
154.07118 66
154.07762 71
155.07268 50
156.06958 167
156.08389 170
156.09521 158
156.53444 61
156.54509 71
156.55696 57
160.0054 171
160.01677 166
162.98877 79
163.00752 121
163.0175 69
166.06194 165
166.06955 172
167.06216 210
167.07703 210
167.09474 198
168.06006 207
168.07555 513
168.08736 512
169.03917 1397
169.08568 87
169.53461 521
169.54419 523
169.56335 265
170.04111 182
170.0524 179
172.99759 127
173.00554 123
173.01398 125
173.99579 50
175.01532 169
175.03331 138
176.99345 132
177.01006 140
177.02638 147
178.01643 80
178.03439 256
178.04596 187
178.05943 126
178.54306 53
181.07082 197
181.0806 223
182.0647 227
182.08136 292
182.09404 287
182.10887 134
183.09109 553
183.10278 578
184.0923 172
184.10489 141
185.09529 52
185.55894 51
185.56886 50
187.9958 548
188.01363 605
188.02365 599
189.0218 1135
190.02785 1253
190.99728 382
191.01437 506
192.01672 148
192.02437 161
194.05206 101
194.07117 105
194.08209 77
198.09094 80
198.10043 71
198.11046 74
205.04095 81
205.05002 84
206.01202 123
206.03046 123
207.99385 50
208.00558 73
208.09 111
209.09178 67
213.55312 78
215.56775 626
216.0717 226
216.57904 101
217.07988 74
217.09331 66
221.03105 65
221.04312 56
222.00639 64
223.05843 98
223.06798 96
225.10622 51
226.09743 830
227.09279 102
227.11298 57
227.12303 77
231.00339 141
231.01692 221
231.02866 227
232.01472 198
232.02711 207
232.03981 160
233.02745 145
233.03857 134
233.05058 126
234.01184 280
234.02316 302
235.02327 229
235.03864 273
238.06163 53
238.073 53
239.07642 64
243.11346 54
243.12288 80
248.03514 140
248.05495 131
249.03777 346
249.05238 275
250.0314 157
250.04311 170
252.01828 58
253.08232 77
260.06976 60
260.08221 70
261.05603 69
261.07236 84
261.08832 51
262.08902 1120
262.09882 1218
262.11334 1002
262.60507 222
265.10571 2067
265.11819 2099
266.05173 122
266.06677 105
266.09186 206
266.11176 388
267.07166 75
267.0882 64
281.06082 326
281.07935 281
282.04068 52
282.05429 70
282.08557 59
291.10422 63
295.07159 145
295.08502 123
296.07352 59
317.04391 127
317.0639 102
317.97476 61
320.04684 58
324.05893 84
324.07849 148
327.07309 1831
327.08456 1881
327.10162 324
328.06717 240
328.0813 242
328.10654 65
330.06088 52
331.20496 64
331.215 93
337.05368 101
337.07822 237
338.06604 181
338.0845 280
339.0744 99
339.10071 79
344.06793 323
345.05502 133
345.07346 95
371.0936 56
383.15689 506
383.18518 137
383.63797 248
383.65765 278
384.15726 72
431.1431 57
507.21951 295
507.25122 68
507.31021 78
Name: "1,5-Diphenylcarbazide"
PrecursorMZ: 243.1244
PrecursorType: [M+H]+
IonMode: Positive
Formula: C13H14N4O
SMILES: C1=CC=C(C=C1)NNC(=O)NNC2=CC=CC=C2
InChI: 
InChIKey: KSPIHGBHKVISFI-UHFFFAOYSA-N
RetentionTime: 5.2839
CCS: 
CollisionEnergy: 20-40 eV
InstrumentType: UPLC-QTOF-MS
Comment: PI: Cristina Nerin; Data collector: QiZhi Su, GUIA, University of Zaragoza, Spain; Collision energy: 20-40 V; Instrument: Waters HPLC-QTOF-MS (Xevo G2 QTof); Ionization: ESI; Deconvoluted by MS-DIAL; Column: Waters AtlantisTM premier BEH C18 AX column (2.1 × 100mm x 1.7μm); Flow rate: 0.3mL/min; Mobile phase A and B are water and methnaol, respectively, both with 0.1% formic acid; Gradient elution: from A/B (95/5) to A/B (100/0) in 7min, kept for 4 min, then back to A/B (95/5) in 0.1 min, and maintained for additional 1.9 min (13min in total).; Injection volume: 10 μL
Num peaks: 232
56.96196 70
56.96721 66
65.03181 227
65.03929 227
66.0351 64
66.04288 67
77.03802 4382
78.03892 453
78.04588 453
79.0369 217
79.04278 338
79.05487 332
80.0412 342
80.05392 340
80.06393 286
81.95752 468
81.96243 471
83.97626 67
83.97932 66
84.95927 300
84.9695 295
85.94685 55
85.95543 51
91.04237 192
91.05338 188
92.04951 2759
92.0679 2857
93.05737 4902
94.05259 1403
94.06431 1405
95.00706 84
95.01427 71
98.9874 1772
104.01713 88
105.02858 531
105.04342 596
105.05043 537
106.0247 64
106.03311 117
106.04798 163
106.05551 134
107.05994 3100
108.04193 83
108.06812 2935
108.08489 2930
109.03488 232
109.04823 455
109.0545 594
109.07104 489
109.08815 202
113.02836 89
115.03728 74
115.04388 55
115.05278 52
116.51482 64
117.00227 157
119.05733 154
119.07133 89
120.01456 51
125.02153 62
126.0285 102
126.03357 105
129.04193 116
129.05542 160
129.06322 143
130.0524 75
130.05821 63
132.01132 458
132.05464 192
132.06157 178
133.03856 331
133.05566 1289
133.06232 1038
133.06908 1029
133.08411 545
133.53111 485
133.53998 487
133.54819 438
134.03072 474
134.0394 410
134.04878 504
134.06914 258
135.0433 97
135.05453 82
135.05957 74
141.03915 177
141.05843 169
142.06073 55
142.53354 189
143.02641 65
143.03787 58
145.01115 118
145.0605 61
145.06734 59
145.99933 292
146.01605 356
147.01947 545
147.02907 547
147.04596 57
147.52388 523
147.53329 528
147.54031 526
148.02934 239
148.03789 254
148.04607 279
148.06017 87
149.06038 52
150.03333 63
150.0401 65
150.05296 103
151.0672 62
152.07693 83
152.08493 65
154.04393 54
154.0569 100
154.06343 97
154.0708 85
156.08357 171
156.53929 85
156.55801 72
159.99341 178
160.00504 192
160.01244 192
162.99728 108
163.01657 86
163.02701 61
164.9875 50
166.06963 217
167.06276 269
167.07538 266
167.08917 232
168.0611 194
168.06909 598
168.08134 608
168.09792 442
169.03793 1566
169.04695 1574
169.06068 248
169.07004 67
169.07875 109
169.54324 594
169.55032 601
170.04343 193
173.00153 141
173.99602 59
174.00555 65
174.01198 67
174.07704 52
175.00931 128
175.02196 175
175.03476 141
176.99855 186
177.01294 199
178.01437 86
178.02155 156
178.03864 205
178.05386 190
178.53754 66
178.55276 57
181.07651 235
182.06038 90
182.07729 391
182.08505 388
182.09351 387
183.06618 63
183.08574 747
183.09413 739
183.10901 707
184.08337 169
184.10123 175
185.55627 50
188.00623 589
188.01443 668
188.02748 618
189.02339 1304
190.02937 1398
190.98999 97
191.01361 622
192.00542 180
192.01779 196
192.02631 193
192.05724 53
193.02914 62
194.01277 52
194.06564 116
194.07927 116
198.09225 86
198.10442 85
205.02992 107
205.04521 91
206.01863 143
206.03992 123
206.05142 51
207.08022 55
207.99841 83
208.02249 78
208.03528 54
208.08554 125
208.09781 110
209.07298 68
213.54118 101
213.55266 102
214.04425 58
214.05878 50
215.56842 673
216.05847 204
216.07051 243
216.08871 182
216.56267 103
216.57556 131
221.04782 72
222.01901 52
223.04538 67
223.05585 102
223.06639 113
226.09122 1171
226.10007 1129
227.08725 92
227.10907 135
231.01912 275
232.02702 223
233.01675 67
233.02686 166
233.03899 156
234.01784 331
234.02934 315
235.01604 275
235.02896 340
235.04828 158
238.06816 57
238.08096 79
239.08534 50
Name: "1,5-Diphenylcarbazide"
PrecursorMZ: 265.107
PrecursorType: [M+Na]+
IonMode: Positive
Formula: C13H14N4O
SMILES: C1=CC=C(C=C1)NNC(=O)NNC2=CC=CC=C2
InChI: 
InChIKey: KSPIHGBHKVISFI-UHFFFAOYSA-N
RetentionTime: 5.2839
CCS: 
CollisionEnergy: 20-40 eV
InstrumentType: UPLC-QTOF-MS
Comment: PI: Cristina Nerin; Data collector: QiZhi Su, GUIA, University of Zaragoza, Spain; Collision energy: 20-40 V; Instrument: Waters HPLC-QTOF-MS (Xevo G2 QTof); Ionization: ESI; Deconvoluted by MS-DIAL; Column: Waters AtlantisTM premier BEH C18 AX column (2.1 × 100mm x 1.7μm); Flow rate: 0.3mL/min; Mobile phase A and B are water and methnaol, respectively, both with 0.1% formic acid; Gradient elution: from A/B (95/5) to A/B (100/0) in 7min, kept for 4 min, then back to A/B (95/5) in 0.1 min, and maintained for additional 1.9 min (13min in total).; Injection volume: 10 μL
Num peaks: 255
56.96196 70
56.96721 66
65.03181 227
65.03929 227
66.0351 64
66.04288 67
77.03802 4382
78.03892 453
78.04588 453
79.0369 217
79.04278 338
79.05487 332
80.0412 342
80.05392 340
80.06393 286
81.95752 468
81.96243 471
83.97626 67
83.97932 66
84.95927 300
84.9695 295
85.94685 55
85.95543 51
91.04237 192
91.05338 188
92.04951 2759
92.0679 2857
93.05737 4902
94.05259 1403
94.06431 1405
95.00706 84
95.01427 71
98.9874 1772
104.01713 88
105.02858 531
105.04342 596
105.05043 537
106.0247 64
106.03311 117
106.04798 163
106.05551 134
107.05994 3100
108.04193 83
108.06812 2935
108.08489 2930
109.03488 232
109.04823 455
109.0545 594
109.07104 489
109.08815 202
113.02836 89
115.03728 74
115.04388 55
115.05278 52
116.51482 64
117.00227 157
119.05733 154
119.07133 89
120.01456 51
125.02153 62
126.0285 102
126.03357 105
129.04193 116
129.05542 160
129.06322 143
130.0524 75
130.05821 63
132.01132 458
132.05464 192
132.06157 178
133.03856 331
133.05566 1289
133.06232 1038
133.06908 1029
133.08411 545
133.53111 485
133.53998 487
133.54819 438
134.03072 474
134.0394 410
134.04878 504
134.06914 258
135.0433 97
135.05453 82
135.05957 74
141.03915 177
141.05843 169
142.06073 55
142.53354 189
143.02641 65
143.03787 58
145.01115 118
145.0605 61
145.06734 59
145.99933 292
146.01605 356
147.01947 545
147.02907 547
147.04596 57
147.52388 523
147.53329 528
147.54031 526
148.02934 239
148.03789 254
148.04607 279
148.06017 87
149.06038 52
150.03333 63
150.0401 65
150.05296 103
151.0672 62
152.07693 83
152.08493 65
154.04393 54
154.0569 100
154.06343 97
154.0708 85
156.08357 171
156.53929 85
156.55801 72
159.99341 178
160.00504 192
160.01244 192
162.99728 108
163.01657 86
163.02701 61
164.9875 50
166.06963 217
167.06276 269
167.07538 266
167.08917 232
168.0611 194
168.06909 598
168.08134 608
168.09792 442
169.03793 1566
169.04695 1574
169.06068 248
169.07004 67
169.07875 109
169.54324 594
169.55032 601
170.04343 193
173.00153 141
173.99602 59
174.00555 65
174.01198 67
174.07704 52
175.00931 128
175.02196 175
175.03476 141
176.99855 186
177.01294 199
178.01437 86
178.02155 156
178.03864 205
178.05386 190
178.53754 66
178.55276 57
181.07651 235
182.06038 90
182.07729 391
182.08505 388
182.09351 387
183.06618 63
183.08574 747
183.09413 739
183.10901 707
184.08337 169
184.10123 175
185.55627 50
188.00623 589
188.01443 668
188.02748 618
189.02339 1304
190.02937 1398
190.98999 97
191.01361 622
192.00542 180
192.01779 196
192.02631 193
192.05724 53
193.02914 62
194.01277 52
194.06564 116
194.07927 116
198.09225 86
198.10442 85
205.02992 107
205.04521 91
206.01863 143
206.03992 123
206.05142 51
207.08022 55
207.99841 83
208.02249 78
208.03528 54
208.08554 125
208.09781 110
209.07298 68
213.54118 101
213.55266 102
214.04425 58
214.05878 50
215.56842 673
216.05847 204
216.07051 243
216.08871 182
216.56267 103
216.57556 131
221.04782 72
222.01901 52
223.04538 67
223.05585 102
223.06639 113
226.09122 1171
226.10007 1129
227.08725 92
227.10907 135
231.01912 275
232.02702 223
233.01675 67
233.02686 166
233.03899 156
234.01784 331
234.02934 315
235.01604 275
235.02896 340
235.04828 158
238.06816 57
238.08096 79
239.08534 50
243.11568 71
248.03789 187
248.05249 165
249.02994 436
249.04291 434
250.02499 150
250.03937 170
251.06812 55
252.008 50
252.02614 62
253.0638 57
253.08128 72
253.09029 58
260.06308 52
260.08743 72
261.07388 111
262.08667 1151
262.09912 1266
262.59421 272
262.60977 269
263.09723 50
263.11353 63
265.10776 3908
Name: "4,5-Dimethyl-3-hydroxy-2,5-dihydrofurano-2-one"
PrecursorMZ: 129.0556
PrecursorType: [M+H]+
IonMode: Positive
Formula: C6H8O3
SMILES: CC1C(=C(C(=O)O1)O)C
InChI: 
InChIKey: UNYNVICDCJHOPO-UHFFFAOYSA-N
RetentionTime: 3.081433
CCS: 
CollisionEnergy: 20-40 eV
InstrumentType: UPLC-QTOF-MS
Comment: PI: Cristina Nerin; Data collector: QiZhi Su, GUIA, University of Zaragoza, Spain; Collision energy: 20-40 V; Instrument: Waters HPLC-QTOF-MS (Xevo G2 QTof); Ionization: ESI; Deconvoluted by MS-DIAL; Column: Waters AtlantisTM premier BEH C18 AX column (2.1 × 100mm x 1.7μm); Flow rate: 0.3mL/min; Mobile phase A and B are water and methnaol, respectively, both with 0.1% formic acid; Gradient elution: from A/B (95/5) to A/B (100/0) in 7min, kept for 4 min, then back to A/B (95/5) in 0.1 min, and maintained for additional 1.9 min (13min in total).; Injection volume: 10 μL
Num peaks: 97
55.05648 136
55.98106 33
56.96506 149
56.97198 72
59.93548 41
61.01482 31
65.03751 535
65.04324 208
66.0472 118
67.05619 52
69.07059 30
70.96168 39
70.98015 48
70.9862 49
71.0857 46
72.94174 76
73.03694 32
73.04887 46
77.03854 160
78.95994 33
78.98635 127
79.0552 63
80.04443 113
80.05048 115
80.93806 43
81.96561 149
82.47234 32
83.04545 122
83.05397 149
83.51395 42
84.9587 447
84.96679 203
84.99778 46
85.06387 45
88.9558 40
90.17673 34
91.04077 44
92.0051 46
92.04974 2660
92.99149 91
93.00148 408
93.05468 991
93.0655 360
93.07977 43
94.64176 41
95.01938 782
96.01286 33
96.02454 142
96.03162 61
96.98663 31
97.95391 33
98.98662 2918
99.0336 33
99.0644 54
99.98897 40
101.05704 30
102.02998 75
102.97997 188
103.00973 34
105.0098 51
107.03533 50
107.05676 211
107.06383 76
108.97063 40
109.00478 189
109.0741 165
109.08633 44
109.9809 245
110.06424 47
110.12615 34
110.97968 40
110.99192 104
111.04892 35
113.99985 38
114.09674 33
116.04939 44
116.06084 98
117.02351 30
117.97539 34
119.00212 47
119.09052 49
120.01283 72
120.93879 88
120.99837 33
122.95702 43
123.00891 690
123.0161 1090
123.11739 36
124.0137 65
124.0209 121
124.96149 76
125.0148 55
125.03068 33
125.96367 33
127.00535 83
127.01597 31
127.98574 33
Name: N-methyldidecylamine
PrecursorMZ: 312.3671
PrecursorType: [M+H]+
IonMode: Positive
Formula: C21H45N
SMILES: CCCCCCCCCCN(C)CCCCCCCCCC
InChI: 
InChIKey: ATBNMWWDBWBAHM-UHFFFAOYSA-N
RetentionTime: 5.9887
CCS: 
CollisionEnergy: 20-40 eV
InstrumentType: UPLC-QTOF-MS
Comment: PI: Cristina Nerin; Data collector: QiZhi Su, GUIA, University of Zaragoza, Spain; Collision energy: 20-40 V; Instrument: Waters HPLC-QTOF-MS (Xevo G2 QTof); Ionization: ESI; Deconvoluted by MS-DIAL; Column: Waters AtlantisTM premier BEH C18 AX column (2.1 × 100mm x 1.7μm); Flow rate: 0.3mL/min; Mobile phase A and B are water and methnaol, respectively, both with 0.1% formic acid; Gradient elution: from A/B (95/5) to A/B (100/0) in 7min, kept for 4 min, then back to A/B (95/5) in 0.1 min, and maintained for additional 1.9 min (13min in total).; Injection volume: 10 μL
Num peaks: 10
57.06924 14463
85.08193 13699
85.10061 13695
172.2061 109102
173.20914 12879
312.36429 1265881
312.45578 18064
312.54037 42953
312.64252 16931
312.69318 14989
Name: Diacetone acrylamide
PrecursorMZ: 170.1181
PrecursorType: [M+H]+
IonMode: Positive
Formula: C9H15NO2
SMILES: CC(=O)CC(C)(C)NC(=O)C=C
InChI: 
InChIKey: OMNKZBIFPJNNIO-UHFFFAOYSA-N
RetentionTime: 3.618717
CCS: 
CollisionEnergy: 20-40 eV
InstrumentType: UPLC-QTOF-MS
Comment: PI: Cristina Nerin; Data collector: QiZhi Su, GUIA, University of Zaragoza, Spain; Collision energy: 20-40 V; Instrument: Waters HPLC-QTOF-MS (Xevo G2 QTof); Ionization: ESI; Deconvoluted by MS-DIAL; Column: Waters AtlantisTM premier BEH C18 AX column (2.1 × 100mm x 1.7μm); Flow rate: 0.3mL/min; Mobile phase A and B are water and methnaol, respectively, both with 0.1% formic acid; Gradient elution: from A/B (95/5) to A/B (100/0) in 7min, kept for 4 min, then back to A/B (95/5) in 0.1 min, and maintained for additional 1.9 min (13min in total).; Injection volume: 10 μL
Num peaks: 53
55.01713 168
58.0642 377
66.99188 35
72.04393 1715
73.04514 46
73.05035 43
79.04792 692
79.0566 692
80.05331 45
80.05785 45
80.06223 45
81.06953 492
81.96059 99
82.07885 61
94.06052 115
94.07191 115
96.99087 48
97.00224 48
99.08077 3472
100.07793 228
100.08868 230
108.99829 306
109.97956 724
109.98992 710
109.99844 708
110.99665 43
111.99823 35
112.06799 179
112.0786 179
113.53812 45
124.55 52
126.99229 42
127.00461 42
133.55716 35
134.05614 52
137.02432 102
137.03716 112
140.05261 48
148.0002 96
148.01247 101
150.0238 1665
151.00908 138
151.02678 98
151.03497 59
152.0222 78
152.99463 35
153.56898 99
155.99275 193
156.00031 198
156.01096 194
160.06949 73
168.02892 68
168.04146 76
Name: Diacetone acrylamide
PrecursorMZ: 192.1001
PrecursorType: [M+Na]+
IonMode: Positive
Formula: C9H15NO2
SMILES: CC(=O)CC(C)(C)NC(=O)C=C
InChI: 
InChIKey: OMNKZBIFPJNNIO-UHFFFAOYSA-N
RetentionTime: 3.618717
CCS: 
CollisionEnergy: 20-40 eV
InstrumentType: UPLC-QTOF-MS
Comment: PI: Cristina Nerin; Data collector: QiZhi Su, GUIA, University of Zaragoza, Spain; Collision energy: 20-40 V; Instrument: Waters HPLC-QTOF-MS (Xevo G2 QTof); Ionization: ESI; Deconvoluted by MS-DIAL; Column: Waters AtlantisTM premier BEH C18 AX column (2.1 × 100mm x 1.7μm); Flow rate: 0.3mL/min; Mobile phase A and B are water and methnaol, respectively, both with 0.1% formic acid; Gradient elution: from A/B (95/5) to A/B (100/0) in 7min, kept for 4 min, then back to A/B (95/5) in 0.1 min, and maintained for additional 1.9 min (13min in total).; Injection volume: 10 μL
Num peaks: 60
55.01713 168
58.0642 377
66.99188 35
72.04393 1715
73.04514 46
73.05035 43
79.04792 692
79.0566 692
80.05331 45
80.05785 45
80.06223 45
81.06953 492
81.96059 99
82.07885 61
94.06052 115
94.07191 115
96.99087 48
97.00224 48
99.08077 3472
100.07793 228
100.08868 230
108.99829 306
109.97956 724
109.98992 710
109.99844 708
110.99665 43
111.99823 35
112.06799 179
112.0786 179
113.53812 45
124.55 52
126.99229 42
127.00461 42
133.55716 35
134.05614 52
137.02432 102
137.03716 112
140.05261 48
148.0002 96
148.01247 101
150.0238 1665
151.00908 138
151.02678 98
151.03497 59
152.0222 78
152.99463 35
153.56898 99
155.99275 193
156.00031 198
156.01096 194
160.06949 73
168.02892 68
168.04146 76
183.03375 97
183.04604 72
189.0864 59
189.09772 61
192.07454 47
192.09125 130
192.10638 246
Name: Metoxuron
PrecursorMZ: 251.0564
PrecursorType: [M+Na]+
IonMode: Positive
Formula: C10H13ClN2O2
SMILES: CN(C)C(=O)NC1=CC(=C(C=C1)OC)Cl
InChI: 
InChIKey: DSRNRYQBBJQVCW-UHFFFAOYSA-N
RetentionTime: 4.9484
CCS: 
CollisionEnergy: 20-40 eV
InstrumentType: UPLC-QTOF-MS
Comment: PI: Cristina Nerin; Data collector: QiZhi Su, GUIA, University of Zaragoza, Spain; Collision energy: 20-40 V; Instrument: Waters HPLC-QTOF-MS (Xevo G2 QTof); Ionization: ESI; Deconvoluted by MS-DIAL; Column: Waters AtlantisTM premier BEH C18 AX column (2.1 × 100mm x 1.7μm); Flow rate: 0.3mL/min; Mobile phase A and B are water and methnaol, respectively, both with 0.1% formic acid; Gradient elution: from A/B (95/5) to A/B (100/0) in 7min, kept for 4 min, then back to A/B (95/5) in 0.1 min, and maintained for additional 1.9 min (13min in total).; Injection volume: 10 μL
Num peaks: 25
72.04389 68601
73.04685 1461
84.96031 845
84.96764 847
106.02238 1744
106.02812 1734
106.03786 1744
134.01413 3984
134.03252 3194
135.01352 962
143.01727 806
149.04794 947
156.02155 6398
158.01926 1426
218.00461 1161
218.01627 1197
225.52325 973
229.06476 791
229.07565 958
248.04803 1972
249.02466 842
249.04311 1416
249.05251 1325
251.04395 846
251.05605 2611
Name: Metoxuron
PrecursorMZ: 267.0324
PrecursorType: [M+K]+
IonMode: Positive
Formula: C10H13ClN2O2
SMILES: CN(C)C(=O)NC1=CC(=C(C=C1)OC)Cl
InChI: 
InChIKey: DSRNRYQBBJQVCW-UHFFFAOYSA-N
RetentionTime: 4.9484
CCS: 
CollisionEnergy: 20-40 eV
InstrumentType: UPLC-QTOF-MS
Comment: PI: Cristina Nerin; Data collector: QiZhi Su, GUIA, University of Zaragoza, Spain; Collision energy: 20-40 V; Instrument: Waters HPLC-QTOF-MS (Xevo G2 QTof); Ionization: ESI; Deconvoluted by MS-DIAL; Column: Waters AtlantisTM premier BEH C18 AX column (2.1 × 100mm x 1.7μm); Flow rate: 0.3mL/min; Mobile phase A and B are water and methnaol, respectively, both with 0.1% formic acid; Gradient elution: from A/B (95/5) to A/B (100/0) in 7min, kept for 4 min, then back to A/B (95/5) in 0.1 min, and maintained for additional 1.9 min (13min in total).; Injection volume: 10 μL
Num peaks: 27
72.04389 68827
73.04685 1461
84.96031 845
84.96764 847
106.02238 1744
106.02812 1734
106.03786 1744
134.01413 3999
134.03252 3207
135.01352 963
143.01727 809
149.04794 947
156.02155 6405
158.01926 1429
218.00461 1163
218.01627 1198
225.52325 974
229.06476 790
229.07565 959
248.04803 1976
249.02466 842
249.04311 1418
249.05251 1327
251.04395 1096
251.05605 2062
253.05118 977
253.06029 960
Name: Solvent Yellow 7
PrecursorMZ: 199.0881
PrecursorType: [M+H]+
IonMode: Positive
Formula: C12H10N2O
SMILES: C1=CC=C(C=C1)N=NC2=CC=C(C=C2)O
InChI: 
InChIKey: BEYOBVMPDRKTNR-UHFFFAOYSA-N
RetentionTime: 6.9757
CCS: 
CollisionEnergy: 20-40 eV
InstrumentType: UPLC-QTOF-MS
Comment: PI: Cristina Nerin; Data collector: QiZhi Su, GUIA, University of Zaragoza, Spain; Collision energy: 20-40 V; Instrument: Waters HPLC-QTOF-MS (Xevo G2 QTof); Ionization: ESI; Deconvoluted by MS-DIAL; Column: Waters AtlantisTM premier BEH C18 AX column (2.1 × 100mm x 1.7μm); Flow rate: 0.3mL/min; Mobile phase A and B are water and methnaol, respectively, both with 0.1% formic acid; Gradient elution: from A/B (95/5) to A/B (100/0) in 7min, kept for 4 min, then back to A/B (95/5) in 0.1 min, and maintained for additional 1.9 min (13min in total).; Injection volume: 10 μL
Num peaks: 6
77.02363 175238
77.03903 175186
78.04235 10366
78.06191 10672
109.0654 2095
199.08768 15843
Name: Hydroxyprogesterone
PrecursorMZ: 683.428
PrecursorType: [2M+Na]+
IonMode: Positive
Formula: C21H30O3
SMILES: CC(=O)C1(CCC2C1(CCC3C2CCC4=CC(=O)CCC34C)C)O
InChI: 
InChIKey: DBPWSSGDRRHUNT-CEGNMAFCSA-N
RetentionTime: 6.99855
CCS: 
CollisionEnergy: 20-40 eV
InstrumentType: UPLC-QTOF-MS
Comment: PI: Cristina Nerin; Data collector: QiZhi Su, GUIA, University of Zaragoza, Spain; Collision energy: 20-40 V; Instrument: Waters HPLC-QTOF-MS (Xevo G2 QTof); Ionization: ESI; Deconvoluted by MS-DIAL; Column: Waters AtlantisTM premier BEH C18 AX column (2.1 × 100mm x 1.7μm); Flow rate: 0.3mL/min; Mobile phase A and B are water and methnaol, respectively, both with 0.1% formic acid; Gradient elution: from A/B (95/5) to A/B (100/0) in 7min, kept for 4 min, then back to A/B (95/5) in 0.1 min, and maintained for additional 1.9 min (13min in total).; Injection volume: 10 μL
Num peaks: 38
81.07121 2011
83.03603 2408
83.0507 2588
93.03416 2473
97.04639 34695
97.06553 34454
97.0811 33992
98.06932 3418
109.06521 28938
123.08163 3761
133.0961 2407
133.10373 2457
145.09549 3567
145.10309 3308
147.11375 2822
147.12143 2685
147.13019 2541
159.11792 2114
205.15561 1878
205.16634 1931
211.14882 2260
213.16591 2460
217.15872 1891
253.19637 2376
271.20621 4232
295.20694 3917
296.20728 1877
313.21674 13378
314.21957 2448
331.22705 182658
332.22998 39288
333.23209 4636
515.30731 4002
680.41766 17421
680.91797 13255
681.41217 4268
681.92065 3193
683.42328 6435
Name: Hydroxyprogesterone
PrecursorMZ: 661.4459
PrecursorType: [2M+H]+
IonMode: Positive
Formula: C21H30O3
SMILES: CC(=O)C1(CCC2C1(CCC3C2CCC4=CC(=O)CCC34C)C)O
InChI: 
InChIKey: DBPWSSGDRRHUNT-CEGNMAFCSA-N
RetentionTime: 7.00235
CCS: 
CollisionEnergy: 20-40 eV
InstrumentType: UPLC-QTOF-MS
Comment: PI: Cristina Nerin; Data collector: QiZhi Su, GUIA, University of Zaragoza, Spain; Collision energy: 20-40 V; Instrument: Waters HPLC-QTOF-MS (Xevo G2 QTof); Ionization: ESI; Deconvoluted by MS-DIAL; Column: Waters AtlantisTM premier BEH C18 AX column (2.1 × 100mm x 1.7μm); Flow rate: 0.3mL/min; Mobile phase A and B are water and methnaol, respectively, both with 0.1% formic acid; Gradient elution: from A/B (95/5) to A/B (100/0) in 7min, kept for 4 min, then back to A/B (95/5) in 0.1 min, and maintained for additional 1.9 min (13min in total).; Injection volume: 10 μL
Num peaks: 63
81.07038 2011
81.08467 2020
83.0488 2588
95.08517 2316
97.06528 53804
98.0686 3418
98.07804 3405
105.07042 1986
107.08338 1922
107.08923 1920
109.06516 52202
110.06779 3468
119.08584 2558
119.1039 1846
123.08048 6233
133.09853 2425
133.10484 2477
133.11485 2544
137.09715 2201
145.10092 4944
147.11723 2829
157.08572 2251
157.10207 2497
159.11707 3575
161.13322 2000
163.11133 4917
171.11783 3468
173.13324 2750
173.15309 2381
175.14745 2500
175.15469 2506
177.12878 2859
185.13239 2018
187.14445 1953
187.1546 1962
197.12625 1834
197.13467 1829
199.14807 2551
205.14827 2172
205.15968 2241
205.17384 2155
211.1403 2265
211.14996 2260
213.16547 2460
217.15813 1903
217.17137 1908
237.16621 2051
237.18413 1835
253.19504 7031
255.17491 1923
271.20541 7332
295.20584 8075
296.21576 1935
313.21613 15678
314.21927 3143
331.22635 182662
332.22998 39288
333.23251 4420
353.20795 37030
354.21106 7780
369.17465 1867
415.17886 2566
515.3092 2129
Name: Hydroxyprogesterone
PrecursorMZ: 331.2268
PrecursorType: [M+H]+
IonMode: Positive
Formula: C21H30O3
SMILES: CC(=O)C1(CCC2C1(CCC3C2CCC4=CC(=O)CCC34C)C)O
InChI: 
InChIKey: DBPWSSGDRRHUNT-CEGNMAFCSA-N
RetentionTime: 7.006166
CCS: 
CollisionEnergy: 20-40 eV
InstrumentType: UPLC-QTOF-MS
Comment: PI: Cristina Nerin; Data collector: QiZhi Su, GUIA, University of Zaragoza, Spain; Collision energy: 20-40 V; Instrument: Waters HPLC-QTOF-MS (Xevo G2 QTof); Ionization: ESI; Deconvoluted by MS-DIAL; Column: Waters AtlantisTM premier BEH C18 AX column (2.1 × 100mm x 1.7μm); Flow rate: 0.3mL/min; Mobile phase A and B are water and methnaol, respectively, both with 0.1% formic acid; Gradient elution: from A/B (95/5) to A/B (100/0) in 7min, kept for 4 min, then back to A/B (95/5) in 0.1 min, and maintained for additional 1.9 min (13min in total).; Injection volume: 10 μL
Num peaks: 48
83.04987 2588
95.08575 2316
97.06516 53804
98.0694 3418
98.0864 2716
105.07014 1924
109.06511 52202
109.08443 52764
110.06675 3066
110.07185 3087
119.0677 2345
119.08701 2294
123.06886 6237
123.0809 6230
131.08629 1825
133.08592 2408
133.10287 2457
145.10178 4944
147.09856 3238
147.11002 2786
147.11758 2829
149.06041 3009
157.08215 2258
157.10155 2497
159.11624 3570
163.10635 4918
163.11487 4920
171.11786 3363
173.13361 2508
175.1476 2500
177.1279 2717
187.14874 1952
199.14865 2129
205.15944 2241
211.14705 2257
213.1608 2455
213.17325 2452
217.15742 1903
217.16949 1907
237.16513 2050
253.19591 6203
255.17381 1923
271.20755 6930
295.20517 7892
296.2128 1935
313.21545 15172
314.2175 2986
331.22675 182354
Name: Hydroxyprogesterone
PrecursorMZ: 353.2085
PrecursorType: [M+Na]+
IonMode: Positive
Formula: C21H30O3
SMILES: CC(=O)C1(CCC2C1(CCC3C2CCC4=CC(=O)CCC34C)C)O
InChI: 
InChIKey: DBPWSSGDRRHUNT-CEGNMAFCSA-N
RetentionTime: 7.036617
CCS: 
CollisionEnergy: 20-40 eV
InstrumentType: UPLC-QTOF-MS
Comment: PI: Cristina Nerin; Data collector: QiZhi Su, GUIA, University of Zaragoza, Spain; Collision energy: 20-40 V; Instrument: Waters HPLC-QTOF-MS (Xevo G2 QTof); Ionization: ESI; Deconvoluted by MS-DIAL; Column: Waters AtlantisTM premier BEH C18 AX column (2.1 × 100mm x 1.7μm); Flow rate: 0.3mL/min; Mobile phase A and B are water and methnaol, respectively, both with 0.1% formic acid; Gradient elution: from A/B (95/5) to A/B (100/0) in 7min, kept for 4 min, then back to A/B (95/5) in 0.1 min, and maintained for additional 1.9 min (13min in total).; Injection volume: 10 μL
Num peaks: 15
115.03951 541
115.04848 569
115.05679 584
121.08674 1523
133.08217 1679
142.06604 1305
143.07495 2188
143.08954 2027
157.07329 368
199.11163 420
211.16913 753
289.23001 597
326.14099 3085
327.13992 675
353.20844 36131
Name: Sudan Black B
PrecursorMZ: 457.2143
PrecursorType: [M+H]+
IonMode: Positive
Formula: C29H24N6
SMILES: CC1(NC2=C3C(=C(C=C2)N=NC4=CC=C(C5=CC=CC=C54)N=NC6=CC=CC=C6)C=CC=C3N1)C
InChI: 
InChIKey: YCUVUDODLRLVIC-UHFFFAOYSA-N
RetentionTime: 8.012134
CCS: 
CollisionEnergy: 20-40 eV
InstrumentType: UPLC-QTOF-MS
Comment: PI: Cristina Nerin; Data collector: QiZhi Su, GUIA, University of Zaragoza, Spain; Collision energy: 20-40 V; Instrument: Waters HPLC-QTOF-MS (Xevo G2 QTof); Ionization: ESI; Deconvoluted by MS-DIAL; Column: Waters AtlantisTM premier BEH C18 AX column (2.1 × 100mm x 1.7μm); Flow rate: 0.3mL/min; Mobile phase A and B are water and methnaol, respectively, both with 0.1% formic acid; Gradient elution: from A/B (95/5) to A/B (100/0) in 7min, kept for 4 min, then back to A/B (95/5) in 0.1 min, and maintained for additional 1.9 min (13min in total).; Injection volume: 10 μL
Num peaks: 38
77.03884 26452
105.02631 15626
105.04527 16579
142.06508 22315
170.07336 15017
180.0807 7560
181.08238 4225
182.08461 18658
183.09146 11727
185.09624 4633
193.07719 12386
194.08415 96764
195.08939 39925
196.09238 16946
197.10657 16435
198.10776 5584
210.10349 4729
211.1107 79019
212.11633 18120
230.08372 36048
231.09119 44014
232.09581 7501
246.10402 11613
247.11049 46525
248.11595 11863
309.13922 5037
337.1463 5154
348.13507 3783
350.14075 9967
351.14609 3689
392.19827 6411
413.17831 4056
440.18661 18345
441.19022 7536
442.18961 7442
455.19681 4021
456.20135 4127
457.21274 358866
Name: Sudan Black B
PrecursorMZ: 913.4206
PrecursorType: [2M+H]+
IonMode: Positive
Formula: C29H24N6
SMILES: CC1(NC2=C3C(=C(C=C2)N=NC4=CC=C(C5=CC=CC=C54)N=NC6=CC=CC=C6)C=CC=C3N1)C
InChI: 
InChIKey: YCUVUDODLRLVIC-UHFFFAOYSA-N
RetentionTime: 8.012134
CCS: 
CollisionEnergy: 20-40 eV
InstrumentType: UPLC-QTOF-MS
Comment: PI: Cristina Nerin; Data collector: QiZhi Su, GUIA, University of Zaragoza, Spain; Collision energy: 20-40 V; Instrument: Waters HPLC-QTOF-MS (Xevo G2 QTof); Ionization: ESI; Deconvoluted by MS-DIAL; Column: Waters AtlantisTM premier BEH C18 AX column (2.1 × 100mm x 1.7μm); Flow rate: 0.3mL/min; Mobile phase A and B are water and methnaol, respectively, both with 0.1% formic acid; Gradient elution: from A/B (95/5) to A/B (100/0) in 7min, kept for 4 min, then back to A/B (95/5) in 0.1 min, and maintained for additional 1.9 min (13min in total).; Injection volume: 10 μL
Num peaks: 46
77.03884 26691
105.02631 16025
105.04527 16814
142.06508 22304
170.07336 15004
180.0807 7572
181.08238 4225
182.08461 18670
183.09146 11751
185.09624 4633
193.07719 12384
194.08415 96758
195.08939 39880
196.09238 16946
197.10657 16423
198.10776 5591
202.07814 3648
210.10349 5236
211.1107 79011
212.11633 18120
230.08372 36393
231.09119 44059
232.09581 7501
246.10402 11611
247.11049 47196
248.11595 12316
309.13922 4448
337.1463 5511
348.13507 3924
350.14075 9960
351.14609 3703
392.19827 6582
393.20538 3630
440.18661 18429
441.19022 7535
442.18961 7465
455.19681 4094
456.20135 4166
457.21274 361321
458.21609 114085
459.21967 16156
909.38617 30069
910.38971 20918
911.39417 11461
912.40179 6010
913.40802 6508
Name: N-1-Naphthylethylenediamine 2HCl
PrecursorMZ: 187.1246
PrecursorType: [M-2HCl+H]+
IonMode: Positive
Formula: C12H16Cl2N2
SMILES: C1=CC=C2C(=C1)C=CC=C2NCCN.Cl.Cl
InChI: 
InChIKey: MZNYWPRCVDMOJG-UHFFFAOYSA-N
RetentionTime: 1.000367
CCS: 
CollisionEnergy: 20-40 eV
InstrumentType: UPLC-QTOF-MS
Comment: PI: Cristina Nerin; Data collector: QiZhi Su, GUIA, University of Zaragoza, Spain; Collision energy: 20-40 V; Instrument: Waters HPLC-QTOF-MS (Xevo G2 QTof); Ionization: ESI; Deconvoluted by MS-DIAL; Column: Waters AtlantisTM premier BEH C18 AX column (2.1 × 100mm x 1.7μm); Flow rate: 0.3mL/min; Mobile phase A and B are water and methnaol, respectively, both with 0.1% formic acid; Gradient elution: from A/B (95/5) to A/B (100/0) in 7min, kept for 4 min, then back to A/B (95/5) in 0.1 min, and maintained for additional 1.9 min (13min in total).; Injection volume: 10 μL
Num peaks: 74
67.04242 608
67.05551 581
79.05344 752
79.05965 755
80.04263 625
80.04926 636
80.05391 629
80.06338 601
81.05367 931
81.05833 922
81.06993 904
82.05966 683
82.06737 694
84.08141 3052
99.08582 3146
105.03418 6180
106.03485 535
106.03992 518
106.05293 569
107.04144 361
107.0667 318
107.07592 377
110.09694 1380
112.11258 30769
113.11629 2148
117.05923 616
117.07172 679
120.05392 362
120.06146 423
121.04418 479
121.06265 418
122.08145 379
126.12524 334
126.13523 320
127.03474 897
127.05415 1089
127.06395 1103
128.08252 4252
129.06395 1211
129.07095 1242
129.07959 1245
130.12323 528
143.08694 801
145.04338 354
145.05388 358
145.06136 437
146.05438 357
146.06169 339
154.06734 1882
155.06586 1050
155.07309 1141
155.08705 957
158.06049 380
158.07234 363
159.05382 391
159.06248 514
159.0723 527
160.07549 2524
160.08281 2547
164.08586 350
170.09714 5229
171.10442 486
172.07625 1111
172.09262 1125
173.08275 536
173.09348 472
174.04671 735
174.05711 762
174.08559 351
184.06554 1149
184.07802 1337
184.0882 1296
186.0903 517
186.09952 565
Name: Amyleine hydrochloride
PrecursorMZ: 236.1669
PrecursorType: [M-HCl+H]+
IonMode: Positive
Formula: C14H22ClNO2
SMILES: CCC(C)(CN(C)C)OC(=O)C1=CC=CC=C1.Cl
InChI: 
InChIKey: YCAXNWFCHTZUMD-UHFFFAOYSA-N
RetentionTime: 1.0156
CCS: 
CollisionEnergy: 20-40 eV
InstrumentType: UPLC-QTOF-MS
Comment: PI: Cristina Nerin; Data collector: QiZhi Su, GUIA, University of Zaragoza, Spain; Collision energy: 20-40 V; Instrument: Waters HPLC-QTOF-MS (Xevo G2 QTof); Ionization: ESI; Deconvoluted by MS-DIAL; Column: Waters AtlantisTM premier BEH C18 AX column (2.1 × 100mm x 1.7μm); Flow rate: 0.3mL/min; Mobile phase A and B are water and methnaol, respectively, both with 0.1% formic acid; Gradient elution: from A/B (95/5) to A/B (100/0) in 7min, kept for 4 min, then back to A/B (95/5) in 0.1 min, and maintained for additional 1.9 min (13min in total).; Injection volume: 10 μL
Num peaks: 24
58.06593 3052
69.05326 20799
69.0709 20457
70.06696 8653
71.08721 1468
72.06546 3869
72.08147 3774
84.08118 3242
85.08913 44683
86.08177 9465
86.09665 9434
99.09057 3905
99.10603 3945
105.03472 8331
105.05281 8547
114.12834 145428
114.1477 146362
115.13144 10195
141.07039 2217
151.05525 2333
152.06274 36095
153.06668 2867
165.07077 37475
166.07687 12222
Name: piperidolate hydrochloride
PrecursorMZ: 324.1977
PrecursorType: [M-HCl+H]+
IonMode: Positive
Formula: C21H26ClNO2
SMILES: CCN1CCCC(C1)OC(=O)C(C2=CC=CC=C2)C3=CC=CC=C3.Cl
InChI: 
InChIKey: RBGWCEWDAHDPEH-UHFFFAOYSA-N
RetentionTime: 1.038933
CCS: 
CollisionEnergy: 20-40 eV
InstrumentType: UPLC-QTOF-MS
Comment: PI: Cristina Nerin; Data collector: QiZhi Su, GUIA, University of Zaragoza, Spain; Collision energy: 20-40 V; Instrument: Waters HPLC-QTOF-MS (Xevo G2 QTof); Ionization: ESI; Deconvoluted by MS-DIAL; Column: Waters AtlantisTM premier BEH C18 AX column (2.1 × 100mm x 1.7μm); Flow rate: 0.3mL/min; Mobile phase A and B are water and methnaol, respectively, both with 0.1% formic acid; Gradient elution: from A/B (95/5) to A/B (100/0) in 7min, kept for 4 min, then back to A/B (95/5) in 0.1 min, and maintained for additional 1.9 min (13min in total).; Injection volume: 10 μL
Num peaks: 14
84.08141 40034
84.09943 40253
112.1125 257061
113.11588 18089
114.12791 12393
130.12274 17537
151.05489 11350
152.0625 145673
153.06657 15317
165.07042 180235
166.07697 69865
167.08617 564144
168.08876 71099
324.19632 43262
Name: piperidolate hydrochloride
PrecursorMZ: 324.1977
PrecursorType: [M-HCl+H]+
IonMode: Positive
Formula: C21H26ClNO2
SMILES: CCN1CCCC(C1)OC(=O)C(C2=CC=CC=C2)C3=CC=CC=C3.Cl
InChI: 
InChIKey: RBGWCEWDAHDPEH-UHFFFAOYSA-N
RetentionTime: 1.038933
CCS: 
CollisionEnergy: 20-40 eV
InstrumentType: UPLC-QTOF-MS
Comment: PI: Cristina Nerin; Data collector: QiZhi Su, GUIA, University of Zaragoza, Spain; Collision energy: 20-40 V; Instrument: Waters HPLC-QTOF-MS (Xevo G2 QTof); Ionization: ESI; Deconvoluted by MS-DIAL; Column: Waters AtlantisTM premier BEH C18 AX column (2.1 × 100mm x 1.7μm); Flow rate: 0.3mL/min; Mobile phase A and B are water and methnaol, respectively, both with 0.1% formic acid; Gradient elution: from A/B (95/5) to A/B (100/0) in 7min, kept for 4 min, then back to A/B (95/5) in 0.1 min, and maintained for additional 1.9 min (13min in total).; Injection volume: 10 μL
Num peaks: 14
84.08141 40034
84.09943 40253
112.1125 257061
113.11588 18089
114.12791 12393
130.12274 17537
151.05489 11350
152.0625 145673
153.06657 15317
165.07042 180235
166.07697 69865
167.08617 564144
168.08876 71099
324.19632 43262
Name: Fominoben 2HCl
PrecursorMZ: 402.1581
PrecursorType: [M-HCl+H]+
IonMode: Positive
Formula: C21H25Cl2N3O3
SMILES: CN(CC1=C(C=CC=C1Cl)NC(=O)C2=CC=CC=C2)CC(=O)N3CCOCC3.Cl
InChI: 
InChIKey: ZAOHKACVOFGZOI-UHFFFAOYSA-N
RetentionTime: 1.061783
CCS: 
CollisionEnergy: 20-40 eV
InstrumentType: UPLC-QTOF-MS
Comment: PI: Cristina Nerin; Data collector: QiZhi Su, GUIA, University of Zaragoza, Spain; Collision energy: 20-40 V; Instrument: Waters HPLC-QTOF-MS (Xevo G2 QTof); Ionization: ESI; Deconvoluted by MS-DIAL; Column: Waters AtlantisTM premier BEH C18 AX column (2.1 × 100mm x 1.7μm); Flow rate: 0.3mL/min; Mobile phase A and B are water and methnaol, respectively, both with 0.1% formic acid; Gradient elution: from A/B (95/5) to A/B (100/0) in 7min, kept for 4 min, then back to A/B (95/5) in 0.1 min, and maintained for additional 1.9 min (13min in total).; Injection volume: 10 μL
Num peaks: 29
88.07564 7408
105.03426 16359
105.0495 16336
106.03757 954
106.05383 1022
112.11262 36954
112.13132 36875
113.11614 2231
130.12305 2029
140.0094 1190
140.02948 1636
159.11334 65230
160.11661 5167
166.00621 83225
167.0092 6810
168.00331 26456
169.0054 1770
208.07332 1096
208.08855 1024
244.05299 58736
245.05699 8774
246.05092 18684
247.04684 2377
247.05641 2387
287.09564 3843
289.09305 1294
324.19626 7211
325.19431 4915
402.15912 8185
Name: 2-methyl-3-isothiazolone hydrochloride
PrecursorMZ: 116.0169
PrecursorType: [M-HCl+H]+
IonMode: Positive
Formula: C4H6ClNOS
SMILES: CN1C(=O)C=CS1.Cl
InChI: 
InChIKey: SJXPQSRCFCPWQQ-UHFFFAOYSA-N
RetentionTime: 1.1303
CCS: 
CollisionEnergy: 20-40 eV
InstrumentType: UPLC-QTOF-MS
Comment: PI: Cristina Nerin; Data collector: QiZhi Su, GUIA, University of Zaragoza, Spain; Collision energy: 20-40 V; Instrument: Waters HPLC-QTOF-MS (Xevo G2 QTof); Ionization: ESI; Deconvoluted by MS-DIAL; Column: Waters AtlantisTM premier BEH C18 AX column (2.1 × 100mm x 1.7μm); Flow rate: 0.3mL/min; Mobile phase A and B are water and methnaol, respectively, both with 0.1% formic acid; Gradient elution: from A/B (95/5) to A/B (100/0) in 7min, kept for 4 min, then back to A/B (95/5) in 0.1 min, and maintained for additional 1.9 min (13min in total).; Injection volume: 10 μL
Num peaks: 26
58.06348 489
58.06786 583
69.07152 3475
70.0658 1516
72.08202 436
84.08158 6701
84.95916 401
85.08868 5436
85.09985 341
86.09102 404
86.0955 854
88.07533 507
98.05998 430
99.10135 291
99.10944 588
105.03397 2780
105.04226 414
110.09791 291
112.11211 25079
113.11227 976
113.11838 1164
114.12757 17170
115.05489 765
115.13121 1391
116.01579 1312
116.02156 342
Name: 2-methyl-3-isothiazolone hydrochloride
PrecursorMZ: 116.0175
PrecursorType: [M-HCl+H]+
IonMode: Positive
Formula: C4H6ClNOS
SMILES: CN1C(=O)C=CS1.Cl
InChI: 
InChIKey: SJXPQSRCFCPWQQ-UHFFFAOYSA-N
RetentionTime: 1.975967
CCS: 
CollisionEnergy: 20-40 eV
InstrumentType: UPLC-QTOF-MS
Comment: PI: Cristina Nerin; Data collector: QiZhi Su, GUIA, University of Zaragoza, Spain; Collision energy: 20-40 V; Instrument: Waters HPLC-QTOF-MS (Xevo G2 QTof); Ionization: ESI; Deconvoluted by MS-DIAL; Column: Waters AtlantisTM premier BEH C18 AX column (2.1 × 100mm x 1.7μm); Flow rate: 0.3mL/min; Mobile phase A and B are water and methnaol, respectively, both with 0.1% formic acid; Gradient elution: from A/B (95/5) to A/B (100/0) in 7min, kept for 4 min, then back to A/B (95/5) in 0.1 min, and maintained for additional 1.9 min (13min in total).; Injection volume: 10 μL
Num peaks: 62
58.06124 160
58.06674 551
65.04031 128
68.99736 319
69.06194 141
69.0712 1470
70.06478 733
71.01493 203
71.0733 281
72.0425 314
72.08009 292
72.08742 262
79.05387 115
80.04794 155
81.07314 375
82.04758 223
82.06258 267
82.07127 148
84.0508 202
84.08142 3018
84.96125 314
84.97354 113
85.08858 3627
86.06075 197
86.09316 281
86.09789 133
86.10469 103
93.04346 120
95.06328 150
96.07037 151
96.0844 187
98.05863 567
98.06461 486
98.19453 105
99.10458 304
99.1088 126
100.56287 163
100.9962 249
103.0587 123
104.54101 125
105.03294 696
105.55426 131
106.06377 161
107.06867 256
107.56245 116
108.06885 283
108.08141 225
110.03832 110
110.09605 239
111.04422 265
111.05231 103
112.0592 106
112.11199 3277
112.53838 249
112.54711 283
113.05377 314
113.11661 302
114.12762 10264
114.5589 115
115.05763 280
115.13031 958
116.01689 1640
Name: Quinine hydrochloride
PrecursorMZ: 325.1916
PrecursorType: [M-HCl+H]+
IonMode: Positive
Formula: C20H25ClN2O2
SMILES: COC1=CC2=C(C=CN=C2C=C1)C(C3CC4CCN3CC4C=C)O.Cl
InChI: 
InChIKey: LBSFSRMTJJPTCW-DSXUQNDKSA-N
RetentionTime: 2.086867
CCS: 
CollisionEnergy: 20-40 eV
InstrumentType: UPLC-QTOF-MS
Comment: PI: Cristina Nerin; Data collector: QiZhi Su, GUIA, University of Zaragoza, Spain; Collision energy: 20-40 V; Instrument: Waters HPLC-QTOF-MS (Xevo G2 QTof); Ionization: ESI; Deconvoluted by MS-DIAL; Column: Waters AtlantisTM premier BEH C18 AX column (2.1 × 100mm x 1.7μm); Flow rate: 0.3mL/min; Mobile phase A and B are water and methnaol, respectively, both with 0.1% formic acid; Gradient elution: from A/B (95/5) to A/B (100/0) in 7min, kept for 4 min, then back to A/B (95/5) in 0.1 min, and maintained for additional 1.9 min (13min in total).; Injection volume: 10 μL
Num peaks: 35
69.05671 512
69.06988 715
69.07721 847
70.06509 416
70.07725 415
84.08154 426
106.0622 408
106.08057 399
108.06125 1201
110.07988 917
110.09536 1070
110.10295 1062
116.0444 419
116.05236 443
116.06122 449
146.05901 2448
156.0605 388
158.06085 1351
166.1098 610
173.07817 1440
173.08722 1381
174.03488 814
174.05612 4329
188.07082 3085
188.09279 387
189.07547 2794
189.1026 2253
198.07001 498
221.09299 418
225.09262 396
225.11581 417
226.11171 549
226.13141 524
251.11792 1044
325.19138 38035
Name: Amyleine hydrochloride
PrecursorMZ: 236.1655
PrecursorType: [M-HCl+H]+
IonMode: Positive
Formula: C14H22ClNO2
SMILES: CCC(C)(CN(C)C)OC(=O)C1=CC=CC=C1.Cl
InChI: 
InChIKey: YCAXNWFCHTZUMD-UHFFFAOYSA-N
RetentionTime: 2.231533
CCS: 
CollisionEnergy: 20-40 eV
InstrumentType: UPLC-QTOF-MS
Comment: PI: Cristina Nerin; Data collector: QiZhi Su, GUIA, University of Zaragoza, Spain; Collision energy: 20-40 V; Instrument: Waters HPLC-QTOF-MS (Xevo G2 QTof); Ionization: ESI; Deconvoluted by MS-DIAL; Column: Waters AtlantisTM premier BEH C18 AX column (2.1 × 100mm x 1.7μm); Flow rate: 0.3mL/min; Mobile phase A and B are water and methnaol, respectively, both with 0.1% formic acid; Gradient elution: from A/B (95/5) to A/B (100/0) in 7min, kept for 4 min, then back to A/B (95/5) in 0.1 min, and maintained for additional 1.9 min (13min in total).; Injection volume: 10 μL
Num peaks: 20
58.0663 2321
58.07405 2316
69.07038 7865
70.06445 3845
70.06929 3851
72.08125 1667
72.08635 1667
77.03869 615
77.0451 613
84.0816 4275
84.10127 4563
85.08914 16035
86.0966 3480
99.10144 1573
99.10839 1572
105.03409 2973
105.04868 2961
114.12799 56598
115.11584 4126
115.13202 3987
Name: N-1-Naphthylethylenediamine 2HCl
PrecursorMZ: 187.1235
PrecursorType: [M-2HCl+H]+
IonMode: Positive
Formula: C12H16Cl2N2
SMILES: C1=CC=C2C(=C1)C=CC=C2NCCN.Cl.Cl
InChI: 
InChIKey: MZNYWPRCVDMOJG-UHFFFAOYSA-N
RetentionTime: 2.3229
CCS: 
CollisionEnergy: 20-40 eV
InstrumentType: UPLC-QTOF-MS
Comment: PI: Cristina Nerin; Data collector: QiZhi Su, GUIA, University of Zaragoza, Spain; Collision energy: 20-40 V; Instrument: Waters HPLC-QTOF-MS (Xevo G2 QTof); Ionization: ESI; Deconvoluted by MS-DIAL; Column: Waters AtlantisTM premier BEH C18 AX column (2.1 × 100mm x 1.7μm); Flow rate: 0.3mL/min; Mobile phase A and B are water and methnaol, respectively, both with 0.1% formic acid; Gradient elution: from A/B (95/5) to A/B (100/0) in 7min, kept for 4 min, then back to A/B (95/5) in 0.1 min, and maintained for additional 1.9 min (13min in total).; Injection volume: 10 μL
Num peaks: 167
55.0209 21
55.05628 45
55.05969 45
65.03711 67
65.04378 70
67.05571 56
70.99564 21
72.04663 20
79.04338 141
79.05453 139
79.06163 137
81.05504 61
81.06878 193
82.06007 34
82.0674 32
83.07289 29
90.04755 21
92.04616 30
94.05616 65
94.06541 49
94.07507 75
95.08119 25
96.9667 23
97.06995 58
97.08214 46
97.09799 25
97.96687 25
99.06071 29
99.93497 23
99.93842 23
100.99322 20
105.05891 53
106.06079 29
106.06849 39
107.05315 107
107.05947 125
107.07774 25
107.08603 75
109.07883 31
109.0891 25
109.09801 27
110.0963 32
110.10327 32
111.0802 20
112.02055 22
115.05563 131
116.04934 38
116.05844 43
116.55901 24
117.04649 85
117.05747 134
117.07068 127
117.0764 131
118.07198 24
118.09152 105
119.54605 21
120.04773 45
120.0574 31
121.08696 20
122.07806 64
123.04485 35
123.10267 31
124.11089 70
124.11749 71
124.54653 20
125.1076 48
126.04693 29
127.05482 51
127.07098 73
128.06258 746
128.08876 133
128.5825 30
129.06963 102
129.08534 136
129.10007 23
130.08359 53
130.54224 20
130.55655 20
132.54193 26
132.55667 33
135.04036 22
135.09926 39
135.10553 41
137.12361 26
139.03406 24
139.04958 55
139.06097 78
139.68671 20
140.02702 26
140.04634 27
140.05696 163
141.07118 607
142.06099 100
142.07097 84
142.07892 96
143.04898 23
143.07416 348
143.08464 360
143.09445 20
144.03078 22
144.05299 41
144.08061 162
145.08287 102
145.09094 95
146.05066 468
146.07913 477
146.09346 23
147.05899 51
147.06735 33
148.56921 27
148.57657 22
151.07881 72
152.06201 197
153.06992 1021
154.06836 351
155.0723 313
155.08696 371
158.05699 40
158.06505 30
158.55757 21
160.07581 83
160.12842 106
161.07307 68
161.08395 52
162.08229 28
162.09137 30
162.10124 42
162.57613 27
164.08826 50
165.58235 74
166.06665 67
167.07083 191
167.08459 160
167.26877 30
167.98349 98
168.08194 1481
168.14096 28
169.08868 814
169.56441 20
170.09645 1938
171.06625 23
171.09943 421
172.05148 78
172.07277 310
172.08153 328
172.10335 133
173.03015 25
173.08176 100
173.09186 123
173.10307 107
174.08513 35
174.09692 127
174.55719 22
176.06868 23
177.06316 23
177.07498 25
177.57797 36
183.07155 41
183.10382 20
184.07594 116
185.04192 34
186.11134 152
187.09984 94
187.11314 41
187.12466 62
187.13356 36
187.54504 25
Name: N-1-Naphthylethylenediamine 2HCl
PrecursorMZ: 187.1238
PrecursorType: [M-2HCl+H]+
IonMode: Positive
Formula: C12H16Cl2N2
SMILES: C1=CC=C2C(=C1)C=CC=C2NCCN.Cl.Cl
InChI: 
InChIKey: MZNYWPRCVDMOJG-UHFFFAOYSA-N
RetentionTime: 2.475183
CCS: 
CollisionEnergy: 20-40 eV
InstrumentType: UPLC-QTOF-MS
Comment: PI: Cristina Nerin; Data collector: QiZhi Su, GUIA, University of Zaragoza, Spain; Collision energy: 20-40 V; Instrument: Waters HPLC-QTOF-MS (Xevo G2 QTof); Ionization: ESI; Deconvoluted by MS-DIAL; Column: Waters AtlantisTM premier BEH C18 AX column (2.1 × 100mm x 1.7μm); Flow rate: 0.3mL/min; Mobile phase A and B are water and methnaol, respectively, both with 0.1% formic acid; Gradient elution: from A/B (95/5) to A/B (100/0) in 7min, kept for 4 min, then back to A/B (95/5) in 0.1 min, and maintained for additional 1.9 min (13min in total).; Injection volume: 10 μL
Num peaks: 93
80.04897 202
80.05585 162
81.0575 163
81.0727 131
82.07349 129
84.08118 1228
84.96355 211
85.08849 375
88.07675 309
94.04869 149
94.05647 300
95.05994 287
105.02856 232
105.03538 592
105.04169 186
106.06339 197
107.05903 348
107.06589 244
112.11276 7040
113.11706 517
114.12823 520
115.05423 1902
116.0626 291
117.05766 149
117.06863 217
118.05273 194
120.04889 125
120.05996 275
121.05659 193
121.06377 205
121.07384 126
122.06949 439
127.05382 1468
128.06171 3114
129.0686 1192
130.06918 214
130.12479 737
131.06346 141
134.05949 133
135.0679 314
135.55914 161
138.12708 200
141.07173 2838
141.56586 162
142.07065 488
142.07812 141
143.05212 177
143.06761 332
143.07431 831
143.08618 436
144.07912 516
146.05663 155
151.05476 473
152.06357 3917
153.07152 4845
154.04849 138
154.05739 310
154.07098 1934
155.07272 1616
156.07791 235
156.08673 272
156.57492 168
158.06505 247
158.07324 159
159.11226 2942
160.05434 135
160.07675 585
160.08771 141
160.11972 149
165.07159 3648
166.00522 2942
166.06375 121
166.08031 1088
167.01204 144
167.08488 12035
168.00352 1361
168.08289 6487
168.09352 1585
169.08781 3356
170.09738 6886
171.08482 129
171.10085 1073
171.11029 210
172.07585 194
174.05531 126
174.06575 144
174.09174 142
175.06319 156
181.07285 170
183.06493 145
184.07774 312
186.0937 127
187.12729 142
Name: Pilocarpine HCl
PrecursorMZ: 231.111
PrecursorType: [M-HCl+Na]+
IonMode: Positive
Formula: C11H17ClN2O2
SMILES: CCC1C(COC1=O)CC2=CN=CN2C.Cl
InChI: 
InChIKey: RNAICSBVACLLGM-GNAZCLTHSA-N
RetentionTime: 0.7415
CCS: 
CollisionEnergy: 20-40 eV
InstrumentType: UPLC-QTOF-MS
Comment: PI: Cristina Nerin; Data collector: QiZhi Su, GUIA, University of Zaragoza, Spain; Collision energy: 20-40 V; Instrument: Waters HPLC-QTOF-MS (Xevo G2 QTof); Ionization: ESI; Deconvoluted by MS-DIAL; Column: Waters AtlantisTM premier BEH C18 AX column (2.1 × 100mm x 1.7μm); Flow rate: 0.3mL/min; Mobile phase A and B are water and methnaol, respectively, both with 0.1% formic acid; Gradient elution: from A/B (95/5) to A/B (100/0) in 7min, kept for 4 min, then back to A/B (95/5) in 0.1 min, and maintained for additional 1.9 min (13min in total).; Injection volume: 10 μL
Num peaks: 129
55.0631 592
69.03018 136
69.06724 160
69.07283 197
77.03664 147
77.04252 153
80.04969 280
81.03007 648
81.04543 366
81.06913 2408
81.07419 640
82.04917 121
83.03568 551
83.04842 294
83.0612 270
84.06205 233
84.0681 228
84.07875 177
92.04595 140
92.05231 141
93.05817 150
93.06838 115
94.05458 1811
94.06548 1832
95.06097 4138
96.01619 141
96.0218 131
96.03663 192
96.05125 10920
96.06837 11125
96.08686 11063
97.04558 122
97.07383 2492
98.05969 199
98.06963 324
98.0799 269
98.09316 186
104.03658 150
104.0459 156
104.056 157
105.05272 501
105.07002 340
106.08617 116
107.05769 1027
107.07319 747
107.09102 2472
108.07922 1538
108.08631 1543
109.0767 1236
110.05581 166
117.05186 113
117.0593 216
117.075 277
118.07057 160
120.04415 227
120.05028 487
120.05672 589
120.06825 1043
121.07671 2755
122.06224 477
122.08377 1572
122.09505 1195
123.0929 483
123.10898 491
124.07304 201
124.09514 504
124.1116 479
131.0631 238
131.07642 239
132.06609 171
132.0816 266
134.06689 1069
134.08563 1072
134.10515 1983
135.09167 1777
136.07878 858
137.05963 144
137.07498 175
138.05864 117
138.07147 182
139.08543 208
139.09409 290
146.08321 141
146.09395 175
147.09236 359
148.07681 402
148.09836 167
149.07315 579
151.12306 482
154.11786 115
161.06201 121
161.07516 135
162.08119 246
162.09998 406
162.11305 192
162.12032 178
163.08562 1289
163.092 1289
163.12361 671
168.10046 404
168.106 431
168.1225 214
175.09241 114
176.09325 347
176.10216 348
177.10826 157
179.07526 281
179.08459 281
179.11311 226
179.12823 219
180.09143 278
181.09151 492
181.10323 502
181.13222 141
181.13966 168
182.11909 615
192.11771 164
192.12897 167
209.20758 131
209.22159 147
209.26558 290
209.29088 122
215.13808 219
220.10701 118
220.12007 132
220.12732 118
228.09883 358
228.11099 519
231.11134 1335
Name: Pilocarpine HCl
PrecursorMZ: 247.0843
PrecursorType: [M-HCl+K]+
IonMode: Positive
Formula: C11H17ClN2O2
SMILES: CCC1C(COC1=O)CC2=CN=CN2C.Cl
InChI: 
InChIKey: RNAICSBVACLLGM-GNAZCLTHSA-N
RetentionTime: 0.7453
CCS: 
CollisionEnergy: 20-40 eV
InstrumentType: UPLC-QTOF-MS
Comment: PI: Cristina Nerin; Data collector: QiZhi Su, GUIA, University of Zaragoza, Spain; Collision energy: 20-40 V; Instrument: Waters HPLC-QTOF-MS (Xevo G2 QTof); Ionization: ESI; Deconvoluted by MS-DIAL; Column: Waters AtlantisTM premier BEH C18 AX column (2.1 × 100mm x 1.7μm); Flow rate: 0.3mL/min; Mobile phase A and B are water and methnaol, respectively, both with 0.1% formic acid; Gradient elution: from A/B (95/5) to A/B (100/0) in 7min, kept for 4 min, then back to A/B (95/5) in 0.1 min, and maintained for additional 1.9 min (13min in total).; Injection volume: 10 μL
Num peaks: 130
55.0635 601
56.04923 214
56.05463 214
56.05906 219
69.03732 227
69.06923 230
77.03363 189
77.03889 190
77.04467 195
80.04971 639
81.02809 1090
81.0689 2452
81.07779 1181
83.05502 200
83.06097 159
83.07009 611
84.05675 267
84.06371 295
84.06863 290
84.08134 235
84.08601 148
93.06338 229
94.06535 2488
95.06088 6827
95.10915 318
96.03996 178
96.06831 14670
96.08421 14697
97.05552 2873
97.07386 3651
98.06005 670
98.07791 559
98.0901 366
104.03606 156
104.04673 162
105.05281 712
105.06986 432
106.04784 231
106.06524 367
106.07397 409
107.06063 1588
107.06733 1247
107.07558 1032
108.05714 345
108.06621 1519
108.07561 1610
108.08315 1585
109.07614 2995
110.05526 163
110.09841 152
111.07663 154
112.1038 186
112.11254 157
117.05154 227
117.06155 337
117.07219 306
118.0729 158
119.05407 166
119.07188 149
120.04912 531
120.05573 705
120.06458 958
120.07078 1104
121.07619 3716
122.05943 254
122.08502 4160
122.09552 3520
123.06504 192
123.09303 247
123.10998 954
124.09282 509
124.10148 547
125.06641 184
125.07472 200
131.06609 267
131.07458 242
133.07611 288
134.08455 1805
134.09412 1368
135.05417 300
135.07355 3748
135.09203 2827
136.09489 280
136.10568 454
136.11377 567
137.06473 164
137.07587 177
137.09105 458
138.07542 199
139.07823 350
139.08623 326
140.08096 157
140.09242 151
146.08344 328
146.09203 398
146.09947 322
151.12408 542
161.07417 167
161.10847 244
162.06346 449
162.08157 194
163.0864 1300
164.10629 168
168.09203 365
168.10153 408
168.10806 433
176.10355 348
179.08087 281
179.08932 276
179.11464 220
179.13263 170
180.09753 280
181.09569 494
181.10577 496
182.11684 825
182.13342 894
209.20461 192
209.26694 337
215.12849 223
215.1389 219
228.0977 519
231.11079 406
232.10788 207
232.12086 205
236.08559 1747
236.10547 1595
236.5835 643
236.60561 599
237.09166 324
247.07185 459
Name: Pilocarpine HCl
PrecursorMZ: 209.1297
PrecursorType: [M-HCl+H]+
IonMode: Positive
Formula: C11H17ClN2O2
SMILES: CCC1C(COC1=O)CC2=CN=CN2C.Cl
InChI: 
InChIKey: RNAICSBVACLLGM-GNAZCLTHSA-N
RetentionTime: 0.7529167
CCS: 
CollisionEnergy: 20-40 eV
InstrumentType: UPLC-QTOF-MS
Comment: PI: Cristina Nerin; Data collector: QiZhi Su, GUIA, University of Zaragoza, Spain; Collision energy: 20-40 V; Instrument: Waters HPLC-QTOF-MS (Xevo G2 QTof); Ionization: ESI; Deconvoluted by MS-DIAL; Column: Waters AtlantisTM premier BEH C18 AX column (2.1 × 100mm x 1.7μm); Flow rate: 0.3mL/min; Mobile phase A and B are water and methnaol, respectively, both with 0.1% formic acid; Gradient elution: from A/B (95/5) to A/B (100/0) in 7min, kept for 4 min, then back to A/B (95/5) in 0.1 min, and maintained for additional 1.9 min (13min in total).; Injection volume: 10 μL
Num peaks: 39
68.05014 4528
68.06164 4512
81.0452 4069
81.05574 4927
83.06115 3078
94.05116 3895
94.06554 3906
95.06116 132086
96.06853 115729
97.07339 11600
107.0608 2100
107.07379 2327
108.07699 1813
108.08247 1767
109.07658 12618
121.07692 19142
122.07914 15944
122.09274 19746
123.09232 4146
123.11157 2048
133.05911 5707
133.07742 5832
134.08379 2542
135.09192 3991
136.0961 3951
136.10851 4519
136.1152 3705
136.12691 2835
147.07265 3970
147.09247 1764
148.10016 3890
151.12468 4945
161.10762 1904
161.11604 1903
163.12364 47008
164.1254 4302
191.11929 2110
191.12669 2141
209.1293 174199
Name: Diphenhydramine HCl
PrecursorMZ: 256.1706
PrecursorType: [M-HCl+H]+
IonMode: Positive
Formula: C17H22ClNO
SMILES: CN(C)CCOC(C1=CC=CC=C1)C2=CC=CC=C2.Cl
InChI: 
InChIKey: PCHPORCSPXIHLZ-UHFFFAOYSA-N
RetentionTime: 3.424133
CCS: 
CollisionEnergy: 20-40 eV
InstrumentType: UPLC-QTOF-MS
Comment: PI: Cristina Nerin; Data collector: QiZhi Su, GUIA, University of Zaragoza, Spain; Collision energy: 20-40 V; Instrument: Waters HPLC-QTOF-MS (Xevo G2 QTof); Ionization: ESI; Deconvoluted by MS-DIAL; Column: Waters AtlantisTM premier BEH C18 AX column (2.1 × 100mm x 1.7μm); Flow rate: 0.3mL/min; Mobile phase A and B are water and methnaol, respectively, both with 0.1% formic acid; Gradient elution: from A/B (95/5) to A/B (100/0) in 7min, kept for 4 min, then back to A/B (95/5) in 0.1 min, and maintained for additional 1.9 min (13min in total).; Injection volume: 10 μL
Num peaks: 12
115.05559 4604
128.04373 6471
128.0625 6637
141.0699 6868
141.08701 6929
151.05415 10473
152.06224 139309
153.06598 16538
165.07036 159723
166.07619 57293
167.08585 282449
168.08922 38552
Name: piperidolate hydrochloride
PrecursorMZ: 324.1968
PrecursorType: [M-HCl+H]+
IonMode: Positive
Formula: C21H26ClNO2
SMILES: CCN1CCCC(C1)OC(=O)C(C2=CC=CC=C2)C3=CC=CC=C3.Cl
InChI: 
InChIKey: RBGWCEWDAHDPEH-UHFFFAOYSA-N
RetentionTime: 3.637817
CCS: 
CollisionEnergy: 20-40 eV
InstrumentType: UPLC-QTOF-MS
Comment: PI: Cristina Nerin; Data collector: QiZhi Su, GUIA, University of Zaragoza, Spain; Collision energy: 20-40 V; Instrument: Waters HPLC-QTOF-MS (Xevo G2 QTof); Ionization: ESI; Deconvoluted by MS-DIAL; Column: Waters AtlantisTM premier BEH C18 AX column (2.1 × 100mm x 1.7μm); Flow rate: 0.3mL/min; Mobile phase A and B are water and methnaol, respectively, both with 0.1% formic acid; Gradient elution: from A/B (95/5) to A/B (100/0) in 7min, kept for 4 min, then back to A/B (95/5) in 0.1 min, and maintained for additional 1.9 min (13min in total).; Injection volume: 10 μL
Num peaks: 8
84.08117 53895
110.09767 3455
112.11256 320224
113.11539 23062
130.12366 21457
167.0862 303405
168.08983 42966
324.19601 64151
Name: piperidolate hydrochloride
PrecursorMZ: 324.198
PrecursorType: [M-HCl+H]+
IonMode: Positive
Formula: C21H26ClNO2
SMILES: CCN1CCCC(C1)OC(=O)C(C2=CC=CC=C2)C3=CC=CC=C3.Cl
InChI: 
InChIKey: RBGWCEWDAHDPEH-UHFFFAOYSA-N
RetentionTime: 3.873867
CCS: 
CollisionEnergy: 20-40 eV
InstrumentType: UPLC-QTOF-MS
Comment: PI: Cristina Nerin; Data collector: QiZhi Su, GUIA, University of Zaragoza, Spain; Collision energy: 20-40 V; Instrument: Waters HPLC-QTOF-MS (Xevo G2 QTof); Ionization: ESI; Deconvoluted by MS-DIAL; Column: Waters AtlantisTM premier BEH C18 AX column (2.1 × 100mm x 1.7μm); Flow rate: 0.3mL/min; Mobile phase A and B are water and methnaol, respectively, both with 0.1% formic acid; Gradient elution: from A/B (95/5) to A/B (100/0) in 7min, kept for 4 min, then back to A/B (95/5) in 0.1 min, and maintained for additional 1.9 min (13min in total).; Injection volume: 10 μL
Num peaks: 12
84.08132 80834
84.09937 80430
112.11242 521195
113.11564 38312
130.12326 32144
152.06274 31287
152.08162 32695
165.07011 34997
166.07652 7372
167.08607 586908
168.08932 74736
324.19632 99004
Name: Fominoben 2HCl
PrecursorMZ: 402.159
PrecursorType: [M-HCl+H]+
IonMode: Positive
Formula: C21H25Cl2N3O3
SMILES: CN(CC1=C(C=CC=C1Cl)NC(=O)C2=CC=CC=C2)CC(=O)N3CCOCC3.Cl
InChI: 
InChIKey: ZAOHKACVOFGZOI-UHFFFAOYSA-N
RetentionTime: 4.300734
CCS: 
CollisionEnergy: 20-40 eV
InstrumentType: UPLC-QTOF-MS
Comment: PI: Cristina Nerin; Data collector: QiZhi Su, GUIA, University of Zaragoza, Spain; Collision energy: 20-40 V; Instrument: Waters HPLC-QTOF-MS (Xevo G2 QTof); Ionization: ESI; Deconvoluted by MS-DIAL; Column: Waters AtlantisTM premier BEH C18 AX column (2.1 × 100mm x 1.7μm); Flow rate: 0.3mL/min; Mobile phase A and B are water and methnaol, respectively, both with 0.1% formic acid; Gradient elution: from A/B (95/5) to A/B (100/0) in 7min, kept for 4 min, then back to A/B (95/5) in 0.1 min, and maintained for additional 1.9 min (13min in total).; Injection volume: 10 μL
Num peaks: 23
88.07618 13069
88.09446 12922
105.03399 35017
106.03697 2377
140.00597 1469
140.02702 2586
159.11349 91049
160.11613 9641
166.0061 85685
167.00893 11364
168.00323 39431
169.00725 2991
171.09572 1096
226.04018 1343
226.04881 1378
244.05327 105357
245.05658 15195
246.05046 34490
247.054 5852
287.09537 8385
288.09683 1133
289.09396 1318
402.15823 27720
Name: Minocycline?
PrecursorMZ: 458.1932
PrecursorType: [M-HCl+H]+
IonMode: Positive
Formula: C23H28ClN3O7
SMILES: CN(C)C1C2CC3CC4=C(C=CC(=C4C(=C3C(=O)C2(C(=C(C1=O)C(=O)N)O)O)O)O)N(C)C.Cl
InChI: 
InChIKey: WTJXVDPDEQKTCV-VQAITOIOSA-N
RetentionTime: 0.8861667
CCS: 
CollisionEnergy: 20-40 eV
InstrumentType: UPLC-QTOF-MS
Comment: PI: Cristina Nerin; Data collector: QiZhi Su, GUIA, University of Zaragoza, Spain; Collision energy: 20-40 V; Instrument: Waters HPLC-QTOF-MS (Xevo G2 QTof); Ionization: ESI; Deconvoluted by MS-DIAL; Column: Waters AtlantisTM premier BEH C18 AX column (2.1 × 100mm x 1.7μm); Flow rate: 0.3mL/min; Mobile phase A and B are water and methnaol, respectively, both with 0.1% formic acid; Gradient elution: from A/B (95/5) to A/B (100/0) in 7min, kept for 4 min, then back to A/B (95/5) in 0.1 min, and maintained for additional 1.9 min (13min in total).; Injection volume: 10 μL
Num peaks: 308
65.03835 2916
65.04408 2909
68.99606 449
69.00492 446
80.02994 822
80.03577 2776
80.05061 903
81.03848 1305
81.07038 620
84.06012 604
90.0332 685
90.0472 756
92.0341 14492
92.05054 14390
93.02851 503
93.03654 1988
93.04957 2264
93.05561 2133
93.06351 1662
93.06884 1450
93.07408 2488
94.03829 3812
94.05354 4292
94.06641 4517
95.08517 539
97.03853 430
97.04516 430
98.06168 2322
99.05713 617
104.03767 643
104.04922 635
106.05608 1186
106.06721 1164
106.08567 1282
107.06202 745
107.07375 805
108.06969 22538
108.08218 22583
109.05554 2025
109.07162 2381
109.08683 2145
109.10488 424
110.04076 418
110.04813 513
111.04488 461
111.05469 481
112.53708 506
112.54433 586
112.55334 551
118.54118 437
119.0485 454
119.068 419
119.53952 500
119.54951 605
120.04868 5138
120.05569 5113
121.03624 561
121.06381 8903
121.08282 9122
121.54541 486
122.04642 554
122.06118 2402
122.07137 2568
122.09651 2686
123.04826 435
123.06256 756
125.54787 437
125.56184 406
126.04665 1437
126.0562 1418
127.54951 496
127.55861 436
127.56607 404
128.54335 525
128.54791 554
128.55972 630
131.06262 1113
131.07304 1071
132.05186 507
132.08037 697
133.03654 421
133.54179 454
133.54915 646
134.04813 758
134.06374 1330
134.08073 811
135.09341 1238
135.5497 908
135.55855 948
136.07413 1763
136.08411 1814
136.5667 1962
136.57704 1955
137.05951 419
137.07288 1213
137.08398 1166
137.09621 547
140.04619 785
140.05434 773
140.06145 653
141.04457 561
142.56789 554
142.57729 511
143.03839 1440
143.05132 1827
143.05873 2137
143.5462 429
143.5536 465
143.56534 508
145.073 2140
147.08202 2833
148.55484 460
148.56517 489
149.04442 676
149.05576 574
149.06316 421
150.04721 492
150.05838 482
150.0728 588
150.56151 1953
150.57034 1948
150.58052 1866
151.06369 613
151.07947 730
154.04578 1930
154.05396 2866
156.55865 1905
156.57692 2329
156.60048 452
157.06236 1214
157.07335 698
157.08173 793
157.56512 536
157.57578 521
158.06172 547
161.07983 579
162.05312 418
162.06506 536
162.56291 749
162.58182 817
163.05302 907
163.06256 1012
163.08072 1310
164.05733 527
164.06979 1124
164.08147 1007
164.0896 929
164.09712 521
165.07474 654
165.08226 751
165.58244 1995
166.04839 489
166.06479 670
166.07458 992
166.0865 843
167.09547 465
168.55902 461
169.05618 555
170.05464 886
170.06271 793
171.0551 505
171.07404 1284
173.04477 509
173.05109 652
175.05875 516
176.55771 1176
176.57571 1221
177.06366 465
177.07187 505
177.08057 464
181.07486 556
183.09702 822
183.10526 569
186.09196 548
187.06493 1185
188.10077 775
188.10991 747
189.08092 2739
189.10414 775
190.08569 685
191.09033 589
193.07693 400
194.05612 976
194.06781 1208
194.07817 1199
195.0625 848
195.07481 789
195.09416 911
196.06667 2521
196.08252 3539
197.08244 447
197.10085 398
200.06534 799
200.07687 972
201.03496 742
201.04572 772
201.05746 926
201.07121 1570
201.08264 1285
201.10501 560
202.04814 496
202.10188 417
203.09088 598
203.10091 608
204.09108 787
204.10402 689
204.11658 455
210.09273 628
211.09808 13667
212.06857 1163
212.08 1123
212.10551 6585
213.07878 405
213.09355 1413
213.10738 1773
213.57545 2519
214.04869 514
214.07564 963
214.08633 1138
215.04205 1820
215.05936 1896
216.06596 626
216.1066 412
217.07069 796
217.09807 533
221.07901 968
221.08676 958
222.08954 562
222.09943 570
223.1019 645
224.07083 409
227.05217 536
227.06482 472
227.09393 525
228.12633 2992
229.06525 728
229.07607 782
229.10089 407
229.1284 657
229.14552 432
230.07979 1360
231.10019 412
235.12033 403
238.08191 415
239.12154 1010
240.06247 709
240.0755 816
240.09317 432
240.10925 450
241.07162 474
241.08188 456
243.08308 402
252.10722 688
252.12886 2855
252.14401 1084
255.04697 478
255.09036 509
257.0899 710
257.10739 669
258.10226 566
258.12 566
262.11679 472
266.13937 1365
269.09784 481
269.10861 584
270.09708 568
273.10147 1178
276.16028 467
283.08203 2144
283.09799 2190
284.0932 437
285.09387 848
285.10596 838
295.17621 649
295.19351 639
296.16544 480
298.10977 1410
300.1214 951
300.13596 911
309.08939 549
309.10168 554
324.11798 782
325.05286 718
325.06854 809
337.09366 3683
338.09909 909
338.11575 951
340.10736 397
352.11935 8227
353.08954 985
353.11951 1567
365.08881 469
367.1691 825
368.11829 487
380.12625 518
380.14328 415
395.15887 1415
396.09445 468
396.10947 884
408.12851 502
423.15762 2724
424.15387 552
424.17303 538
441.16498 39636
442.16876 9895
443.15625 1375
443.17447 1744
458.19122 8922
Name: Quinine hydrochloride
PrecursorMZ: 325.1922
PrecursorType: [M-HCl+H]+
IonMode: Positive
Formula: C20H25ClN2O2
SMILES: COC1=CC2=C(C=CN=C2C=C1)C(C3CC4CCN3CC4C=C)O.Cl
InChI: 
InChIKey: LBSFSRMTJJPTCW-DSXUQNDKSA-N
RetentionTime: 0.8975833
CCS: 
CollisionEnergy: 20-40 eV
InstrumentType: UPLC-QTOF-MS
Comment: PI: Cristina Nerin; Data collector: QiZhi Su, GUIA, University of Zaragoza, Spain; Collision energy: 20-40 V; Instrument: Waters HPLC-QTOF-MS (Xevo G2 QTof); Ionization: ESI; Deconvoluted by MS-DIAL; Column: Waters AtlantisTM premier BEH C18 AX column (2.1 × 100mm x 1.7μm); Flow rate: 0.3mL/min; Mobile phase A and B are water and methnaol, respectively, both with 0.1% formic acid; Gradient elution: from A/B (95/5) to A/B (100/0) in 7min, kept for 4 min, then back to A/B (95/5) in 0.1 min, and maintained for additional 1.9 min (13min in total).; Injection volume: 10 μL
Num peaks: 93
67.03957 5541
67.05521 5537
79.05498 7435
79.07469 6318
80.03782 7311
80.05011 7526
80.06194 7573
81.05567 14036
81.07046 13440
82.06528 9692
82.07059 9656
91.03488 2857
91.04277 4215
91.05465 4215
93.07106 1950
94.05245 1980
94.06152 1839
94.06808 1819
94.08211 2369
95.07182 1636
106.04747 2398
107.06204 4256
107.0741 4611
108.04948 2358
109.08444 1962
110.07803 4905
110.09587 5014
110.10291 4971
110.11161 4978
117.05846 13193
118.05457 4711
118.06474 4495
118.08283 4612
122.09143 2645
122.09879 2084
130.0647 3355
130.08067 3584
134.09695 2937
135.04878 2030
135.06653 1998
135.07848 2152
136.11198 2224
145.05331 7457
146.06009 13016
147.05063 3244
147.06691 3319
147.07645 3229
158.0611 6837
159.06813 11251
160.07611 50502
161.07979 5373
161.089 5500
162.08136 1623
166.12445 2610
169.06393 1657
172.07588 13218
173.08261 7327
174.05571 23912
174.09125 3958
175.05493 2013
175.06261 1947
183.08392 2333
184.07697 16483
185.08026 2993
186.09267 7954
188.07275 18333
189.0807 14046
189.11185 3334
190.07948 4253
190.0896 4607
198.09216 9021
199.07684 2250
199.09334 4143
199.11357 1663
202.08781 1793
210.09171 3277
224.10437 2242
226.10037 1945
226.112 3339
226.12579 3231
227.11829 2936
227.13072 2758
251.11996 3309
252.12848 2720
253.13365 9343
254.1409 2432
264.13989 3664
265.13724 2182
278.16324 1622
279.15134 4721
307.18088 19264
308.18503 4018
325.19138 158594
Name: Sulfacetamide sodium
PrecursorMZ: 215.0486
PrecursorType: [M-Na+2H]+
IonMode: Positive
Formula: C8H9N2O3S
SMILES: CC(=O)[N-]S(=O)(=O)C1=CC=C(C=C1)N.[Na+]
InChI: 
InChIKey: PQMSFAORUFMASU-UHFFFAOYSA-M
RetentionTime: 2.49805
CCS: 
CollisionEnergy: 20-40 eV
InstrumentType: UPLC-QTOF-MS
Comment: PI: Cristina Nerin; Data collector: QiZhi Su, GUIA, University of Zaragoza, Spain; Collision energy: 20-40 V; Instrument: Waters HPLC-QTOF-MS (Xevo G2 QTof); Ionization: ESI; Deconvoluted by MS-DIAL; Column: Waters AtlantisTM premier BEH C18 AX column (2.1 × 100mm x 1.7μm); Flow rate: 0.3mL/min; Mobile phase A and B are water and methnaol, respectively, both with 0.1% formic acid; Gradient elution: from A/B (95/5) to A/B (100/0) in 7min, kept for 4 min, then back to A/B (95/5) in 0.1 min, and maintained for additional 1.9 min (13min in total).; Injection volume: 10 μL
Num peaks: 20
65.03923 6915
65.054 7113
92.04987 1128
93.05492 973
93.07069 1180
97.99162 254
108.04444 19147
109.04488 508
110.05208 260
110.0636 246
156.01234 351
157.00365 479
157.01315 471
158.00427 329
158.01657 332
184.09445 266
184.10487 287
210.97537 243
213.01883 246
215.04622 345
Name: Resazurin
PrecursorMZ: 252.0285
PrecursorType: [M+H]+
IonMode: Positive
Formula: C12H6NO4
SMILES: C1=CC2=C(C=C1[O-])OC3=CC(=O)C=CC3=[N+]2[O-].[Na+]
InChI: 
InChIKey: IVGPGQSSDLDOLH-UHFFFAOYSA-M
RetentionTime: 5.8136
CCS: 
CollisionEnergy: 20-40 eV
InstrumentType: UPLC-QTOF-MS
Comment: PI: Cristina Nerin; Data collector: QiZhi Su, GUIA, University of Zaragoza, Spain; Collision energy: 20-40 V; Instrument: Waters HPLC-QTOF-MS (Xevo G2 QTof); Ionization: ESI; Deconvoluted by MS-DIAL; Column: Waters AtlantisTM premier BEH C18 AX column (2.1 × 100mm x 1.7μm); Flow rate: 0.3mL/min; Mobile phase A and B are water and methnaol, respectively, both with 0.1% formic acid; Gradient elution: from A/B (95/5) to A/B (100/0) in 7min, kept for 4 min, then back to A/B (95/5) in 0.1 min, and maintained for additional 1.9 min (13min in total).; Injection volume: 10 μL
Num peaks: 48
77.03844 7408
78.03443 5715
80.04987 2806
81.03404 9894
91.05505 3288
103.05474 10053
104.05064 4783
105.03441 2681
108.04522 18088
109.02767 3415
109.05273 155275
110.05626 11586
113.00307 3262
117.05836 3200
118.06539 4393
128.05067 2893
129.05762 2256
130.06552 5453
132.04422 8041
139.99092 2337
144.04535 2221
146.06039 4245
148.04074 2256
157.05321 2682
158.05954 2351
160.04056 10490
160.9917 8170
170.0605 10454
174.05617 4797
175.96751 16565
176.97441 21087
177.96611 12007
178.97215 13116
185.04692 7511
186.05571 5664
188.03444 3308
204.01877 3750
204.02878 3086
205.02713 3805
206.02138 2277
213.0414 3373
214.05045 45949
215.05453 5265
230.04555 220437
231.04892 30004
232.0518 3117
235.04054 11748
237.03519 2923
Name: Resazurin
PrecursorMZ: 230.0463
PrecursorType: [M-Na+2H]+
IonMode: Positive
Formula: C12H6NO4
SMILES: C1=CC2=C(C=C1[O-])OC3=CC(=O)C=CC3=[N+]2[O-].[Na+]
InChI: 
InChIKey: IVGPGQSSDLDOLH-UHFFFAOYSA-M
RetentionTime: 5.855467
CCS: 
CollisionEnergy: 20-40 eV
InstrumentType: UPLC-QTOF-MS
Comment: PI: Cristina Nerin; Data collector: QiZhi Su, GUIA, University of Zaragoza, Spain; Collision energy: 20-40 V; Instrument: Waters HPLC-QTOF-MS (Xevo G2 QTof); Ionization: ESI; Deconvoluted by MS-DIAL; Column: Waters AtlantisTM premier BEH C18 AX column (2.1 × 100mm x 1.7μm); Flow rate: 0.3mL/min; Mobile phase A and B are water and methnaol, respectively, both with 0.1% formic acid; Gradient elution: from A/B (95/5) to A/B (100/0) in 7min, kept for 4 min, then back to A/B (95/5) in 0.1 min, and maintained for additional 1.9 min (13min in total).; Injection volume: 10 μL
Num peaks: 40
77.03987 6449
78.03494 4301
78.05122 4074
81.01778 10923
81.03434 10849
91.03698 5870
91.05592 5828
103.03786 6979
103.05492 6857
104.05062 5202
104.06032 5179
104.07028 3986
108.04536 11893
109.02752 4457
109.05273 115783
110.05583 6954
117.05883 4111
118.04714 7047
118.06297 5235
118.06993 5122
128.05042 3587
132.04523 9876
146.06117 5349
148.04025 3413
160.04051 13467
168.04565 3141
170.06081 7493
174.05707 6018
175.96695 11459
176.97479 14091
177.96553 7610
177.98347 8040
178.97221 9225
185.04756 10287
188.0338 3777
204.02315 3416
205.02753 3210
205.03639 3223
213.04269 6287
230.04593 295368
Name: Sulfacetamide sodium
PrecursorMZ: 215.0493
PrecursorType: [M-Na+2H]+
IonMode: Positive
Formula: C8H9N2O3S
SMILES: CC(=O)[N-]S(=O)(=O)C1=CC=C(C=C1)N.[Na+]
InChI: 
InChIKey: PQMSFAORUFMASU-UHFFFAOYSA-M
RetentionTime: 1.05795
CCS: 
CollisionEnergy: 20-40 eV
InstrumentType: UPLC-QTOF-MS
Comment: PI: Cristina Nerin; Data collector: QiZhi Su, GUIA, University of Zaragoza, Spain; Collision energy: 20-40 V; Instrument: Waters HPLC-QTOF-MS (Xevo G2 QTof); Ionization: ESI; Deconvoluted by MS-DIAL; Column: Waters AtlantisTM premier BEH C18 AX column (2.1 × 100mm x 1.7μm); Flow rate: 0.3mL/min; Mobile phase A and B are water and methnaol, respectively, both with 0.1% formic acid; Gradient elution: from A/B (95/5) to A/B (100/0) in 7min, kept for 4 min, then back to A/B (95/5) in 0.1 min, and maintained for additional 1.9 min (13min in total).; Injection volume: 10 μL
Num peaks: 23
65.03933 11398
66.02896 821
66.03281 928
66.0406 928
66.04874 934
80.04928 2173
89.05934 649
89.06425 649
92.0503 37788
93.04129 2295
93.05447 2338
93.07009 2376
97.9917 435
97.99811 454
108.04536 22307
109.03158 1507
109.04918 1436
156.01193 8005
157.01517 451
210.98271 452
210.99565 479
215.04144 530
215.05713 488
Name: Pyridoxine hydrochloride
PrecursorMZ: 170.0824
PrecursorType: [M-Cl]+
IonMode: Positive
Formula: C8H12ClNO3
SMILES: CC1=NC=C(C(=C1O)CO)CO.Cl
InChI: 
InChIKey: ZUFQODAHGAHPFQ-UHFFFAOYSA-N
RetentionTime: 0.6273333
CCS: 
CollisionEnergy: 20-40 eV
InstrumentType: UPLC-QTOF-MS
Comment: PI: Cristina Nerin; Data collector: QiZhi Su, GUIA, University of Zaragoza, Spain; Collision energy: 20-40 V; Instrument: Waters HPLC-QTOF-MS (Xevo G2 QTof); Ionization: ESI; Deconvoluted by MS-DIAL; Column: Waters AtlantisTM premier BEH C18 AX column (2.1 × 100mm x 1.7μm); Flow rate: 0.3mL/min; Mobile phase A and B are water and methnaol, respectively, both with 0.1% formic acid; Gradient elution: from A/B (95/5) to A/B (100/0) in 7min, kept for 4 min, then back to A/B (95/5) in 0.1 min, and maintained for additional 1.9 min (13min in total).; Injection volume: 10 μL
Num peaks: 21
65.03927 1410
77.03952 6342
79.03926 8339
79.05546 8146
80.0507 2373
80.06133 2359
81.04237 2591
81.05791 2516
96.06431 2774
96.08244 2653
96.10026 3144
106.05009 7284
106.06673 7704
123.06783 1537
123.08623 1748
124.07641 8039
134.06099 129264
135.06471 10984
152.07173 31329
153.07462 1598
153.08267 2791
Name: Chlorpromazine hydrochloride
PrecursorMZ: 319.1037
PrecursorType: [M+H]+
IonMode: Positive
Formula: C17H20Cl2N2S
SMILES: CN(C)CCCN1C2=CC=CC=C2SC3=C1C=C(C=C3)Cl.Cl
InChI: 
InChIKey: FBSMERQALIEGJT-UHFFFAOYSA-N
RetentionTime: 4.45305
CCS: 
CollisionEnergy: 20-40 eV
InstrumentType: UPLC-QTOF-MS
Comment: PI: Cristina Nerin; Data collector: QiZhi Su, GUIA, University of Zaragoza, Spain; Collision energy: 20-40 V; Instrument: Waters HPLC-QTOF-MS (Xevo G2 QTof); Ionization: ESI; Deconvoluted by MS-DIAL; Column: Waters AtlantisTM premier BEH C18 AX column (2.1 × 100mm x 1.7μm); Flow rate: 0.3mL/min; Mobile phase A and B are water and methnaol, respectively, both with 0.1% formic acid; Gradient elution: from A/B (95/5) to A/B (100/0) in 7min, kept for 4 min, then back to A/B (95/5) in 0.1 min, and maintained for additional 1.9 min (13min in total).; Injection volume: 10 μL
Num peaks: 16
58.06594 26591
58.07975 26601
86.09693 256128
86.11501 256152
87.10004 13350
87.11969 14978
211.04599 4961
214.0421 13460
216.04007 4456
233.00676 3086
239.07678 16023
240.07716 2737
246.01454 18932
248.0123 6557
274.04257 3444
319.10254 25568
Name: Chlorpromazine hydrochloride
PrecursorMZ: 319.1041
PrecursorType: [M+H]+
IonMode: Positive
Formula: C17H20Cl2N2S
SMILES: CN(C)CCCN1C2=CC=CC=C2SC3=C1C=C(C=C3)Cl.Cl
InChI: 
InChIKey: FBSMERQALIEGJT-UHFFFAOYSA-N
RetentionTime: 4.689567
CCS: 
CollisionEnergy: 20-40 eV
InstrumentType: UPLC-QTOF-MS
Comment: PI: Cristina Nerin; Data collector: QiZhi Su, GUIA, University of Zaragoza, Spain; Collision energy: 20-40 V; Instrument: Waters HPLC-QTOF-MS (Xevo G2 QTof); Ionization: ESI; Deconvoluted by MS-DIAL; Column: Waters AtlantisTM premier BEH C18 AX column (2.1 × 100mm x 1.7μm); Flow rate: 0.3mL/min; Mobile phase A and B are water and methnaol, respectively, both with 0.1% formic acid; Gradient elution: from A/B (95/5) to A/B (100/0) in 7min, kept for 4 min, then back to A/B (95/5) in 0.1 min, and maintained for additional 1.9 min (13min in total).; Injection volume: 10 μL
Num peaks: 14
58.06578 43927
58.08136 43949
86.08259 425461
86.09682 425676
87.09989 22314
214.04219 20401
233.00722 4722
239.07625 26121
240.06067 4280
246.01413 28720
247.0164 4425
248.01138 7205
274.04529 5734
319.10257 30463
Name: Rhodamine B
PrecursorMZ: 443.236
PrecursorType: [M-Cl]+
IonMode: Positive
Formula: C28H31ClN2O3
SMILES: CCN(CC)C1=CC2=C(C=C1)C(=C3C=CC(=[N+](CC)CC)C=C3O2)C4=CC=CC=C4C(=O)O.[Cl-]
InChI: 
InChIKey: PYWVYCXTNDRMGF-UHFFFAOYSA-N
RetentionTime: 5.569567
CCS: 
CollisionEnergy: 20-40 eV
InstrumentType: UPLC-QTOF-MS
Comment: PI: Cristina Nerin; Data collector: QiZhi Su, GUIA, University of Zaragoza, Spain; Collision energy: 20-40 V; Instrument: Waters HPLC-QTOF-MS (Xevo G2 QTof); Ionization: ESI; Deconvoluted by MS-DIAL; Column: Waters AtlantisTM premier BEH C18 AX column (2.1 × 100mm x 1.7μm); Flow rate: 0.3mL/min; Mobile phase A and B are water and methnaol, respectively, both with 0.1% formic acid; Gradient elution: from A/B (95/5) to A/B (100/0) in 7min, kept for 4 min, then back to A/B (95/5) in 0.1 min, and maintained for additional 1.9 min (13min in total).; Injection volume: 10 μL
Num peaks: 9
399.17044 178238
400.17349 57329
413.18567 29120
443.23492 2514852
443.34393 47394
443.44415 110036
443.56558 46582
443.62653 40232
443.72952 25575
Name: Avobenzone
PrecursorMZ: 643.3052
PrecursorType: [2M+Na]+
IonMode: Positive
Formula: C20H22O3
SMILES: CC(C)(C)C1=CC=C(C=C1)C(=O)CC(=O)C2=CC=C(C=C2)OC
InChI: 
InChIKey: XNEFYCZVKIDDMS-UHFFFAOYSA-N
RetentionTime: 8.059825
CCS: 
CollisionEnergy: 20-40 eV
InstrumentType: UPLC-QTOF-MS
Comment: PI: Cristina Nerin; Data collector: QiZhi Su, GUIA, University of Zaragoza, Spain; Collision energy: 20-40 V; Instrument: Waters HPLC-QTOF-MS (Xevo G2 QTof); Ionization: ESI; Deconvoluted by MS-DIAL; Column: Waters AtlantisTM premier BEH C18 AX column (2.1 × 100mm x 1.7μm); Flow rate: 0.3mL/min; Mobile phase A and B are water and methnaol, respectively, both with 0.1% formic acid; Gradient elution: from A/B (95/5) to A/B (100/0) in 7min, kept for 4 min, then back to A/B (95/5) in 0.1 min, and maintained for additional 1.9 min (13min in total).; Injection volume: 10 μL
Num peaks: 87
69.06965 1334
73.04613 49960
74.04544 1869
74.05215 1199
75.04452 1212
77.03848 3397
81.06934 1832
83.08521 1264
89.06017 2588
91.05363 3071
92.02548 1255
95.08595 2440
105.07021 3488
107.04877 3532
109.06507 1352
109.10172 1654
118.0789 1617
133.05171 2107
133.0853 1970
133.10312 1513
135.04337 105638
136.04762 6967
146.07198 5139
147.06514 26048
148.06627 3023
149.04372 2312
161.0954 113418
162.09897 11190
163.06039 2831
177.05403 4094
191.00327 2400
207.03253 14555
207.06392 1442
207.07484 1394
208.03142 2502
209.03149 1390
219.01715 1232
221.08405 1251
223.06581 3490
237.08032 10066
238.07951 1571
242.0372 1332
248.9861 1968
250.96935 1755
258.05121 3213
258.55136 1478
265.01978 3264
267.00003 11596
267.99994 2421
268.99573 1327
279.04904 1683
281.05005 27285
282.05096 5649
283.04858 3363
293.03873 3010
295.05914 1582
311.16412 9589
324.98352 5529
326.97107 4833
330.13608 19510
330.63904 8304
331.1438 1953
333.14511 5821
341.01657 29444
342.01776 6674
343.01416 4060
349.11041 14606
350.1149 2767
355.06821 3990
367.05157 2515
367.0632 1475
485.21698 1950
487.35822 1949
499.12527 9434
500.12927 4476
501.12363 1969
515.09314 4393
516.09039 1531
559.13202 2765
560.13287 1317
573.13519 3373
573.16022 3372
574.15033 2846
575.41931 1347
589.10669 1140
607.41711 3290
619.43134 1278
Name: Octocrylene
PrecursorMZ: 745.3992
PrecursorType: [2M+Na]+
IonMode: Positive
Formula: C24H27NO2
SMILES: CCCCC(CC)COC(=O)C(=C(C1=CC=CC=C1)C2=CC=CC=C2)C#N
InChI: 
InChIKey: FMJSMJQBSVNSBF-UHFFFAOYSA-N
RetentionTime: 7.913213
CCS: 
CollisionEnergy: 20-40 eV
InstrumentType: UPLC-QTOF-MS
Comment: PI: Cristina Nerin; Data collector: QiZhi Su, GUIA, University of Zaragoza, Spain; Collision energy: 20-40 V; Instrument: Waters HPLC-QTOF-MS (Xevo G2 QTof); Ionization: ESI; Deconvoluted by MS-DIAL; Column: Waters AtlantisTM premier BEH C18 AX column (2.1 × 100mm x 1.7μm); Flow rate: 0.3mL/min; Mobile phase A and B are water and methnaol, respectively, both with 0.1% formic acid; Gradient elution: from A/B (95/5) to A/B (100/0) in 7min, kept for 4 min, then back to A/B (95/5) in 0.1 min, and maintained for additional 1.9 min (13min in total).; Injection volume: 10 μL
Num peaks: 62
71.08498 5779
77.03814 12324
104.04974 8635
105.03304 80924
106.02129 3739
106.03697 4048
128.05002 2776
129.02818 2907
129.03474 2940
129.04187 3225
151.05403 12905
152.05949 2492
157.0271 2448
161.09637 2959
176.06197 60434
177.0692 81149
178.07433 25665
179.07787 3361
179.08792 3193
202.06583 5894
203.07286 86283
204.08032 134382
205.08397 19289
206.09598 9816
232.07571 162179
233.07864 27230
234.06931 1876
234.08382 1944
244.04393 13295
250.08685 20716
251.09038 2481
251.10995 2871
258.03992 1952
258.05234 2063
269.06003 66485
269.56143 20478
270.06195 4652
271.0553 3812
272.06671 2789
288.03415 4132
299.59918 2522
325.11554 1942
325.12875 1937
384.19287 84460
385.19601 16899
386.19589 1643
393.59802 33926
394.09903 17627
394.60016 4721
449.13358 17174
449.66064 16758
450.15985 12131
450.66284 2736
505.72253 14619
506.22369 9310
506.72278 3595
506.74023 3456
537.11395 7994
561.784 15456
562.28839 11827
562.79041 4448
562.80945 2517
Name: Octocrylene
PrecursorMZ: 761.3788
PrecursorType: [2M+K]+
IonMode: Positive
Formula: C24H27NO2
SMILES: CCCCC(CC)COC(=O)C(=C(C1=CC=CC=C1)C2=CC=CC=C2)C#N
InChI: 
InChIKey: FMJSMJQBSVNSBF-UHFFFAOYSA-N
RetentionTime: 7.905766
CCS: 
CollisionEnergy: 20-40 eV
InstrumentType: UPLC-QTOF-MS
Comment: PI: Cristina Nerin; Data collector: QiZhi Su, GUIA, University of Zaragoza, Spain; Collision energy: 20-40 V; Instrument: Waters HPLC-QTOF-MS (Xevo G2 QTof); Ionization: ESI; Deconvoluted by MS-DIAL; Column: Waters AtlantisTM premier BEH C18 AX column (2.1 × 100mm x 1.7μm); Flow rate: 0.3mL/min; Mobile phase A and B are water and methnaol, respectively, both with 0.1% formic acid; Gradient elution: from A/B (95/5) to A/B (100/0) in 7min, kept for 4 min, then back to A/B (95/5) in 0.1 min, and maintained for additional 1.9 min (13min in total).; Injection volume: 10 μL
Num peaks: 534
57.07025 394
61.07817 127
65.96392 567
65.97227 566
68.9986 625
69.06944 163
69.0808 163
71.03616 115
71.04808 116
71.05703 101
77.03833 3614
78.04154 350
79.05363 233
81.06989 575
83.08403 434
83.09074 435
85.01365 90
85.03645 118
85.09572 82
85.10271 94
87.04045 102
87.06007 80
89.06511 296
91.04357 275
91.05335 275
91.0626 275
93.07032 263
94.06994 104
94.07531 107
95.04729 173
95.05283 178
95.08512 567
97.06482 201
97.07738 219
97.09267 337
97.10226 352
99.04115 79
99.04581 122
102.03336 124
102.04391 126
103.04317 195
103.05576 208
103.07077 135
103.07677 117
104.0316 333
104.04931 275
104.10938 83
105.03291 4879
105.05508 537
105.06213 512
105.07146 530
106.056 328
106.06721 96
106.07367 97
107.02853 297
107.0435 330
107.05045 363
107.06075 302
107.08309 263
107.09062 247
108.05502 101
109.06884 143
109.1017 666
109.10767 660
111.06798 166
111.07933 152
111.08756 164
111.11752 100
113.05611 124
113.06394 112
115.03916 95
115.04821 129
115.05459 85
116.04624 84
116.05166 118
116.06993 106
117.05959 118
117.06948 102
119.08527 274
121.07661 199
121.09801 507
121.10687 489
123.08263 162
123.11482 216
123.12567 227
125.0798 153
125.09459 160
126.03802 85
127.0608 129
129.07257 185
130.05156 202
131.04214 105
131.08414 98
131.09123 112
133.08461 346
133.09863 448
135.08536 162
135.09384 88
135.10912 183
135.11835 156
137.0524 82
137.07173 79
137.09541 118
137.10788 90
139.03963 178
139.05367 139
139.11734 87
139.13521 91
144.51764 91
144.5244 91
145.091 89
145.10361 131
146.07434 161
147.04218 438
147.11328 155
147.12202 190
149.01089 88
149.01994 214
149.09677 83
149.10547 97
149.1322 100
149.14876 79
151.10548 104
151.1165 145
151.12694 143
153.06412 245
153.06999 318
153.08435 229
153.09492 105
154.07117 88
154.07822 92
155.00891 101
155.01965 139
157.02872 140
157.08337 136
157.09645 117
159.10054 153
159.11919 191
159.12541 193
161.1317 161
161.13838 154
162.09128 318
162.10327 318
163.10852 79
163.1198 93
163.14418 126
163.15604 125
164.06126 225
164.08209 300
165.07091 144
165.09459 227
165.12051 138
165.12852 152
165.14 188
166.07195 112
166.0815 107
167.09335 108
174.07674 111
175.05511 772
175.15141 87
176.06194 4369
177.0692 7785
177.11006 123
177.12325 119
177.13524 155
177.16379 85
177.17288 88
178.07526 2414
178.1183 85
179.05949 166
179.08272 298
179.11826 126
179.13417 97
180.07065 100
181.15286 101
181.1622 99
182.07205 80
184.07501 131
184.08629 121
189.0443 241
189.0694 174
189.16748 110
191.10197 93
191.12402 102
193.08171 120
194.04643 85
195.12537 111
195.14412 96
197.05098 85
197.06558 123
197.07899 128
198.10411 140
199.052 79
199.12276 91
201.0575 209
201.14064 113
201.1524 211
201.16402 125
201.17424 125
202.06544 409
203.0731 5931
203.10786 157
203.11998 196
204.08057 2968
205.08423 699
207.07222 1016
208.06374 240
208.07968 208
208.54463 115
208.56709 87
209.07277 112
209.11008 90
209.11958 122
209.13284 99
209.53918 89
211.1376 93
213.1187 90
213.12596 102
216.12564 124
216.13857 98
217.14127 110
217.15846 103
217.18788 130
217.20198 103
218.10478 87
219.05232 162
219.06728 155
220.03896 97
221.03828 223
221.05783 208
223.09766 124
223.20311 105
223.21278 122
224.12253 116
224.14656 84
225.13858 81
227.12379 132
228.05032 155
228.06136 130
228.07903 78
228.08867 82
228.53824 149
228.5538 140
230.0896 123
231.06883 96
233.07942 197
233.14565 137
234.07849 124
234.08784 150
234.138 122
235.07477 242
235.17418 107
238.15402 131
239.0728 126
239.09808 175
239.11336 128
239.13474 109
239.20203 81
241.08759 183
242.06311 236
243.61035 142
244.58009 211
246.06865 315
247.5591 189
249.11133 122
249.12413 135
250.04062 540
250.08676 595
250.5265 327
250.53758 368
250.54929 271
250.59216 116
250.60265 164
250.61676 122
251.01709 243
251.04063 1323
251.54092 441
251.55588 372
252.03729 198
252.04971 238
252.06337 115
252.10046 406
252.54111 82
253.08835 106
253.15807 78
253.61595 190
254.10925 102
255.07478 164
255.09134 316
255.12656 140
257.0741 115
257.60254 124
258.03961 2665
258.0574 2702
258.54959 1311
258.57187 258
259.03214 280
259.05307 902
259.08676 109
259.10431 90
259.11975 84
259.54147 164
259.55136 195
260.04123 117
260.06009 123
260.55505 135
260.56961 102
262.06091 1093
263.06821 128
263.16672 91
265.18723 91
265.21796 79
267.0795 103
267.11322 80
268.58429 87
271.11194 101
271.12723 111
271.55066 240
272.06918 214
273.56439 112
277.05215 131
277.07343 108
277.15546 88
277.60037 197
277.61548 192
277.63394 118
278.09589 154
278.63208 194
278.64981 173
279.60236 235
280.58621 93
280.61011 161
281.1384 142
282.1377 95
283.26248 81
285.08499 107
285.17627 86
285.63806 163
287.11331 110
289.16187 83
290.08932 172
293.06851 111
293.18393 100
293.61835 313
293.63617 409
294.62003 233
294.63486 365
294.65997 177
295.19812 93
295.65051 135
296.16876 154
300.64737 309
302.65204 125
307.14243 175
307.15466 121
308.6188 213
308.65115 275
309.14807 81
309.1665 195
309.18344 194
309.64423 244
310.17758 85
311.2056 79
313.09317 115
313.63898 83
313.67044 110
315.15503 118
315.6232 142
315.63724 164
316.13986 172
317.12411 124
318.64389 106
321.13739 90
321.18231 176
321.21896 84
321.24231 111
321.25232 81
321.64462 275
321.66055 285
322.64102 199
323.12582 85
323.21365 89
323.22507 80
323.65445 284
324.01968 83
324.16495 137
325.98834 138
326.00143 252
329.63565 170
329.65939 315
329.67618 208
333.68646 94
334.13501 79
334.16608 104
335.17374 97
335.66287 151
336.62579 95
337.22113 109
337.24374 100
337.67743 115
339.18369 81
346.06982 129
350.19028 95
350.69571 112
351.67413 113
355.21866 113
355.23502 116
356.68182 117
363.71503 121
364.18884 92
364.20328 98
365.19931 102
365.21927 107
367.10193 91
371.22147 79
372.69919 107
372.71649 100
373.18347 79
373.21063 121
377.17853 118
377.19427 104
379.24139 164
383.21567 207
384.19324 1935
385.19666 944
385.59875 107
386.12967 94
386.19955 203
392.22971 90
393.1691 92
393.19901 132
393.23526 85
394.59827 139
394.6123 271
395.24255 102
395.26285 78
399.2467 134
401.00848 92
402.09219 337
403.57986 102
409.20569 91
409.22525 166
409.27408 98
413.07922 79
415.29987 121
419.29047 186
419.30344 89
421.17725 80
421.31219 117
423.14432 154
423.23132 178
429.10345 145
429.31308 197
433.25943 81
434.15237 240
435.27652 99
437.19571 83
439.27249 80
441.67914 107
442.19122 111
445.26611 79
446.147 138
447.10855 126
447.30942 98
447.33295 88
449.13239 931
450.13531 1764
451.15704 98
451.6467 116
453.06039 371
458.15244 88
460.19052 131
460.20813 88
462.13818 111
466.11639 109
467.10309 90
467.15414 103
473.34241 95
475.33469 82
475.35303 101
477.33008 92
479.29227 107
481.17953 95
483.29184 83
494.11487 125
494.13474 385
497.73264 96
498.1297 89
498.76389 94
500.16409 85
504.0538 132
504.09528 93
507.20541 151
507.24057 184
508.2106 173
519.08966 198
519.10883 96
519.19531 89
521.349 111
522.1347 108
522.15399 147
523.13635 122
535.35242 109
553.3175 256
553.79688 388
553.82947 117
554.30286 120
554.80078 107
555.14929 97
561.10901 100
562.79071 106
563.35541 90
570.78571 186
571.27228 114
571.29059 203
601.38031 81
605.23016 159
605.28784 102
606.26752 487
606.44745 124
607.42773 184
608.43262 92
621.38391 122
622.38025 83
634.28259 120
639.39948 84
649.44586 271
650.43591 107
665.41833 102
672.5871 79
693.45148 88
693.47864 113
709.15344 154
709.47345 141
Name: N-methylpiperidine
PrecursorMZ: 100.1121
PrecursorType: [M+H]+
IonMode: Positive
Formula: C6H13N
SMILES: CN1CCCCC1
InChI: 
InChIKey: PAMIQIKDUOTOBW-UHFFFAOYSA-N
RetentionTime: 0.56407
CCS: 
CollisionEnergy: 20-40 eV
InstrumentType: UPLC-QTOF-MS
Comment: PI: Cristina Nerin; Data collector: QiZhi Su, GUIA, University of Zaragoza, Spain; Collision energy: 20-40 V; Instrument: Waters HPLC-QTOF-MS (Xevo G2 QTof); Ionization: ESI; Deconvoluted by MS-DIAL; Column: Waters AtlantisTM premier BEH C18 AX column (2.1 × 100mm x 1.7μm); Flow rate: 0.3mL/min; Mobile phase A and B are water and methnaol, respectively, both with 0.1% formic acid; Gradient elution: from A/B (95/5) to A/B (100/0) in 7min, kept for 4 min, then back to A/B (95/5) in 0.1 min, and maintained for additional 1.9 min (13min in total).; Injection volume: 10 μL
Num peaks: 19
56.04675 47
61.00815 69
66.98952 54
70.06287 181
70.06866 103
72.07393 91
72.08324 70
73.04279 47
80.27927 43
81.0725 65
83.0805 82
84.95673 143
88.07846 63
98.09415 45
98.9624 73
100.07636 4227
100.10662 156
100.11351 323
100.12108 124
Name: 3-(Trimethoxysilyl)propyl methacrylate
PrecursorMZ: 271.0979
PrecursorType: [M+Na]+
IonMode: Positive
Formula: C10H20O5Si
SMILES: CC(=C)C(=O)OCCC[Si](OC)(OC)OC
InChI: 
InChIKey: XDLMVUHYZWKMMD-UHFFFAOYSA-N
RetentionTime: 6.295667
CCS: 
CollisionEnergy: 20-40 eV
InstrumentType: UPLC-QTOF-MS
Comment: PI: Cristina Nerin; Data collector: QiZhi Su, GUIA, University of Zaragoza, Spain; Collision energy: 20-40 V; Instrument: Waters HPLC-QTOF-MS (Xevo G2 QTof); Ionization: ESI; Deconvoluted by MS-DIAL; Column: Waters AtlantisTM premier BEH C18 AX column (2.1 × 100mm x 1.7μm); Flow rate: 0.3mL/min; Mobile phase A and B are water and methnaol, respectively, both with 0.1% formic acid; Gradient elution: from A/B (95/5) to A/B (100/0) in 7min, kept for 4 min, then back to A/B (95/5) in 0.1 min, and maintained for additional 1.9 min (13min in total).; Injection volume: 10 μL
Num peaks: 97
61.00949 320
61.01441 327
69.03339 7292
70.03168 245
70.03774 249
73.04759 555
75.02289 415
75.03096 417
75.04552 217
76.99885 434
77.00471 448
77.01373 485
77.02085 408
79.00041 148
80.99941 205
81.00576 211
91.02129 6262
92.02395 399
92.99484 214
93.00047 332
93.01201 384
93.02303 222
93.03426 197
105.03763 1273
107.01015 798
107.0175 832
107.03526 609
109.01201 160
109.02022 180
109.03156 220
109.0394 199
114.94741 155
114.9567 150
117.02148 457
117.03728 482
117.0588 175
118.99231 153
119.00249 164
121.03124 14101
122.02934 1021
122.03667 1019
122.04398 1017
123.01108 244
123.01866 464
123.02956 535
123.03592 564
123.04544 538
124.99226 3016
125.01766 237
126.99249 157
130.98253 455
131.05208 1653
132.05368 176
132.06302 172
133.00966 162
133.01918 247
133.02673 266
133.03516 320
133.04565 182
139.03275 1019
139.04465 1047
145.03572 150
147.03603 384
147.04689 405
147.05347 377
156.99654 159
157.00754 145
161.01102 507
161.02422 642
161.03654 629
164.97025 144
164.98439 182
175.04379 2848
176.03021 240
176.04555 283
191.00104 2736
191.01379 2682
192.00322 449
192.98441 335
192.99699 373
193.01068 364
193.01909 218
207.03 3443
207.03954 3444
208.03265 817
208.05135 751
209.00833 177
209.03073 455
209.04276 292
219.02638 163
219.03828 221
219.0535 152
230.99666 328
231.00966 304
247.03252 171
262.9921 291
263.00357 276
Name: 3-(Trimethoxysilyl)propyl methacrylate
PrecursorMZ: 287.075
PrecursorType: [M+K]+
IonMode: Positive
Formula: C10H20O5Si
SMILES: CC(=C)C(=O)OCCC[Si](OC)(OC)OC
InChI: 
InChIKey: XDLMVUHYZWKMMD-UHFFFAOYSA-N
RetentionTime: 6.290033
CCS: 
CollisionEnergy: 20-40 eV
InstrumentType: UPLC-QTOF-MS
Comment: PI: Cristina Nerin; Data collector: QiZhi Su, GUIA, University of Zaragoza, Spain; Collision energy: 20-40 V; Instrument: Waters HPLC-QTOF-MS (Xevo G2 QTof); Ionization: ESI; Deconvoluted by MS-DIAL; Column: Waters AtlantisTM premier BEH C18 AX column (2.1 × 100mm x 1.7μm); Flow rate: 0.3mL/min; Mobile phase A and B are water and methnaol, respectively, both with 0.1% formic acid; Gradient elution: from A/B (95/5) to A/B (100/0) in 7min, kept for 4 min, then back to A/B (95/5) in 0.1 min, and maintained for additional 1.9 min (13min in total).; Injection volume: 10 μL
Num peaks: 95
61.00836 561
61.01659 561
69.01437 14851
69.03323 14552
70.03699 499
73.02941 572
73.04279 636
73.04723 637
73.06364 568
75.02557 535
75.03217 551
77.00127 803
77.0074 803
77.01183 829
81.00021 343
81.0041 341
91.02087 11183
92.01971 603
92.02782 609
92.99713 327
93.01219 565
93.01908 528
93.02563 361
105.03652 2581
105.04929 2568
107.01593 1363
107.02862 1359
107.03775 276
109.01399 371
109.02816 440
109.04217 356
117.0219 768
117.0319 855
117.04039 838
121.03128 24781
122.02176 1558
122.03345 1560
123.02774 726
123.0378 809
123.04848 578
124.99129 4447
131.05217 3379
131.06392 3365
132.05086 314
132.05685 322
132.06592 308
133.01379 435
133.02487 408
133.03682 336
133.04802 249
139.03114 1615
139.0403 1627
139.04997 1649
145.01591 254
145.02879 334
145.03706 300
147.03168 608
147.04761 763
147.056 795
147.0677 293
161.0276 1078
163.07448 288
163.08359 265
164.97624 289
164.98666 283
164.99991 260
175.04262 5552
176.04411 531
176.0531 526
191.0027 3575
191.9976 537
192.00891 537
192.01944 467
192.98114 323
192.99831 444
193.0097 440
207.03322 5503
208.03247 1009
208.04105 1024
209.03035 535
209.04756 393
219.03687 248
231.00191 432
231.01241 480
262.97833 328
262.99213 354
263.00275 297
273.03989 386
273.05341 354
279.00592 487
279.02069 518
282.12708 347
282.1467 403
287.06006 415
287.07059 281
Name: Avobenzone
PrecursorMZ: 311.1648
PrecursorType: [M+H]+
IonMode: Positive
Formula: C20H22O3
SMILES: CC(C)(C)C1=CC=C(C=C1)C(=O)CC(=O)C2=CC=C(C=C2)OC
InChI: 
InChIKey: XNEFYCZVKIDDMS-UHFFFAOYSA-N
RetentionTime: 8.070539
CCS: 
CollisionEnergy: 20-40 eV
InstrumentType: UPLC-QTOF-MS
Comment: PI: Cristina Nerin; Data collector: QiZhi Su, GUIA, University of Zaragoza, Spain; Collision energy: 20-40 V; Instrument: Waters HPLC-QTOF-MS (Xevo G2 QTof); Ionization: ESI; Deconvoluted by MS-DIAL; Column: Waters AtlantisTM premier BEH C18 AX column (2.1 × 100mm x 1.7μm); Flow rate: 0.3mL/min; Mobile phase A and B are water and methnaol, respectively, both with 0.1% formic acid; Gradient elution: from A/B (95/5) to A/B (100/0) in 7min, kept for 4 min, then back to A/B (95/5) in 0.1 min, and maintained for additional 1.9 min (13min in total).; Injection volume: 10 μL
Num peaks: 187
55.0551 74
57.06433 75
57.06939 75
59.03034 110
59.03419 115
59.0472 137
67.05096 299
67.05718 299
68.98325 106
68.9948 106
68.99934 112
69.07022 129
77.03808 112
77.04247 116
77.04916 120
81.06979 665
82.06264 134
82.0721 131
83.0838 261
83.08828 261
85.05764 102
85.06316 109
85.06777 107
90.03446 82
91.03683 161
91.05403 303
91.06944 296
92.01608 168
92.03057 155
93.05206 431
93.06973 225
95.03392 84
95.08491 658
97.06441 118
97.10181 274
105.03121 98
105.03648 91
105.04443 70
105.0683 388
105.07789 387
107.04596 80
107.07741 93
107.08651 95
109.06641 617
109.085 897
109.10065 479
109.10674 478
110.06612 67
110.07284 70
111.03547 84
111.04355 100
111.05036 78
113.07907 81
118.06381 108
118.07966 99
121.09086 106
121.1022 139
131.07683 156
131.08685 156
131.1068 163
133.08633 473
133.10077 521
135.04405 5735
135.07076 94
135.10088 108
135.11113 210
135.12054 176
136.04395 550
136.05205 564
136.06068 582
137.04405 112
139.05185 68
139.11559 67
144.99983 110
145.01141 75
145.01997 111
146.07239 357
146.08144 369
147.06535 197
147.11299 145
147.12234 128
148.06694 263
148.08446 539
149.08218 230
149.12808 115
149.13718 115
150.06197 149
153.12996 75
161.09567 6667
162.09943 604
163.11717 96
164.04875 74
164.058 110
164.0677 83
164.07466 87
165.05473 141
165.06746 140
175.04617 70
175.05824 110
175.07545 126
177.05209 370
177.06122 351
177.11064 108
177.12125 155
178.05614 67
179.1017 68
179.1188 67
189.05489 121
192.96921 83
192.99203 177
197.06711 103
197.08163 114
197.09132 133
205.00786 190
205.02638 342
205.04501 109
205.11359 90
207.06657 283
207.08057 177
209.08147 78
209.0919 76
233.0703 138
233.08003 163
233.0899 167
237.12627 102
239.12941 87
243.00346 105
243.02545 127
243.03714 218
243.05037 275
243.06253 80
243.51462 82
243.5295 142
243.54115 98
244.03119 141
244.04602 136
245.226 84
245.2386 77
249.11337 94
250.03296 168
250.04311 270
250.52194 141
250.53624 115
251.03862 164
251.04904 135
251.16243 85
251.17377 90
252.04692 114
255.07846 90
258.0517 295
258.54092 88
258.55414 99
259.0509 186
261.09299 71
263.23297 83
265.05579 69
265.06601 78
267.09869 74
267.16666 117
267.97791 273
268.03079 217
279.04144 369
279.05536 170
279.16516 67
280.2562 88
281.11987 83
283.03033 470
287.02377 236
287.05481 81
287.06924 68
288.53003 162
289.19073 72
293.02533 682
293.03745 420
293.14468 109
293.15909 80
294.04184 75
295.02112 122
295.09622 125
295.11331 114
295.12988 114
297.05719 82
297.11069 67
307.18634 88
307.20724 102
307.23135 101
311.16357 2088
Name: Avobenzone
PrecursorMZ: 333.1466
PrecursorType: [M+Na]+
IonMode: Positive
Formula: C20H22O3
SMILES: CC(C)(C)C1=CC=C(C=C1)C(=O)CC(=O)C2=CC=C(C=C2)OC
InChI: 
InChIKey: XNEFYCZVKIDDMS-UHFFFAOYSA-N
RetentionTime: 8.04775
CCS: 
CollisionEnergy: 20-40 eV
InstrumentType: UPLC-QTOF-MS
Comment: PI: Cristina Nerin; Data collector: QiZhi Su, GUIA, University of Zaragoza, Spain; Collision energy: 20-40 V; Instrument: Waters HPLC-QTOF-MS (Xevo G2 QTof); Ionization: ESI; Deconvoluted by MS-DIAL; Column: Waters AtlantisTM premier BEH C18 AX column (2.1 × 100mm x 1.7μm); Flow rate: 0.3mL/min; Mobile phase A and B are water and methnaol, respectively, both with 0.1% formic acid; Gradient elution: from A/B (95/5) to A/B (100/0) in 7min, kept for 4 min, then back to A/B (95/5) in 0.1 min, and maintained for additional 1.9 min (13min in total).; Injection volume: 10 μL
Num peaks: 95
67.05125 235
67.05653 232
69.06949 179
77.01879 1309
77.03819 255
78.04216 242
78.04937 244
79.05367 401
79.05943 407
81.06926 646
83.07979 191
83.08693 188
91.03904 166
91.05453 174
93.05827 508
93.0698 509
95.08494 574
106.05395 198
107.03135 642
107.04871 412
107.08257 225
107.09075 216
109.06484 266
109.09949 171
115.04776 143
119.06982 227
119.08051 261
119.08894 256
121.10262 247
121.12227 337
125.07519 189
131.09779 150
133.11913 1032
135.04358 2473
135.08168 145
136.04732 581
137.13495 146
146.0537 541
146.07175 173
147.10751 297
147.11729 294
147.13176 209
149.03009 153
149.09381 165
162.95323 168
163.06702 198
163.12436 144
163.13908 197
175.55869 143
175.57242 161
189.04709 170
191.00169 298
192.0043 157
207.03232 1461
208.02675 308
208.03537 253
208.04498 199
209.04691 192
223.06645 407
225.03789 203
225.04865 223
225.05849 180
225.07056 292
239.07352 434
243.0334 201
243.04955 237
243.5278 155
248.98996 272
250.05858 395
263.22812 156
263.24466 178
265.01904 464
268.03134 178
268.98615 242
272.00888 268
272.02463 151
279.01883 499
279.04764 334
280.2662 289
280.52335 195
282.04404 794
282.05377 821
283.05096 346
295.07529 549
295.55804 346
296.0415 171
297.0304 183
307.22519 146
326.02011 144
327.00711 306
327.94943 187
331.66351 259
333.14603 14152
333.21121 163
333.23788 154
Name: Avobenzone
PrecursorMZ: 349.1215
PrecursorType: [M+K]+
IonMode: Positive
Formula: C20H22O3
SMILES: CC(C)(C)C1=CC=C(C=C1)C(=O)CC(=O)C2=CC=C(C=C2)OC
InChI: 
InChIKey: XNEFYCZVKIDDMS-UHFFFAOYSA-N
RetentionTime: 8.061617
CCS: 
CollisionEnergy: 20-40 eV
InstrumentType: UPLC-QTOF-MS
Comment: PI: Cristina Nerin; Data collector: QiZhi Su, GUIA, University of Zaragoza, Spain; Collision energy: 20-40 V; Instrument: Waters HPLC-QTOF-MS (Xevo G2 QTof); Ionization: ESI; Deconvoluted by MS-DIAL; Column: Waters AtlantisTM premier BEH C18 AX column (2.1 × 100mm x 1.7μm); Flow rate: 0.3mL/min; Mobile phase A and B are water and methnaol, respectively, both with 0.1% formic acid; Gradient elution: from A/B (95/5) to A/B (100/0) in 7min, kept for 4 min, then back to A/B (95/5) in 0.1 min, and maintained for additional 1.9 min (13min in total).; Injection volume: 10 μL
Num peaks: 26
95.0652 474
133.12167 687
146.07198 1936
161.0954 42983
175.05486 460
207.06392 473
242.0372 690
250.03389 757
251.03905 437
258.05121 1719
258.55136 915
258.56235 876
259.03308 514
259.04965 651
293.03873 2246
294.03864 464
295.05914 567
295.07349 829
311.16412 2881
324.98352 1033
330.13608 1571
333.14511 765
341.01657 3469
342.01776 1122
343.01416 493
349.11041 14606
Name: Octocrylene
PrecursorMZ: 362.213
PrecursorType: [M+H]+
IonMode: Positive
Formula: C24H27NO2
SMILES: CCCCC(CC)COC(=O)C(=C(C1=CC=CC=C1)C2=CC=CC=C2)C#N
InChI: 
InChIKey: FMJSMJQBSVNSBF-UHFFFAOYSA-N
RetentionTime: 7.913213
CCS: 
CollisionEnergy: 20-40 eV
InstrumentType: UPLC-QTOF-MS
Comment: PI: Cristina Nerin; Data collector: QiZhi Su, GUIA, University of Zaragoza, Spain; Collision energy: 20-40 V; Instrument: Waters HPLC-QTOF-MS (Xevo G2 QTof); Ionization: ESI; Deconvoluted by MS-DIAL; Column: Waters AtlantisTM premier BEH C18 AX column (2.1 × 100mm x 1.7μm); Flow rate: 0.3mL/min; Mobile phase A and B are water and methnaol, respectively, both with 0.1% formic acid; Gradient elution: from A/B (95/5) to A/B (100/0) in 7min, kept for 4 min, then back to A/B (95/5) in 0.1 min, and maintained for additional 1.9 min (13min in total).; Injection volume: 10 μL
Num peaks: 52
71.0686 5330
71.08482 5766
77.03796 11289
101.03946 1372
104.03368 5396
104.0493 5383
105.03304 53434
106.03738 2829
106.05401 3094
128.0502 1377
129.01897 1976
129.03349 2040
133.01649 2447
151.05417 9935
152.05884 1692
157.02954 1694
157.04895 1248
176.06158 44712
177.06874 55226
178.07483 17201
179.07951 2709
179.09006 2507
182.08998 1418
182.10031 1401
202.05965 4352
202.06947 4346
203.07278 63958
204.07993 88005
205.08397 11745
206.09541 7612
207.10159 1261
232.07547 112375
233.07857 17359
234.07477 1300
234.08508 1323
244.04393 13232
245.04471 1754
245.05618 1750
250.08646 13869
251.08281 2182
251.09488 2325
251.10468 2205
262.05209 1162
262.06482 1254
269.05899 50824
269.56015 17384
270.06268 2682
271.05609 4487
272.05447 3028
272.06607 3013
289.02713 1555
334.04306 1153
Name: Octocrylene
PrecursorMZ: 379.239
PrecursorType: [M+NH4]+
IonMode: Positive
Formula: C24H27NO2
SMILES: CCCCC(CC)COC(=O)C(=C(C1=CC=CC=C1)C2=CC=CC=C2)C#N
InChI: 
InChIKey: FMJSMJQBSVNSBF-UHFFFAOYSA-N
RetentionTime: 7.88845
CCS: 
CollisionEnergy: 20-40 eV
InstrumentType: UPLC-QTOF-MS
Comment: PI: Cristina Nerin; Data collector: QiZhi Su, GUIA, University of Zaragoza, Spain; Collision energy: 20-40 V; Instrument: Waters HPLC-QTOF-MS (Xevo G2 QTof); Ionization: ESI; Deconvoluted by MS-DIAL; Column: Waters AtlantisTM premier BEH C18 AX column (2.1 × 100mm x 1.7μm); Flow rate: 0.3mL/min; Mobile phase A and B are water and methnaol, respectively, both with 0.1% formic acid; Gradient elution: from A/B (95/5) to A/B (100/0) in 7min, kept for 4 min, then back to A/B (95/5) in 0.1 min, and maintained for additional 1.9 min (13min in total).; Injection volume: 10 μL
Num peaks: 52
57.06931 1351
71.07374 5466
71.08486 5397
71.08899 5386
77.0233 11332
77.03782 11273
101.02443 1295
101.03928 1299
101.05559 1141
104.04858 5387
105.03292 53437
106.03667 3093
128.03767 1651
128.04951 1661
129.02667 2041
129.03476 2016
147.08577 4152
151.05396 9922
152.05894 1764
152.06923 1836
157.01648 1735
157.02927 1765
157.04466 1707
176.06145 44718
177.06883 55244
178.07527 17205
179.08034 2712
182.0905 1576
182.09959 1639
202.06625 4350
203.0726 63965
204.07974 88017
205.08302 11745
206.09431 7551
207.09424 1725
232.07545 110491
233.07849 17371
234.08289 1277
244.04341 12690
245.04643 1758
250.08624 14523
251.08707 2321
251.09993 2311
262.05167 1160
262.06873 1163
269.05865 50821
269.56107 17384
270.05655 3126
270.06937 3234
271.05249 4436
271.06586 4531
272.06827 3006
Name: Octocrylene
PrecursorMZ: 384.1945
PrecursorType: [M+Na]+
IonMode: Positive
Formula: C24H27NO2
SMILES: CCCCC(CC)COC(=O)C(=C(C1=CC=CC=C1)C2=CC=CC=C2)C#N
InChI: 
InChIKey: FMJSMJQBSVNSBF-UHFFFAOYSA-N
RetentionTime: 7.91481
CCS: 
CollisionEnergy: 20-40 eV
InstrumentType: UPLC-QTOF-MS
Comment: PI: Cristina Nerin; Data collector: QiZhi Su, GUIA, University of Zaragoza, Spain; Collision energy: 20-40 V; Instrument: Waters HPLC-QTOF-MS (Xevo G2 QTof); Ionization: ESI; Deconvoluted by MS-DIAL; Column: Waters AtlantisTM premier BEH C18 AX column (2.1 × 100mm x 1.7μm); Flow rate: 0.3mL/min; Mobile phase A and B are water and methnaol, respectively, both with 0.1% formic acid; Gradient elution: from A/B (95/5) to A/B (100/0) in 7min, kept for 4 min, then back to A/B (95/5) in 0.1 min, and maintained for additional 1.9 min (13min in total).; Injection volume: 10 μL
Num peaks: 68
65.96297 734
65.96831 734
71.08473 2791
77.03828 5175
104.04993 2693
105.03313 25329
106.03611 1662
106.04151 1650
106.05106 1639
109.10252 663
121.10268 632
128.04625 885
128.05275 938
128.06627 707
129.03362 1452
151.05415 4314
152.05751 1004
152.0713 947
157.02124 879
157.03105 911
157.04411 814
163.03893 635
176.06204 19670
177.06947 25104
178.07501 8368
179.07562 1196
179.08249 1250
179.09584 1113
202.06081 1955
202.06999 1976
203.0726 28501
204.08049 44243
205.08481 4387
206.09271 3594
206.1048 3693
207.103 636
232.0761 62954
233.07906 9201
234.07126 728
234.08592 778
234.09753 713
242.03432 1341
242.04559 1387
244.04312 7816
245.04781 1213
250.02524 1737
250.03561 1800
250.0865 7522
250.52023 644
250.53473 791
251.08316 1185
251.09549 1100
251.54396 989
258.05032 5976
259.04211 1539
259.0549 1863
261.06516 676
262.06039 785
269.05914 24570
269.56253 7903
270.06406 1537
270.07962 1022
271.05756 2392
272.05447 1505
272.07126 1609
325.12094 701
334.04013 1458
384.19171 28602
Name: Octocrylene
PrecursorMZ: 400.1688
PrecursorType: [M+K]+
IonMode: Positive
Formula: C24H27NO2
SMILES: CCCCC(CC)COC(=O)C(=C(C1=CC=CC=C1)C2=CC=CC=C2)C#N
InChI: 
InChIKey: FMJSMJQBSVNSBF-UHFFFAOYSA-N
RetentionTime: 7.913213
CCS: 
CollisionEnergy: 20-40 eV
InstrumentType: UPLC-QTOF-MS
Comment: PI: Cristina Nerin; Data collector: QiZhi Su, GUIA, University of Zaragoza, Spain; Collision energy: 20-40 V; Instrument: Waters HPLC-QTOF-MS (Xevo G2 QTof); Ionization: ESI; Deconvoluted by MS-DIAL; Column: Waters AtlantisTM premier BEH C18 AX column (2.1 × 100mm x 1.7μm); Flow rate: 0.3mL/min; Mobile phase A and B are water and methnaol, respectively, both with 0.1% formic acid; Gradient elution: from A/B (95/5) to A/B (100/0) in 7min, kept for 4 min, then back to A/B (95/5) in 0.1 min, and maintained for additional 1.9 min (13min in total).; Injection volume: 10 μL
Num peaks: 53
71.08498 5579
77.03814 17701
101.0388 1929
101.05728 1729
104.04974 9046
105.03304 83892
106.02129 4526
106.03697 4520
128.05002 2737
129.02818 4014
129.03474 4163
129.04187 4259
129.05447 2331
151.05403 16096
152.05949 3233
157.0271 2778
161.09637 2787
176.06197 67941
177.0692 86061
178.07433 28458
179.07787 4475
179.08792 4268
182.09734 2166
182.11317 2306
202.06583 6976
203.07286 97161
204.08032 136628
205.08397 19448
206.09598 9805
232.07571 160649
233.07864 27240
234.06931 1931
234.08382 1949
244.04393 12400
250.08685 20298
251.09038 2873
251.10995 2871
269.06003 67704
269.56143 22820
270.06195 4351
271.0553 5465
271.07413 5450
272.06671 5057
288.03415 4067
325.11554 1688
325.12875 1709
384.19287 90683
385.19601 20126
386.19589 2044
386.21017 1736
393.59802 33348
394.09903 17104
394.60016 4521
Name: Octocrylene
PrecursorMZ: 362.213
PrecursorType: [M+H]+
IonMode: Positive
Formula: 
SMILES: 
InChI: 
InChIKey: 
RetentionTime: 7.913367
CCS: 
CollisionEnergy: 20-40 eV
InstrumentType: UPLC-QTOF-MS
Comment: PI: Cristina Nerin; Data collector: QiZhi Su, GUIA, University of Zaragoza, Spain; Collision energy: 20-40 V; Instrument: Waters HPLC-QTOF-MS (Xevo G2 QTof); Ionization: ESI; Deconvoluted by MS-DIAL; Column: Waters AtlantisTM premier BEH C18 AX column (2.1 × 100mm x 1.7μm); Flow rate: 0.3mL/min; Mobile phase A and B are water and methnaol, respectively, both with 0.1% formic acid; Gradient elution: from A/B (95/5) to A/B (100/0) in 7min, kept for 4 min, then back to A/B (95/5) in 0.1 min, and maintained for additional 1.9 min (13min in total).; Injection volume: 10 μL
Num peaks: 42
71.08545 6116
77.03794 23377
101.03895 2543
101.05216 2583
104.04965 10937
105.033 102871
106.03761 5597
106.05444 5632
128.05153 3108
129.01457 4691
129.03433 4788
135.02542 3449
135.0444 3439
151.05409 21019
152.0603 3977
152.07391 4006
157.02835 3593
157.04329 3606
161.09612 6090
176.06216 86735
177.06909 106711
178.07484 36003
179.0818 4996
179.10037 4819
182.09584 2305
202.06589 8981
203.07307 121608
204.08032 169458
205.0835 24754
206.09633 10900
232.07567 191166
233.07889 32013
234.08287 2314
244.04436 11961
250.08618 23099
251.08788 2975
251.09926 2782
269.05981 64021
269.56204 21997
270.06564 4646
271.05521 4981
272.06937 5700
Name: Octocrylene
PrecursorMZ: 384.1945
PrecursorType: [M+Na]+
IonMode: Positive
Formula: 
SMILES: 
InChI: 
InChIKey: 
RetentionTime: 7.913367
CCS: 
CollisionEnergy: 20-40 eV
InstrumentType: UPLC-QTOF-MS
Comment: PI: Cristina Nerin; Data collector: QiZhi Su, GUIA, University of Zaragoza, Spain; Collision energy: 20-40 V; Instrument: Waters HPLC-QTOF-MS (Xevo G2 QTof); Ionization: ESI; Deconvoluted by MS-DIAL; Column: Waters AtlantisTM premier BEH C18 AX column (2.1 × 100mm x 1.7μm); Flow rate: 0.3mL/min; Mobile phase A and B are water and methnaol, respectively, both with 0.1% formic acid; Gradient elution: from A/B (95/5) to A/B (100/0) in 7min, kept for 4 min, then back to A/B (95/5) in 0.1 min, and maintained for additional 1.9 min (13min in total).; Injection volume: 10 μL
Num peaks: 43
71.08545 6116
77.03794 23377
101.03895 2543
101.05216 2583
104.04965 10939
105.033 102871
106.03761 5597
106.05444 5631
128.05153 3108
129.01457 4691
129.03433 4788
135.02542 3449
135.0444 3439
151.05409 21025
152.0603 3977
152.07391 4006
157.02835 3593
157.04329 3606
161.09612 6090
176.06216 86746
177.06909 106711
178.07484 36003
179.0818 4996
179.10037 4819
182.09584 2305
202.06589 8981
203.07307 121613
204.08032 169464
205.0835 24754
206.09633 10900
232.07567 191172
233.07889 32015
234.08287 2314
244.04436 11961
250.08618 23101
251.08788 2975
251.09926 2781
269.05981 64015
269.56204 21995
270.06564 4646
271.05521 4984
272.06937 5701
384.19272 126296
Name: Octocrylene
PrecursorMZ: 400.1688
PrecursorType: [M+K]+
IonMode: Positive
Formula: 
SMILES: 
InChI: 
InChIKey: 
RetentionTime: 7.913367
CCS: 
CollisionEnergy: 20-40 eV
InstrumentType: UPLC-QTOF-MS
Comment: PI: Cristina Nerin; Data collector: QiZhi Su, GUIA, University of Zaragoza, Spain; Collision energy: 20-40 V; Instrument: Waters HPLC-QTOF-MS (Xevo G2 QTof); Ionization: ESI; Deconvoluted by MS-DIAL; Column: Waters AtlantisTM premier BEH C18 AX column (2.1 × 100mm x 1.7μm); Flow rate: 0.3mL/min; Mobile phase A and B are water and methnaol, respectively, both with 0.1% formic acid; Gradient elution: from A/B (95/5) to A/B (100/0) in 7min, kept for 4 min, then back to A/B (95/5) in 0.1 min, and maintained for additional 1.9 min (13min in total).; Injection volume: 10 μL
Num peaks: 48
71.08545 6116
77.03794 23377
101.03895 2543
101.05216 2583
104.04965 10939
105.033 102871
106.03761 5597
106.05444 5631
128.05153 3108
129.01457 4691
129.03433 4788
135.02542 3449
135.0444 3439
151.05409 21025
152.0603 3977
152.07391 4006
157.02835 3593
157.04329 3606
161.09612 6090
176.06216 86746
177.06909 106711
178.07484 36003
179.0818 4996
179.10037 4819
182.09584 2305
202.06589 8981
203.07307 121613
204.08032 169464
205.0835 24754
206.09633 10900
232.07567 191172
233.07889 32015
234.08287 2314
244.04436 11961
250.08618 23101
251.08788 2975
251.09926 2781
269.05981 64015
269.56204 21995
270.06564 4646
271.05521 4984
272.06937 5701
384.19272 107622
385.19623 25786
386.20013 2855
393.5986 33552
394.09958 16866
394.60016 5244
Name: Octocrylene
PrecursorMZ: 745.3992
PrecursorType: [2M+Na]+
IonMode: Positive
Formula: 
SMILES: 
InChI: 
InChIKey: 
RetentionTime: 7.913367
CCS: 
CollisionEnergy: 20-40 eV
InstrumentType: UPLC-QTOF-MS
Comment: PI: Cristina Nerin; Data collector: QiZhi Su, GUIA, University of Zaragoza, Spain; Collision energy: 20-40 V; Instrument: Waters HPLC-QTOF-MS (Xevo G2 QTof); Ionization: ESI; Deconvoluted by MS-DIAL; Column: Waters AtlantisTM premier BEH C18 AX column (2.1 × 100mm x 1.7μm); Flow rate: 0.3mL/min; Mobile phase A and B are water and methnaol, respectively, both with 0.1% formic acid; Gradient elution: from A/B (95/5) to A/B (100/0) in 7min, kept for 4 min, then back to A/B (95/5) in 0.1 min, and maintained for additional 1.9 min (13min in total).; Injection volume: 10 μL
Num peaks: 61
71.08545 6115
77.03794 23377
101.03895 2543
101.05216 2583
104.04965 10935
105.033 102871
106.03761 5597
106.05444 5632
128.05153 3108
129.01457 4691
129.03433 4788
135.02542 3449
135.0444 3439
151.05409 21006
152.0603 3977
152.07391 4006
157.02835 3593
157.04329 3606
161.09612 6090
176.06216 86735
177.06909 106711
178.07484 36003
179.0818 4996
179.10037 4819
182.09584 2305
202.06589 8981
203.07307 121605
204.08032 169446
205.0835 24754
206.09633 10900
232.07567 191155
233.07889 32010
234.08287 2314
244.04436 11962
250.08618 23095
251.08788 2975
251.09926 2782
269.05981 64026
269.56204 21998
270.06564 4646
271.05521 4978
272.06937 5700
384.19272 107620
385.19623 25786
386.20013 2855
393.5986 33556
394.09958 16869
394.60016 5245
449.13266 17481
449.66119 16629
450.15668 12064
450.66214 3475
450.67691 3360
505.72287 16152
506.22595 11354
506.72696 3478
537.11292 7855
538.11639 2464
561.784 16176
562.28729 12334
562.78564 5438
Name: Avobenzone
PrecursorMZ: 333.1466
PrecursorType: [M+Na]+
IonMode: Positive
Formula: 
SMILES: 
InChI: 
InChIKey: 
RetentionTime: 8.0428
CCS: 
CollisionEnergy: 20-40 eV
InstrumentType: UPLC-QTOF-MS
Comment: PI: Cristina Nerin; Data collector: QiZhi Su, GUIA, University of Zaragoza, Spain; Collision energy: 20-40 V; Instrument: Waters HPLC-QTOF-MS (Xevo G2 QTof); Ionization: ESI; Deconvoluted by MS-DIAL; Column: Waters AtlantisTM premier BEH C18 AX column (2.1 × 100mm x 1.7μm); Flow rate: 0.3mL/min; Mobile phase A and B are water and methnaol, respectively, both with 0.1% formic acid; Gradient elution: from A/B (95/5) to A/B (100/0) in 7min, kept for 4 min, then back to A/B (95/5) in 0.1 min, and maintained for additional 1.9 min (13min in total).; Injection volume: 10 μL
Num peaks: 52
73.04635 52869
74.04832 2707
77.03819 6370
81.06926 2614
91.05453 4266
92.02622 2100
93.0698 1877
95.08494 2737
105.0703 3819
107.04871 5905
109.06484 2653
109.09949 1621
118.07822 2265
133.08701 2515
133.10135 3515
135.04358 151980
136.04732 10600
146.07175 7242
147.06532 28844
148.06807 3178
149.04558 2567
161.0959 157204
162.09872 15292
163.05852 1858
177.05508 5892
191.00169 2802
207.03232 16553
207.07077 2694
208.03537 1704
221.08614 2671
223.06645 3402
237.08069 10971
248.98996 3017
250.96973 2880
258.04953 3616
265.01904 4275
266.99942 11834
267.99905 1795
279.04764 2602
281.05096 32598
282.04404 2670
282.05377 6006
283.05096 3689
293.0397 2093
295.05734 1972
311.16443 12035
324.98734 5885
326.96899 3756
330.13705 36731
330.63876 14934
331.13901 3412
333.14603 14152
Name: Avobenzone
PrecursorMZ: 643.3052
PrecursorType: [2M+Na]+
IonMode: Positive
Formula: 
SMILES: 
InChI: 
InChIKey: 
RetentionTime: 8.058033
CCS: 
CollisionEnergy: 20-40 eV
InstrumentType: UPLC-QTOF-MS
Comment: PI: Cristina Nerin; Data collector: QiZhi Su, GUIA, University of Zaragoza, Spain; Collision energy: 20-40 V; Instrument: Waters HPLC-QTOF-MS (Xevo G2 QTof); Ionization: ESI; Deconvoluted by MS-DIAL; Column: Waters AtlantisTM premier BEH C18 AX column (2.1 × 100mm x 1.7μm); Flow rate: 0.3mL/min; Mobile phase A and B are water and methnaol, respectively, both with 0.1% formic acid; Gradient elution: from A/B (95/5) to A/B (100/0) in 7min, kept for 4 min, then back to A/B (95/5) in 0.1 min, and maintained for additional 1.9 min (13min in total).; Injection volume: 10 μL
Num peaks: 101
57.06845 174
73.02719 12766
73.04628 12747
73.06332 12696
74.04415 492
74.0493 514
74.06146 504
75.02561 510
75.04343 469
75.04999 457
75.05703 414
77.05675 493
89.03677 209
109.06507 333
109.07761 353
118.07765 564
133.04881 420
133.06096 131
134.08327 235
134.1062 178
145.02005 131
149.06244 576
149.07491 240
175.07571 291
191.00346 133
193.02258 144
207.03281 2388
208.06897 137
208.08122 212
209.02882 293
238.10425 404
242.03358 250
242.04518 247
242.53676 229
248.96643 139
250.02589 201
250.52576 183
250.5401 195
251.00223 151
251.02959 139
251.04066 158
258.03918 1117
258.05109 1101
258.06961 310
258.54099 182
258.55243 186
259.04391 357
259.05624 399
259.52972 166
265.00964 231
268.00302 140
268.99011 133
280.04721 141
280.06036 201
281.05093 316
288.05069 154
293.03406 747
293.04904 745
294.03799 143
311.08621 806
322.15054 182
322.64508 143
322.66809 227
323.12241 147
324.98767 317
325.98169 888
325.99655 805
330.63892 695
331.13831 637
331.64502 131
333.14648 1561
345.1976 129
349.11029 2828
353.03516 145
356.061 6230
357.07285 137
373.10803 264
445.10797 278
477.32498 143
485.68396 132
487.36288 703
499.12778 1625
500.12848 988
502.11197 260
502.13226 329
503.33725 157
515.09717 559
516.104 615
517.07312 633
517.09607 495
519.09247 130
531.39996 175
561.10315 187
575.39948 486
575.42188 218
607.42242 1338
608.42328 309
609.41663 215
610.36218 156
643.2829 224
643.30835 429
Name: Avobenzone
PrecursorMZ: 311.1648
PrecursorType: [M+H]+
IonMode: Positive
Formula: 
SMILES: 
InChI: 
InChIKey: 
RetentionTime: 8.06565
CCS: 
CollisionEnergy: 20-40 eV
InstrumentType: UPLC-QTOF-MS
Comment: PI: Cristina Nerin; Data collector: QiZhi Su, GUIA, University of Zaragoza, Spain; Collision energy: 20-40 V; Instrument: Waters HPLC-QTOF-MS (Xevo G2 QTof); Ionization: ESI; Deconvoluted by MS-DIAL; Column: Waters AtlantisTM premier BEH C18 AX column (2.1 × 100mm x 1.7μm); Flow rate: 0.3mL/min; Mobile phase A and B are water and methnaol, respectively, both with 0.1% formic acid; Gradient elution: from A/B (95/5) to A/B (100/0) in 7min, kept for 4 min, then back to A/B (95/5) in 0.1 min, and maintained for additional 1.9 min (13min in total).; Injection volume: 10 μL
Num peaks: 24
73.03067 4975
73.04629 4956
91.05322 2596
92.02493 1634
105.052 4942
105.06996 3270
105.08772 3391
107.04893 5711
109.05871 2226
109.06575 2230
118.07663 2396
133.08131 2871
133.08928 4139
133.10127 4089
135.04378 149600
136.04741 9761
146.07338 7174
147.04649 5687
147.06567 4863
161.09581 162355
162.0994 15956
295.0549 2145
295.0675 2138
311.16446 11950
Name: 3-(Trimethoxysilyl)propyl methacrylate
PrecursorMZ: 271.0985
PrecursorType: [M+Na]+
IonMode: Positive
Formula: 
SMILES: 
InChI: 
InChIKey: 
RetentionTime: 6.29765
CCS: 
CollisionEnergy: 20-40 eV
InstrumentType: UPLC-QTOF-MS
Comment: PI: Cristina Nerin; Data collector: QiZhi Su, GUIA, University of Zaragoza, Spain; Collision energy: 20-40 V; Instrument: Waters HPLC-QTOF-MS (Xevo G2 QTof); Ionization: ESI; Deconvoluted by MS-DIAL; Column: Waters AtlantisTM premier BEH C18 AX column (2.1 × 100mm x 1.7μm); Flow rate: 0.3mL/min; Mobile phase A and B are water and methnaol, respectively, both with 0.1% formic acid; Gradient elution: from A/B (95/5) to A/B (100/0) in 7min, kept for 4 min, then back to A/B (95/5) in 0.1 min, and maintained for additional 1.9 min (13min in total).; Injection volume: 10 μL
Num peaks: 65
60.9976 552
61.00863 562
61.013 565
69.03339 14569
70.03683 497
70.04324 489
73.04718 275
73.06104 278
75.02135 468
75.02631 477
75.03338 488
76.99236 762
77.00529 818
77.01403 831
80.98995 337
80.9978 338
81.00626 335
91.02121 11169
92.02177 614
93.00155 526
93.01882 520
105.03692 2550
106.9995 1175
107.01738 1399
107.03671 664
109.01897 353
109.03165 452
109.04079 401
109.04887 409
117.03597 861
117.0509 850
121.03125 24766
122.03188 1544
122.04077 1540
123.02774 735
123.04726 664
124.97432 4555
124.99149 4479
131.03394 3254
131.0528 3355
132.04947 319
132.0573 334
133.03195 349
133.04898 249
139.0401 1620
139.04692 1635
145.0322 315
147.04305 778
147.05238 777
147.06786 314
161.02824 1071
163.08047 264
163.09024 279
175.04344 5548
176.03185 451
176.04645 521
191.00182 1534
191.99139 390
192.00539 422
192.99001 316
207.03493 3514
208.03487 520
230.98119 349
230.99698 525
231.00969 572
Name: N-methylpiperidine
PrecursorMZ: 100.1121
PrecursorType: [M+H]+
IonMode: Positive
Formula: 
SMILES: 
InChI: 
InChIKey: 
RetentionTime: 0.56255
CCS: 
CollisionEnergy: 20-40 eV
InstrumentType: UPLC-QTOF-MS
Comment: PI: Cristina Nerin; Data collector: QiZhi Su, GUIA, University of Zaragoza, Spain; Collision energy: 20-40 V; Instrument: Waters HPLC-QTOF-MS (Xevo G2 QTof); Ionization: ESI; Deconvoluted by MS-DIAL; Column: Waters AtlantisTM premier BEH C18 AX column (2.1 × 100mm x 1.7μm); Flow rate: 0.3mL/min; Mobile phase A and B are water and methnaol, respectively, both with 0.1% formic acid; Gradient elution: from A/B (95/5) to A/B (100/0) in 7min, kept for 4 min, then back to A/B (95/5) in 0.1 min, and maintained for additional 1.9 min (13min in total).; Injection volume: 10 μL
Num peaks: 5
70.06485 566
70.06948 327
72.07924 257
100.07544 13700
100.11224 956
Name: Octocrylene
PrecursorMZ: 379.239
PrecursorType: [M+NH4]+
IonMode: Positive
Formula: 
SMILES: 
InChI: 
InChIKey: 
RetentionTime: 7.909567
CCS: 
CollisionEnergy: 20-40 eV
InstrumentType: UPLC-QTOF-MS
Comment: PI: Cristina Nerin; Data collector: QiZhi Su, GUIA, University of Zaragoza, Spain; Collision energy: 20-40 V; Instrument: Waters HPLC-QTOF-MS (Xevo G2 QTof); Ionization: ESI; Deconvoluted by MS-DIAL; Column: Waters AtlantisTM premier BEH C18 AX column (2.1 × 100mm x 1.7μm); Flow rate: 0.3mL/min; Mobile phase A and B are water and methnaol, respectively, both with 0.1% formic acid; Gradient elution: from A/B (95/5) to A/B (100/0) in 7min, kept for 4 min, then back to A/B (95/5) in 0.1 min, and maintained for additional 1.9 min (13min in total).; Injection volume: 10 μL
Num peaks: 42
71.08589 6215
77.03815 23377
101.03914 2531
104.03053 10984
104.04938 10943
105.03304 102871
105.05215 102857
106.03722 5613
106.05116 5570
128.05093 3088
129.03369 4784
129.05362 3511
135.04387 3411
151.05431 21027
152.05991 3978
157.0282 3593
161.09717 6104
176.06227 86781
177.06888 106711
178.07518 36003
179.07117 4827
179.08257 4990
179.09749 4775
182.09944 2395
202.0656 8984
203.07306 121613
204.08031 169500
205.08322 24763
206.09575 11000
232.07574 191643
233.07939 31879
234.0807 2319
244.04388 12229
250.08742 23104
251.07729 2767
251.09358 3075
269.06021 65842
269.56137 22494
270.06299 4729
271.05576 4798
272.06888 5715
288.02292 12301
Name: Bis(4-amino-3-methylcyclohexyl)methane
PrecursorMZ: 239.2492
PrecursorType: [M+H]+
IonMode: Positive
Formula: C15H30N2
SMILES: CC1CC(CCC1N)CC2CCC(C(C2)C)N
InChI: 
InChIKey: IGSBHTZEJMPDSZ-UHFFFAOYSA-N
RetentionTime: 0.8367083
CCS: 
CollisionEnergy: 20-40 eV
InstrumentType: UPLC-QTOF-MS
Comment: PI: Cristina Nerin; Data collector: QiZhi Su, GUIA, University of Zaragoza, Spain; Collision energy: 20-40 V; Instrument: Waters HPLC-QTOF-MS (Xevo G2 QTof); Ionization: ESI; Deconvoluted by MS-DIAL; Column: Waters AtlantisTM premier BEH C18 AX column (2.1 × 100mm x 1.7μm); Flow rate: 0.3mL/min; Mobile phase A and B are water and methnaol, respectively, both with 0.1% formic acid; Gradient elution: from A/B (95/5) to A/B (100/0) in 7min, kept for 4 min, then back to A/B (95/5) in 0.1 min, and maintained for additional 1.9 min (13min in total).; Injection volume: 10 μL
Num peaks: 43
55.0491 86
55.05358 210
65.03929 85
67.05 494
67.05513 2211
69.06978 367
69.56506 74
73.04906 121
74.06117 128
77.0351 83
78.98553 86
79.04963 256
79.05567 523
81.07042 3232
82.07244 266
83.08597 81
84.9601 117
91.05707 340
93.07088 933
94.07841 110
95.086 7356
96.0899 508
97.10405 374
98.9715 82
107.0827 170
107.08952 386
109.09952 1107
110.10253 216
120.12453 284
120.62656 102
121.10081 308
123.11044 109
123.11825 469
135.11629 557
149.13141 141
149.14211 125
180.89302 85
205.20003 81
222.21774 309
234.21846 272
234.22597 122
239.24934 706
239.26767 127
Name: "Ethyl 2-cyano-3,3-diphenylacrylate"
PrecursorMZ: 278.119
PrecursorType: [M+H]+
IonMode: Positive
Formula: C18H15NO2
SMILES: CCOC(=O)C(=C(C1=CC=CC=C1)C2=CC=CC=C2)C#N
InChI: 
InChIKey: IAJNXBNRYMEYAZ-UHFFFAOYSA-N
RetentionTime: 6.683261
CCS: 
CollisionEnergy: 20-40 eV
InstrumentType: UPLC-QTOF-MS
Comment: PI: Cristina Nerin; Data collector: QiZhi Su, GUIA, University of Zaragoza, Spain; Collision energy: 20-40 V; Instrument: Waters HPLC-QTOF-MS (Xevo G2 QTof); Ionization: ESI; Deconvoluted by MS-DIAL; Column: Waters AtlantisTM premier BEH C18 AX column (2.1 × 100mm x 1.7μm); Flow rate: 0.3mL/min; Mobile phase A and B are water and methnaol, respectively, both with 0.1% formic acid; Gradient elution: from A/B (95/5) to A/B (100/0) in 7min, kept for 4 min, then back to A/B (95/5) in 0.1 min, and maintained for additional 1.9 min (13min in total).; Injection volume: 10 μL
Num peaks: 42
65.96442 647
77.0182 1042
77.03736 2454
104.04958 1462
104.06335 1482
105.0132 6316
105.03296 20359
106.03242 1160
106.03989 1161
128.0385 525
128.04836 523
128.05574 536
128.06619 517
129.02713 691
129.0354 694
151.05432 1957
151.07246 1696
157.03001 634
176.06288 9678
177.06987 15921
178.07474 4763
178.09355 4638
179.06992 919
179.0824 940
179.09857 767
202.06117 1056
202.07013 1050
203.07338 15944
204.08105 31650
205.08452 3991
206.0804 3108
206.097 3176
207.09483 554
232.07628 51360
233.08058 7706
234.08392 616
244.04317 5664
245.04562 730
245.06288 714
250.08664 586
269.05307 1412
269.06323 1460
Name: "6-Amino-1,3-dimethyluracil"
PrecursorMZ: 156.0772
PrecursorType: [M+H]+
IonMode: Positive
Formula: C6H9N3O2
SMILES: CN1C(=CC(=O)N(C1=O)C)N
InChI: 
InChIKey: VFGRNTYELNYSKJ-UHFFFAOYSA-N
RetentionTime: 0.9312305
CCS: 
CollisionEnergy: 20-40 eV
InstrumentType: UPLC-QTOF-MS
Comment: PI: Cristina Nerin; Data collector: QiZhi Su, GUIA, University of Zaragoza, Spain; Collision energy: 20-40 V; Instrument: Waters HPLC-QTOF-MS (Xevo G2 QTof); Ionization: ESI; Deconvoluted by MS-DIAL; Column: Waters AtlantisTM premier BEH C18 AX column (2.1 × 100mm x 1.7μm); Flow rate: 0.3mL/min; Mobile phase A and B are water and methnaol, respectively, both with 0.1% formic acid; Gradient elution: from A/B (95/5) to A/B (100/0) in 7min, kept for 4 min, then back to A/B (95/5) in 0.1 min, and maintained for additional 1.9 min (13min in total).; Injection volume: 10 μL
Num peaks: 88
56.05046 107
56.05807 107
57.04581 276
57.06533 177
58.02684 66
67.04768 155
67.05376 155
68.01389 630
68.04408 53
69.06915 70
69.07479 70
70.01122 293
70.01782 399
70.02673 403
71.05269 72
72.04218 532
72.04707 536
72.06288 373
73.05118 54
75.04768 388
75.05648 387
78.98576 88
78.99046 86
79.05383 87
80.9355 74
80.94342 70
80.95012 74
81.0674 218
81.07214 212
82.02936 2006
82.043 2015
82.05379 205
83.02932 61
83.04981 58
84.95533 116
84.96287 121
84.97032 111
86.08195 113
86.09659 117
86.10313 111
87.0404 102
87.04757 102
87.05422 102
87.05983 97
89.04422 325
89.05556 1340
89.06837 1333
89.07471 1326
93.06837 82
94.95641 82
94.96336 73
95.04968 119
95.06107 137
95.08366 800
95.0917 797
97.10373 63
99.03347 160
99.05427 1269
99.08105 70
100.0402 73
100.04577 89
100.0582 111
100.06681 79
100.99142 125
105.06405 62
105.07162 62
107.9618 51
109.09472 165
109.10612 163
111.0067 106
111.01479 112
111.03125 87
111.08187 59
111.08674 51
121.1054 74
125.03072 68
127.12304 61
133.00937 71
133.06624 131
133.0872 266
133.09674 277
133.11311 57
145.01202 250
145.02353 246
147.12704 52
154.99765 77
155.00871 70
156.07613 5048
Name: "Ethyl 2-cyano-3,3-diphenylacrylate"
PrecursorMZ: 295.1452
PrecursorType: [M+NH4]+
IonMode: Positive
Formula: C18H15NO2
SMILES: CCOC(=O)C(=C(C1=CC=CC=C1)C2=CC=CC=C2)C#N
InChI: 
InChIKey: IAJNXBNRYMEYAZ-UHFFFAOYSA-N
RetentionTime: 6.68416
CCS: 
CollisionEnergy: 20-40 eV
InstrumentType: UPLC-QTOF-MS
Comment: PI: Cristina Nerin; Data collector: QiZhi Su, GUIA, University of Zaragoza, Spain; Collision energy: 20-40 V; Instrument: Waters HPLC-QTOF-MS (Xevo G2 QTof); Ionization: ESI; Deconvoluted by MS-DIAL; Column: Waters AtlantisTM premier BEH C18 AX column (2.1 × 100mm x 1.7μm); Flow rate: 0.3mL/min; Mobile phase A and B are water and methnaol, respectively, both with 0.1% formic acid; Gradient elution: from A/B (95/5) to A/B (100/0) in 7min, kept for 4 min, then back to A/B (95/5) in 0.1 min, and maintained for additional 1.9 min (13min in total).; Injection volume: 10 μL
Num peaks: 32
77.03826 16766
104.04968 9607
105.03324 130502
106.03688 7224
129.03392 4058
151.05431 12512
157.02957 4208
176.06215 63048
177.06914 105166
178.07504 32269
179.08244 5500
202.06546 6602
203.07312 104064
204.0807 200281
205.08417 28840
206.09569 26322
207.08585 3949
207.10172 3610
232.076 319545
233.07976 53921
234.08241 3707
234.1228 4309
234.13231 4325
244.04391 42650
245.04933 5321
261.06989 4354
261.08215 4395
269.06046 17506
269.56195 6086
283.07596 18419
283.57632 6974
288.03351 22454
Name: "Ethyl 2-cyano-3,3-diphenylacrylate"
PrecursorMZ: 300.1003
PrecursorType: [M+Na]+
IonMode: Positive
Formula: C18H15NO2
SMILES: CCOC(=O)C(=C(C1=CC=CC=C1)C2=CC=CC=C2)C#N
InChI: 
InChIKey: IAJNXBNRYMEYAZ-UHFFFAOYSA-N
RetentionTime: 6.683261
CCS: 
CollisionEnergy: 20-40 eV
InstrumentType: UPLC-QTOF-MS
Comment: PI: Cristina Nerin; Data collector: QiZhi Su, GUIA, University of Zaragoza, Spain; Collision energy: 20-40 V; Instrument: Waters HPLC-QTOF-MS (Xevo G2 QTof); Ionization: ESI; Deconvoluted by MS-DIAL; Column: Waters AtlantisTM premier BEH C18 AX column (2.1 × 100mm x 1.7μm); Flow rate: 0.3mL/min; Mobile phase A and B are water and methnaol, respectively, both with 0.1% formic acid; Gradient elution: from A/B (95/5) to A/B (100/0) in 7min, kept for 4 min, then back to A/B (95/5) in 0.1 min, and maintained for additional 1.9 min (13min in total).; Injection volume: 10 μL
Num peaks: 46
65.96442 647
77.0182 1042
77.03736 2454
104.04958 1462
104.06335 1482
105.0132 6316
105.03296 20359
106.03242 1160
106.03989 1161
128.0385 525
128.04836 523
128.05574 536
128.06619 517
129.02713 691
129.0354 694
151.05432 1957
151.07246 1696
157.03001 634
176.06288 9678
177.06987 15921
178.07474 4763
178.09355 4638
179.06992 919
179.0824 940
179.09857 767
202.06117 1056
202.07013 1050
203.07338 15944
204.08105 31650
205.08452 3991
206.0804 3108
206.097 3176
207.09483 554
232.07628 51360
233.08058 7706
234.08392 616
244.04317 5664
245.04562 730
245.06288 714
250.08664 586
269.05307 1412
269.06323 1460
283.07419 1177
288.03458 2175
291.05789 547
297.09201 908
Name: Trimethylolpropane trimethacrylate
PrecursorMZ: 339.1815
PrecursorType: [M+H]+
IonMode: Positive
Formula: C18H26O6
SMILES: CCC(COC(=O)C(=C)C)(COC(=O)C(=C)C)COC(=O)C(=C)C
InChI: 
InChIKey: OKKRPWIIYQTPQF-UHFFFAOYSA-N
RetentionTime: 7.204689
CCS: 
CollisionEnergy: 20-40 eV
InstrumentType: UPLC-QTOF-MS
Comment: PI: Cristina Nerin; Data collector: QiZhi Su, GUIA, University of Zaragoza, Spain; Collision energy: 20-40 V; Instrument: Waters HPLC-QTOF-MS (Xevo G2 QTof); Ionization: ESI; Deconvoluted by MS-DIAL; Column: Waters AtlantisTM premier BEH C18 AX column (2.1 × 100mm x 1.7μm); Flow rate: 0.3mL/min; Mobile phase A and B are water and methnaol, respectively, both with 0.1% formic acid; Gradient elution: from A/B (95/5) to A/B (100/0) in 7min, kept for 4 min, then back to A/B (95/5) in 0.1 min, and maintained for additional 1.9 min (13min in total).; Injection volume: 10 μL
Num peaks: 81
53.03736 93
53.04382 93
57.06746 86
57.07201 86
78.98103 273
78.9855 279
78.98991 266
81.00114 580
87.08171 88
87.09489 86
93.05592 241
97.06557 235
99.0801 1063
99.08778 1070
105.06676 160
105.07419 146
112.9846 86
112.99308 75
123.07631 130
123.08398 129
123.0897 111
124.97272 5844
124.99091 6987
125.98543 269
125.99655 275
126.00493 278
137.05652 146
141.10808 75
153.08797 85
160.0818 71
179.09219 347
179.10751 370
180.09705 107
180.10799 93
180.11646 73
189.01956 95
189.04996 125
189.06696 156
190.98589 239
191.03395 97
193.04247 146
193.05531 122
193.12561 142
193.13846 152
195.09129 100
203.14095 95
203.1541 97
209.0376 235
209.05199 188
211.01089 102
211.02229 192
211.03288 216
211.0481 162
235.07793 86
235.15912 290
235.17273 311
235.18712 236
238.06268 87
243.11891 74
249.02728 73
253.14464 2757
254.14828 452
255.13857 106
255.16101 72
263.11688 75
265.08072 106
265.10056 114
267.04718 155
267.06714 77
280.06949 72
280.08432 116
293.12177 76
295.14478 82
309.10345 194
317.11636 70
323.15271 142
333.17322 104
339.14029 104
339.15939 150
339.1951 79
339.24619 77
Name: Trimethylolpropane trimethacrylate
PrecursorMZ: 361.1625
PrecursorType: [M+Na]+
IonMode: Positive
Formula: C18H26O6
SMILES: CCC(COC(=O)C(=C)C)(COC(=O)C(=C)C)COC(=O)C(=C)C
InChI: 
InChIKey: OKKRPWIIYQTPQF-UHFFFAOYSA-N
RetentionTime: 7.203378
CCS: 
CollisionEnergy: 20-40 eV
InstrumentType: UPLC-QTOF-MS
Comment: PI: Cristina Nerin; Data collector: QiZhi Su, GUIA, University of Zaragoza, Spain; Collision energy: 20-40 V; Instrument: Waters HPLC-QTOF-MS (Xevo G2 QTof); Ionization: ESI; Deconvoluted by MS-DIAL; Column: Waters AtlantisTM premier BEH C18 AX column (2.1 × 100mm x 1.7μm); Flow rate: 0.3mL/min; Mobile phase A and B are water and methnaol, respectively, both with 0.1% formic acid; Gradient elution: from A/B (95/5) to A/B (100/0) in 7min, kept for 4 min, then back to A/B (95/5) in 0.1 min, and maintained for additional 1.9 min (13min in total).; Injection volume: 10 μL
Num peaks: 16
69.03292 38422
70.03117 1455
70.03825 1457
79.0544 3234
81.00301 540
81.06952 10811
81.08807 10783
82.06519 645
82.07495 646
99.07855 446
99.08387 441
124.99055 5911
253.14435 15165
254.13162 1420
254.15143 1694
361.16104 5109
Name: 2-(Dimethylamino)ethyl methacrylate
PrecursorMZ: 180.1005
PrecursorType: [M+Na]+
IonMode: Positive
Formula: C8H15NO2
SMILES: CC(=C)C(=O)OCCN(C)C
InChI: 
InChIKey: JKNCOURZONDCGV-UHFFFAOYSA-N
RetentionTime: 5.455317
CCS: 
CollisionEnergy: 20-40 eV
InstrumentType: UPLC-QTOF-MS
Comment: PI: Cristina Nerin; Data collector: QiZhi Su, GUIA, University of Zaragoza, Spain; Collision energy: 20-40 V; Instrument: Waters HPLC-QTOF-MS (Xevo G2 QTof); Ionization: ESI; Deconvoluted by MS-DIAL; Column: Waters AtlantisTM premier BEH C18 AX column (2.1 × 100mm x 1.7μm); Flow rate: 0.3mL/min; Mobile phase A and B are water and methnaol, respectively, both with 0.1% formic acid; Gradient elution: from A/B (95/5) to A/B (100/0) in 7min, kept for 4 min, then back to A/B (95/5) in 0.1 min, and maintained for additional 1.9 min (13min in total).; Injection volume: 10 μL
Num peaks: 33
55.05413 4460
55.0591 4454
56.05801 266
59.013 451
70.98009 7109
76.03933 23291
77.04218 433
83.08524 23704
84.08965 1137
84.1036 1155
84.96006 4567
95.01139 246
95.01837 239
101.93497 247
101.95069 297
101.95506 284
104.00886 392
104.01797 391
104.02686 394
113.98695 3524
136.03711 754
136.05321 741
145.05989 501
146.011 779
158.10944 1888
158.11945 1926
158.13866 934
159.98065 387
159.99637 390
160.00578 380
173.56717 248
177.09332 2748
177.59114 483
Name: "Ethyl 2-cyano-3,3-diphenylacrylate"
PrecursorMZ: 577.2091
PrecursorType: [2M+Na]+
IonMode: Positive
Formula: C18H15NO2
SMILES: CCOC(=O)C(=C(C1=CC=CC=C1)C2=CC=CC=C2)C#N
InChI: 
InChIKey: IAJNXBNRYMEYAZ-UHFFFAOYSA-N
RetentionTime: 6.684554
CCS: 
CollisionEnergy: 20-40 eV
InstrumentType: UPLC-QTOF-MS
Comment: PI: Cristina Nerin; Data collector: QiZhi Su, GUIA, University of Zaragoza, Spain; Collision energy: 20-40 V; Instrument: Waters HPLC-QTOF-MS (Xevo G2 QTof); Ionization: ESI; Deconvoluted by MS-DIAL; Column: Waters AtlantisTM premier BEH C18 AX column (2.1 × 100mm x 1.7μm); Flow rate: 0.3mL/min; Mobile phase A and B are water and methnaol, respectively, both with 0.1% formic acid; Gradient elution: from A/B (95/5) to A/B (100/0) in 7min, kept for 4 min, then back to A/B (95/5) in 0.1 min, and maintained for additional 1.9 min (13min in total).; Injection volume: 10 μL
Num peaks: 29
77.0234 29725
77.03831 29718
104.04909 16049
105.03318 206822
105.05237 207176
106.03657 12182
129.034 6694
151.05345 22360
157.02846 7515
176.06166 104030
177.06911 170497
178.07416 55567
179.08295 9385
202.06554 11348
203.0728 171110
204.08041 319338
205.08392 49860
206.09532 26935
207.08243 5385
232.07585 478502
233.07877 81142
234.08299 6524
269.05948 13651
283.07458 13508
283.57764 5778
288.03317 16931
297.091 10349
297.59213 5871
334.07254 5650
Name: Trimethylolpropane trimethacrylate
PrecursorMZ: 699.3377
PrecursorType: [2M+Na]+
IonMode: Positive
Formula: C18H26O6
SMILES: CCC(COC(=O)C(=C)C)(COC(=O)C(=C)C)COC(=O)C(=C)C
InChI: 
InChIKey: OKKRPWIIYQTPQF-UHFFFAOYSA-N
RetentionTime: 7.203417
CCS: 
CollisionEnergy: 20-40 eV
InstrumentType: UPLC-QTOF-MS
Comment: PI: Cristina Nerin; Data collector: QiZhi Su, GUIA, University of Zaragoza, Spain; Collision energy: 20-40 V; Instrument: Waters HPLC-QTOF-MS (Xevo G2 QTof); Ionization: ESI; Deconvoluted by MS-DIAL; Column: Waters AtlantisTM premier BEH C18 AX column (2.1 × 100mm x 1.7μm); Flow rate: 0.3mL/min; Mobile phase A and B are water and methnaol, respectively, both with 0.1% formic acid; Gradient elution: from A/B (95/5) to A/B (100/0) in 7min, kept for 4 min, then back to A/B (95/5) in 0.1 min, and maintained for additional 1.9 min (13min in total).; Injection volume: 10 μL
Num peaks: 15
69.03273 175555
69.04807 175545
70.03615 6250
79.05386 22132
81.06925 52004
81.08848 52112
82.0731 2239
124.99089 5261
253.14307 36371
254.14804 4416
361.16098 19152
362.15686 2764
362.17554 2808
423.11591 3026
423.133 3053
Name: "6-Amino-1,3-dimethyluracil"
PrecursorMZ: 156.0768
PrecursorType: [M+H]+
IonMode: Positive
Formula: C6H9N3O2
SMILES: CN1C(=CC(=O)N(C1=O)C)N
InChI: 
InChIKey: VFGRNTYELNYSKJ-UHFFFAOYSA-N
RetentionTime: 2.36865
CCS: 
CollisionEnergy: 20-40 eV
InstrumentType: UPLC-QTOF-MS
Comment: PI: Cristina Nerin; Data collector: QiZhi Su, GUIA, University of Zaragoza, Spain; Collision energy: 20-40 V; Instrument: Waters HPLC-QTOF-MS (Xevo G2 QTof); Ionization: ESI; Deconvoluted by MS-DIAL; Column: Waters AtlantisTM premier BEH C18 AX column (2.1 × 100mm x 1.7μm); Flow rate: 0.3mL/min; Mobile phase A and B are water and methnaol, respectively, both with 0.1% formic acid; Gradient elution: from A/B (95/5) to A/B (100/0) in 7min, kept for 4 min, then back to A/B (95/5) in 0.1 min, and maintained for additional 1.9 min (13min in total).; Injection volume: 10 μL
Num peaks: 62
55.93494 50
56.04577 41
56.05002 92
57.03999 59
57.04551 174
57.05054 112
61.00438 36
61.00915 39
66.03201 56
68.01003 229
68.01556 167
68.02146 128
68.05 46
69.03709 59
70.02525 59
70.06805 58
72.03963 51
72.04638 411
75.05342 341
77.04205 76
78.96936 38
78.98539 57
79.01817 43
80.94582 34
81.04386 65
82.02926 1290
82.03846 128
83.03407 98
84.95265 55
84.96183 315
86.02626 74
86.95454 44
89.06808 451
89.07551 302
90.94592 35
95.05508 75
95.08593 108
96.04446 43
98.14653 48
99.05671 814
100.73956 33
101.95222 87
106.91556 52
107.91676 40
111.05186 46
111.0612 47
113.61086 38
116.05861 42
116.97827 55
118.09038 43
120.91748 38
123.07748 61
132.95366 41
134.04936 44
136.93095 42
137.00636 52
137.0656 47
139.03595 63
139.04829 42
145.09898 42
146.63306 39
156.07863 3193
Name: 2-(Dimethylamino)ethyl methacrylate
PrecursorMZ: 158.1182
PrecursorType: [M+H]+
IonMode: Positive
Formula: C8H15NO2
SMILES: CC(=C)C(=O)OCCN(C)C
InChI: 
InChIKey: JKNCOURZONDCGV-UHFFFAOYSA-N
RetentionTime: 5.447667
CCS: 
CollisionEnergy: 20-40 eV
InstrumentType: UPLC-QTOF-MS
Comment: PI: Cristina Nerin; Data collector: QiZhi Su, GUIA, University of Zaragoza, Spain; Collision energy: 20-40 V; Instrument: Waters HPLC-QTOF-MS (Xevo G2 QTof); Ionization: ESI; Deconvoluted by MS-DIAL; Column: Waters AtlantisTM premier BEH C18 AX column (2.1 × 100mm x 1.7μm); Flow rate: 0.3mL/min; Mobile phase A and B are water and methnaol, respectively, both with 0.1% formic acid; Gradient elution: from A/B (95/5) to A/B (100/0) in 7min, kept for 4 min, then back to A/B (95/5) in 0.1 min, and maintained for additional 1.9 min (13min in total).; Injection volume: 10 μL
Num peaks: 46
55.05502 1309
56.05167 84
56.05804 84
59.00427 71
59.00682 71
59.01344 82
59.0185 89
70.98052 3072
76.03932 6116
77.03162 134
77.0386 141
77.04494 141
83.06971 6925
83.0856 6922
84.08267 327
84.08632 327
84.09893 333
84.96006 1989
95.0191 87
98.9641 70
98.97744 92
98.98447 85
98.99212 76
101.00922 70
101.02885 74
104.02057 186
113.02186 105
113.02821 111
113.98707 1354
114.00317 1415
116.97212 154
116.98169 149
116.99217 148
127.95775 72
136.05139 193
144.0209 70
145.05322 164
145.05963 171
146.00304 364
146.01662 351
146.02742 314
156.98865 78
156.99916 81
158.1134 261
158.12482 383
158.13275 144
Name: "1,4-Butanediol dimethacrylate"
PrecursorMZ: 249.1107
PrecursorType: [M+Na]+
IonMode: Positive
Formula: C12H18O4
SMILES: CC(=C)C(=O)OCCCCOC(=O)C(=C)C
InChI: 
InChIKey: XOJWAAUYNWGQAU-UHFFFAOYSA-N
RetentionTime: 6.6256
CCS: 
CollisionEnergy: 20-40 eV
InstrumentType: UPLC-QTOF-MS
Comment: PI: Cristina Nerin; Data collector: QiZhi Su, GUIA, University of Zaragoza, Spain; Collision energy: 20-40 V; Instrument: Waters HPLC-QTOF-MS (Xevo G2 QTof); Ionization: ESI; Deconvoluted by MS-DIAL; Column: Waters AtlantisTM premier BEH C18 AX column (2.1 × 100mm x 1.7μm); Flow rate: 0.3mL/min; Mobile phase A and B are water and methnaol, respectively, both with 0.1% formic acid; Gradient elution: from A/B (95/5) to A/B (100/0) in 7min, kept for 4 min, then back to A/B (95/5) in 0.1 min, and maintained for additional 1.9 min (13min in total).; Injection volume: 10 μL
Num peaks: 39
55.05571 470
59.0434 69
59.04904 69
69.01973 1168
69.03481 1177
78.97796 160
78.98686 160
81.00163 478
81.01313 471
87.04461 636
95.06011 79
113.0433 121
113.05309 119
113.0621 135
113.06704 130
124.99044 6811
125.97905 198
125.9959 233
126.00278 224
128.99081 110
129.05183 69
141.07643 388
141.09483 425
151.10025 70
154.99484 90
155.00508 85
170.99806 86
171.00742 87
179.04364 69
193.01709 97
195.03595 84
195.04645 104
197.04536 168
197.05853 165
209.10966 82
211.03104 510
211.04131 501
249.10707 78
249.1205 77
Name: octaethylene glycol
PrecursorMZ: 393.2088
PrecursorType: [M+Na]+
IonMode: Positive
Formula: C16H34O9
SMILES: C(COCCOCCOCCOCCOCCOCCOCCO)O
InChI: 
InChIKey: GLZWNFNQMJAZGY-UHFFFAOYSA-N
RetentionTime: 3.91385
CCS: 
CollisionEnergy: 20-40 eV
InstrumentType: UPLC-QTOF-MS
Comment: PI: Cristina Nerin; Data collector: QiZhi Su, GUIA, University of Zaragoza, Spain; Collision energy: 20-40 V; Instrument: Waters HPLC-QTOF-MS (Xevo G2 QTof); Ionization: ESI; Deconvoluted by MS-DIAL; Column: Waters AtlantisTM premier BEH C18 AX column (2.1 × 100mm x 1.7μm); Flow rate: 0.3mL/min; Mobile phase A and B are water and methnaol, respectively, both with 0.1% formic acid; Gradient elution: from A/B (95/5) to A/B (100/0) in 7min, kept for 4 min, then back to A/B (95/5) in 0.1 min, and maintained for additional 1.9 min (13min in total).; Injection volume: 10 μL
Num peaks: 22
87.03356 879
87.04477 890
89.06028 18149
90.0647 911
100.9732 352
100.99094 358
100.99748 362
133.08649 7632
134.08075 576
134.08963 604
145.00687 447
145.02049 426
183.07736 637
183.08853 607
189.04424 353
205.09052 217
205.58464 464
233.06367 407
233.07242 475
371.22678 300
371.23938 252
393.20956 17517
Name: octaethylene glycol
PrecursorMZ: 409.1826
PrecursorType: [M+K]+
IonMode: Positive
Formula: C16H34O9
SMILES: C(COCCOCCOCCOCCOCCOCCOCCO)O
InChI: 
InChIKey: GLZWNFNQMJAZGY-UHFFFAOYSA-N
RetentionTime: 3.917667
CCS: 
CollisionEnergy: 20-40 eV
InstrumentType: UPLC-QTOF-MS
Comment: PI: Cristina Nerin; Data collector: QiZhi Su, GUIA, University of Zaragoza, Spain; Collision energy: 20-40 V; Instrument: Waters HPLC-QTOF-MS (Xevo G2 QTof); Ionization: ESI; Deconvoluted by MS-DIAL; Column: Waters AtlantisTM premier BEH C18 AX column (2.1 × 100mm x 1.7μm); Flow rate: 0.3mL/min; Mobile phase A and B are water and methnaol, respectively, both with 0.1% formic acid; Gradient elution: from A/B (95/5) to A/B (100/0) in 7min, kept for 4 min, then back to A/B (95/5) in 0.1 min, and maintained for additional 1.9 min (13min in total).; Injection volume: 10 μL
Num peaks: 32
87.04561 1298
89.06017 35437
89.07961 35447
90.06232 1495
90.06725 1498
100.9901 438
100.99783 453
133.08611 12474
134.08882 897
139.05228 406
145.01672 477
177.11235 1661
183.0605 433
183.07703 584
189.04073 454
189.04941 483
205.09142 2705
205.58549 450
205.59416 479
227.10365 389
227.11284 363
233.0647 730
233.07484 748
249.11357 393
271.12787 764
271.14615 634
371.22607 360
371.24399 358
393.20877 11565
394.21213 1582
409.16119 999
409.1835 1074
Name: nonaethylene glycol
PrecursorMZ: 415.2547
PrecursorType: [M+H]+
IonMode: Positive
Formula: C18H38O10
SMILES: C(COCCOCCOCCOCCOCCOCCOCCOCCO)O
InChI: 
InChIKey: YZUUTMGDONTGTN-UHFFFAOYSA-N
RetentionTime: 4.165617
CCS: 
CollisionEnergy: 20-40 eV
InstrumentType: UPLC-QTOF-MS
Comment: PI: Cristina Nerin; Data collector: QiZhi Su, GUIA, University of Zaragoza, Spain; Collision energy: 20-40 V; Instrument: Waters HPLC-QTOF-MS (Xevo G2 QTof); Ionization: ESI; Deconvoluted by MS-DIAL; Column: Waters AtlantisTM premier BEH C18 AX column (2.1 × 100mm x 1.7μm); Flow rate: 0.3mL/min; Mobile phase A and B are water and methnaol, respectively, both with 0.1% formic acid; Gradient elution: from A/B (95/5) to A/B (100/0) in 7min, kept for 4 min, then back to A/B (95/5) in 0.1 min, and maintained for additional 1.9 min (13min in total).; Injection volume: 10 μL
Num peaks: 20
87.046 3097
89.04391 62548
89.06081 62496
90.06434 2203
131.05833 840
131.07056 856
131.07712 860
133.08736 27097
134.09023 1935
134.09966 1964
134.10669 1673
177.11412 3851
205.08833 654
227.10555 3938
227.60265 863
227.61304 878
233.06093 770
233.07314 760
233.08882 676
415.25763 1547
Name: nonaethylene glycol
PrecursorMZ: 432.2815
PrecursorType: [M+NH4]+
IonMode: Positive
Formula: C18H38O10
SMILES: C(COCCOCCOCCOCCOCCOCCOCCOCCO)O
InChI: 
InChIKey: YZUUTMGDONTGTN-UHFFFAOYSA-N
RetentionTime: 4.161817
CCS: 
CollisionEnergy: 20-40 eV
InstrumentType: UPLC-QTOF-MS
Comment: PI: Cristina Nerin; Data collector: QiZhi Su, GUIA, University of Zaragoza, Spain; Collision energy: 20-40 V; Instrument: Waters HPLC-QTOF-MS (Xevo G2 QTof); Ionization: ESI; Deconvoluted by MS-DIAL; Column: Waters AtlantisTM premier BEH C18 AX column (2.1 × 100mm x 1.7μm); Flow rate: 0.3mL/min; Mobile phase A and B are water and methnaol, respectively, both with 0.1% formic acid; Gradient elution: from A/B (95/5) to A/B (100/0) in 7min, kept for 4 min, then back to A/B (95/5) in 0.1 min, and maintained for additional 1.9 min (13min in total).; Injection volume: 10 μL
Num peaks: 15
87.04585 3073
89.06064 62476
89.07755 62505
90.06149 2203
90.06782 2197
131.06955 834
131.07692 837
133.08669 26877
134.0909 1914
177.11395 3761
227.1049 3938
227.60664 863
233.06677 729
233.07951 766
415.25534 1036
Name: nonaethylene glycol
PrecursorMZ: 437.2369
PrecursorType: [M+Na]+
IonMode: Positive
Formula: C18H38O10
SMILES: C(COCCOCCOCCOCCOCCOCCOCCOCCO)O
InChI: 
InChIKey: YZUUTMGDONTGTN-UHFFFAOYSA-N
RetentionTime: 4.161817
CCS: 
CollisionEnergy: 20-40 eV
InstrumentType: UPLC-QTOF-MS
Comment: PI: Cristina Nerin; Data collector: QiZhi Su, GUIA, University of Zaragoza, Spain; Collision energy: 20-40 V; Instrument: Waters HPLC-QTOF-MS (Xevo G2 QTof); Ionization: ESI; Deconvoluted by MS-DIAL; Column: Waters AtlantisTM premier BEH C18 AX column (2.1 × 100mm x 1.7μm); Flow rate: 0.3mL/min; Mobile phase A and B are water and methnaol, respectively, both with 0.1% formic acid; Gradient elution: from A/B (95/5) to A/B (100/0) in 7min, kept for 4 min, then back to A/B (95/5) in 0.1 min, and maintained for additional 1.9 min (13min in total).; Injection volume: 10 μL
Num peaks: 21
87.04585 1650
89.06064 36620
89.07755 36632
90.06149 1359
90.06782 1365
131.06955 385
131.07692 387
133.08669 14228
134.0909 966
161.05238 479
161.06451 475
177.11395 1687
205.07822 534
205.09792 556
227.1049 3891
227.58746 554
227.60664 819
233.06677 489
233.07951 528
415.25534 645
437.23611 19249
Name: nonaethylene glycol
PrecursorMZ: 453.2106
PrecursorType: [M+K]+
IonMode: Positive
Formula: C18H38O10
SMILES: C(COCCOCCOCCOCCOCCOCCOCCOCCO)O
InChI: 
InChIKey: YZUUTMGDONTGTN-UHFFFAOYSA-N
RetentionTime: 4.1542
CCS: 
CollisionEnergy: 20-40 eV
InstrumentType: UPLC-QTOF-MS
Comment: PI: Cristina Nerin; Data collector: QiZhi Su, GUIA, University of Zaragoza, Spain; Collision energy: 20-40 V; Instrument: Waters HPLC-QTOF-MS (Xevo G2 QTof); Ionization: ESI; Deconvoluted by MS-DIAL; Column: Waters AtlantisTM premier BEH C18 AX column (2.1 × 100mm x 1.7μm); Flow rate: 0.3mL/min; Mobile phase A and B are water and methnaol, respectively, both with 0.1% formic acid; Gradient elution: from A/B (95/5) to A/B (100/0) in 7min, kept for 4 min, then back to A/B (95/5) in 0.1 min, and maintained for additional 1.9 min (13min in total).; Injection volume: 10 μL
Num peaks: 33
87.04585 978
89.06064 13672
89.07755 13681
90.06149 378
90.06782 376
100.97636 153
118.0902 175
131.05757 417
131.06955 447
131.07692 452
133.08669 9290
134.0909 770
145.01602 294
145.02531 276
161.04579 161
177.11395 1742
178.11772 138
178.12901 162
189.04343 228
205.07822 155
205.09792 143
221.12793 192
221.1398 333
277.09293 152
277.11404 207
293.05734 137
415.25534 373
437.23611 4540
438.22418 875
438.24234 1022
439.23843 180
453.2059 1241
453.22858 358
Name: decaethylene glycol
PrecursorMZ: 459.2811
PrecursorType: [M+H]+
IonMode: Positive
Formula: C20H42O11
SMILES: C(COCCOCCOCCOCCOCCOCCOCCOCCOCCO)O
InChI: 
InChIKey: DTPCFIHYWYONMD-UHFFFAOYSA-N
RetentionTime: 4.411167
CCS: 
CollisionEnergy: 20-40 eV
InstrumentType: UPLC-QTOF-MS
Comment: PI: Cristina Nerin; Data collector: QiZhi Su, GUIA, University of Zaragoza, Spain; Collision energy: 20-40 V; Instrument: Waters HPLC-QTOF-MS (Xevo G2 QTof); Ionization: ESI; Deconvoluted by MS-DIAL; Column: Waters AtlantisTM premier BEH C18 AX column (2.1 × 100mm x 1.7μm); Flow rate: 0.3mL/min; Mobile phase A and B are water and methnaol, respectively, both with 0.1% formic acid; Gradient elution: from A/B (95/5) to A/B (100/0) in 7min, kept for 4 min, then back to A/B (95/5) in 0.1 min, and maintained for additional 1.9 min (13min in total).; Injection volume: 10 μL
Num peaks: 18
87.04504 4253
89.06055 64762
89.07775 64817
90.06436 2572
131.07193 1473
133.08664 38211
134.07442 1983
134.08424 2204
134.09041 2202
175.09804 801
175.11356 745
177.11436 8091
221.13872 925
221.14684 939
249.11844 3520
315.15884 1749
459.27322 1280
459.29153 863
Name: decaethylene glycol
PrecursorMZ: 476.3076
PrecursorType: [M+NH4]+
IonMode: Positive
Formula: C20H42O11
SMILES: C(COCCOCCOCCOCCOCCOCCOCCOCCOCCO)O
InChI: 
InChIKey: DTPCFIHYWYONMD-UHFFFAOYSA-N
RetentionTime: 4.409258
CCS: 
CollisionEnergy: 20-40 eV
InstrumentType: UPLC-QTOF-MS
Comment: PI: Cristina Nerin; Data collector: QiZhi Su, GUIA, University of Zaragoza, Spain; Collision energy: 20-40 V; Instrument: Waters HPLC-QTOF-MS (Xevo G2 QTof); Ionization: ESI; Deconvoluted by MS-DIAL; Column: Waters AtlantisTM premier BEH C18 AX column (2.1 × 100mm x 1.7μm); Flow rate: 0.3mL/min; Mobile phase A and B are water and methnaol, respectively, both with 0.1% formic acid; Gradient elution: from A/B (95/5) to A/B (100/0) in 7min, kept for 4 min, then back to A/B (95/5) in 0.1 min, and maintained for additional 1.9 min (13min in total).; Injection volume: 10 μL
Num peaks: 18
87.04504 4253
89.06055 64762
89.07775 64817
90.06436 2572
131.07193 1473
133.08664 38211
134.07442 1983
134.08424 2204
134.09041 2202
175.09804 801
175.11356 745
177.11436 8091
221.13872 925
221.14684 939
249.11844 3520
315.15884 1749
459.27322 1886
459.29153 1881
Name: decaethylene glycol
PrecursorMZ: 481.2635
PrecursorType: [M+Na]+
IonMode: Positive
Formula: C20H42O11
SMILES: C(COCCOCCOCCOCCOCCOCCOCCOCCOCCO)O
InChI: 
InChIKey: DTPCFIHYWYONMD-UHFFFAOYSA-N
RetentionTime: 4.413067
CCS: 
CollisionEnergy: 20-40 eV
InstrumentType: UPLC-QTOF-MS
Comment: PI: Cristina Nerin; Data collector: QiZhi Su, GUIA, University of Zaragoza, Spain; Collision energy: 20-40 V; Instrument: Waters HPLC-QTOF-MS (Xevo G2 QTof); Ionization: ESI; Deconvoluted by MS-DIAL; Column: Waters AtlantisTM premier BEH C18 AX column (2.1 × 100mm x 1.7μm); Flow rate: 0.3mL/min; Mobile phase A and B are water and methnaol, respectively, both with 0.1% formic acid; Gradient elution: from A/B (95/5) to A/B (100/0) in 7min, kept for 4 min, then back to A/B (95/5) in 0.1 min, and maintained for additional 1.9 min (13min in total).; Injection volume: 10 μL
Num peaks: 31
89.04221 15003
89.0602 14857
90.05463 824
90.06261 812
90.07185 849
91.05778 246
91.07357 228
91.08309 210
100.98041 203
100.98818 193
100.99532 183
117.08958 151
131.06911 190
131.07733 196
133.08601 8447
134.06874 281
134.08615 557
134.09247 558
134.35127 334
177.11227 1352
178.09879 154
205.09196 170
221.12216 389
227.10004 191
227.10963 189
249.11588 209
249.13446 167
265.16406 168
459.27438 1209
460.28516 227
481.26001 14925
Name: undecaethylene glycol
PrecursorMZ: 503.3066
PrecursorType: [M+H]+
IonMode: Positive
Formula: C22H46O12
SMILES: C(COCCOCCOCCOCCOCCOCCOCCOCCOCCOCCO)O
InChI: 
InChIKey: PSVXZQVXSXSQRO-UHFFFAOYSA-N
RetentionTime: 4.617233
CCS: 
CollisionEnergy: 20-40 eV
InstrumentType: UPLC-QTOF-MS
Comment: PI: Cristina Nerin; Data collector: QiZhi Su, GUIA, University of Zaragoza, Spain; Collision energy: 20-40 V; Instrument: Waters HPLC-QTOF-MS (Xevo G2 QTof); Ionization: ESI; Deconvoluted by MS-DIAL; Column: Waters AtlantisTM premier BEH C18 AX column (2.1 × 100mm x 1.7μm); Flow rate: 0.3mL/min; Mobile phase A and B are water and methnaol, respectively, both with 0.1% formic acid; Gradient elution: from A/B (95/5) to A/B (100/0) in 7min, kept for 4 min, then back to A/B (95/5) in 0.1 min, and maintained for additional 1.9 min (13min in total).; Injection volume: 10 μL
Num peaks: 21
73.06574 663
73.07377 665
87.04527 3129
89.06052 45345
90.06418 1800
131.05602 1233
131.06384 1433
131.07288 1468
133.08676 32656
134.09039 1798
175.09705 477
177.11295 7432
178.10641 928
178.11641 924
221.1395 1161
221.15305 1170
249.11993 548
271.13281 3534
271.62985 964
271.63861 982
503.30731 4188
Name: tetraethylene glycol
PrecursorMZ: 195.123
PrecursorType: [M+H]+
IonMode: Positive
Formula: C8H18O5
SMILES: C(COCCOCCOCCO)O
InChI: 
InChIKey: UWHCKJMYHZGTIT-UHFFFAOYSA-N
RetentionTime: 2.353375
CCS: 
CollisionEnergy: 20-40 eV
InstrumentType: UPLC-QTOF-MS
Comment: PI: Cristina Nerin; Data collector: QiZhi Su, GUIA, University of Zaragoza, Spain; Collision energy: 20-40 V; Instrument: Waters HPLC-QTOF-MS (Xevo G2 QTof); Ionization: ESI; Deconvoluted by MS-DIAL; Column: Waters AtlantisTM premier BEH C18 AX column (2.1 × 100mm x 1.7μm); Flow rate: 0.3mL/min; Mobile phase A and B are water and methnaol, respectively, both with 0.1% formic acid; Gradient elution: from A/B (95/5) to A/B (100/0) in 7min, kept for 4 min, then back to A/B (95/5) in 0.1 min, and maintained for additional 1.9 min (13min in total).; Injection volume: 10 μL
Num peaks: 64
55.44054 38
57.03377 62
82.01734 66
83.0475 33
84.83405 40
84.96009 237
87.05214 67
88.04829 300
88.09436 33
88.98021 35
89.06062 2691
90.06439 56
90.77641 41
91.05418 67
91.06255 57
91.07104 33
93.07145 77
94.07951 43
95.08694 43
98.95822 74
100.99435 188
102.9474 47
103.03771 29
105.93716 45
105.94561 30
111.0151 55
114.56111 28
118.08743 30
118.97754 35
119.00159 50
124.99368 44
126.95744 39
128.95409 56
129.02237 28
130.94022 31
131.07266 33
133.08586 1202
133.09952 32
133.14693 36
134.08583 27
134.09297 43
136.01755 29
140.14301 27
141.02257 53
144.86766 32
145.01607 224
145.03168 108
149.01639 43
149.02536 51
151.11375 45
151.99251 76
153.90619 30
155.84862 44
160.99969 33
163.01456 66
163.9222 52
175.14653 30
177.11713 118
181.07262 29
182.11835 31
185.02075 38
186.90248 62
189.03671 44
189.04898 195
Name: undecaethylene glycol
PrecursorMZ: 520.3325
PrecursorType: [M+NH4]+
IonMode: Positive
Formula: C22H46O12
SMILES: C(COCCOCCOCCOCCOCCOCCOCCOCCOCCOCCO)O
InChI: 
InChIKey: PSVXZQVXSXSQRO-UHFFFAOYSA-N
RetentionTime: 4.617233
CCS: 
CollisionEnergy: 20-40 eV
InstrumentType: UPLC-QTOF-MS
Comment: PI: Cristina Nerin; Data collector: QiZhi Su, GUIA, University of Zaragoza, Spain; Collision energy: 20-40 V; Instrument: Waters HPLC-QTOF-MS (Xevo G2 QTof); Ionization: ESI; Deconvoluted by MS-DIAL; Column: Waters AtlantisTM premier BEH C18 AX column (2.1 × 100mm x 1.7μm); Flow rate: 0.3mL/min; Mobile phase A and B are water and methnaol, respectively, both with 0.1% formic acid; Gradient elution: from A/B (95/5) to A/B (100/0) in 7min, kept for 4 min, then back to A/B (95/5) in 0.1 min, and maintained for additional 1.9 min (13min in total).; Injection volume: 10 μL
Num peaks: 22
73.06574 663
73.07377 665
87.04527 3129
89.06052 45345
90.06418 1800
131.05602 1233
131.06384 1433
131.07288 1468
133.08676 32656
134.09039 1798
175.09705 477
177.11295 7432
178.10641 928
178.11641 924
221.1395 1161
221.15305 1170
249.11993 548
271.13281 3534
271.62985 964
271.63861 982
503.30731 1888
520.33655 560
Name: undecaethylene glycol
PrecursorMZ: 525.2877
PrecursorType: [M+Na]+
IonMode: Positive
Formula: C22H46O12
SMILES: C(COCCOCCOCCOCCOCCOCCOCCOCCOCCOCCO)O
InChI: 
InChIKey: PSVXZQVXSXSQRO-UHFFFAOYSA-N
RetentionTime: 4.619142
CCS: 
CollisionEnergy: 20-40 eV
InstrumentType: UPLC-QTOF-MS
Comment: PI: Cristina Nerin; Data collector: QiZhi Su, GUIA, University of Zaragoza, Spain; Collision energy: 20-40 V; Instrument: Waters HPLC-QTOF-MS (Xevo G2 QTof); Ionization: ESI; Deconvoluted by MS-DIAL; Column: Waters AtlantisTM premier BEH C18 AX column (2.1 × 100mm x 1.7μm); Flow rate: 0.3mL/min; Mobile phase A and B are water and methnaol, respectively, both with 0.1% formic acid; Gradient elution: from A/B (95/5) to A/B (100/0) in 7min, kept for 4 min, then back to A/B (95/5) in 0.1 min, and maintained for additional 1.9 min (13min in total).; Injection volume: 10 μL
Num peaks: 20
73.06563 426
87.04365 1859
89.06051 32432
90.06348 1208
131.07176 863
133.08673 21303
134.09084 1237
177.11348 4770
178.11528 403
178.13045 379
221.13811 589
221.1465 591
249.11475 397
271.12811 2926
271.14227 2909
271.63434 743
503.30853 3635
504.31204 858
520.33795 472
525.2879 31035
Name: undecaethylene glycol
PrecursorMZ: 541.26
PrecursorType: [M+K]+
IonMode: Positive
Formula: C22H46O12
SMILES: C(COCCOCCOCCOCCOCCOCCOCCOCCOCCOCCO)O
InChI: 
InChIKey: PSVXZQVXSXSQRO-UHFFFAOYSA-N
RetentionTime: 4.619142
CCS: 
CollisionEnergy: 20-40 eV
InstrumentType: UPLC-QTOF-MS
Comment: PI: Cristina Nerin; Data collector: QiZhi Su, GUIA, University of Zaragoza, Spain; Collision energy: 20-40 V; Instrument: Waters HPLC-QTOF-MS (Xevo G2 QTof); Ionization: ESI; Deconvoluted by MS-DIAL; Column: Waters AtlantisTM premier BEH C18 AX column (2.1 × 100mm x 1.7μm); Flow rate: 0.3mL/min; Mobile phase A and B are water and methnaol, respectively, both with 0.1% formic acid; Gradient elution: from A/B (95/5) to A/B (100/0) in 7min, kept for 4 min, then back to A/B (95/5) in 0.1 min, and maintained for additional 1.9 min (13min in total).; Injection volume: 10 μL
Num peaks: 27
73.06563 360
87.04365 1508
89.06051 30088
90.06348 1079
91.0652 344
91.07323 337
91.07796 350
131.07176 735
133.08673 19364
134.09084 1023
177.11348 4049
178.11528 372
178.13045 359
221.13811 435
221.1465 430
249.11475 327
271.12811 3038
271.14227 3048
271.63434 781
503.30853 3181
504.31204 713
520.33795 445
525.2879 23965
526.29041 5465
527.29565 1049
527.31348 744
541.26819 2370
Name: dodecaethylene glycol
PrecursorMZ: 547.3329
PrecursorType: [M+H]+
IonMode: Positive
Formula: C24H50O13
SMILES: C(COCCOCCOCCOCCOCCOCCOCCOCCOCCOCCOCCO)O
InChI: 
InChIKey: WRZXKWFJEFFURH-UHFFFAOYSA-N
RetentionTime: 4.7619
CCS: 
CollisionEnergy: 20-40 eV
InstrumentType: UPLC-QTOF-MS
Comment: PI: Cristina Nerin; Data collector: QiZhi Su, GUIA, University of Zaragoza, Spain; Collision energy: 20-40 V; Instrument: Waters HPLC-QTOF-MS (Xevo G2 QTof); Ionization: ESI; Deconvoluted by MS-DIAL; Column: Waters AtlantisTM premier BEH C18 AX column (2.1 × 100mm x 1.7μm); Flow rate: 0.3mL/min; Mobile phase A and B are water and methnaol, respectively, both with 0.1% formic acid; Gradient elution: from A/B (95/5) to A/B (100/0) in 7min, kept for 4 min, then back to A/B (95/5) in 0.1 min, and maintained for additional 1.9 min (13min in total).; Injection volume: 10 μL
Num peaks: 36
73.06267 479
73.06851 482
87.04486 3649
89.06052 35286
90.06551 1189
90.07619 1148
91.08067 359
117.08768 701
117.09456 709
131.07181 2160
133.08672 32777
134.09029 754
145.01712 901
145.02559 908
175.09769 818
175.10664 902
177.11357 9877
178.11896 1000
189.04546 725
221.13789 1006
233.07086 936
233.08118 860
265.15216 817
265.16611 1016
271.1326 605
293.14383 5755
293.63956 863
293.65207 817
294.14008 394
294.15158 397
309.19275 597
309.21158 451
353.22095 449
503.30151 500
503.3215 593
547.33368 9575
Name: dodecaethylene glycol
PrecursorMZ: 564.3599
PrecursorType: [M+NH4]+
IonMode: Positive
Formula: C24H50O13
SMILES: C(COCCOCCOCCOCCOCCOCCOCCOCCOCCOCCOCCO)O
InChI: 
InChIKey: WRZXKWFJEFFURH-UHFFFAOYSA-N
RetentionTime: 4.7619
CCS: 
CollisionEnergy: 20-40 eV
InstrumentType: UPLC-QTOF-MS
Comment: PI: Cristina Nerin; Data collector: QiZhi Su, GUIA, University of Zaragoza, Spain; Collision energy: 20-40 V; Instrument: Waters HPLC-QTOF-MS (Xevo G2 QTof); Ionization: ESI; Deconvoluted by MS-DIAL; Column: Waters AtlantisTM premier BEH C18 AX column (2.1 × 100mm x 1.7μm); Flow rate: 0.3mL/min; Mobile phase A and B are water and methnaol, respectively, both with 0.1% formic acid; Gradient elution: from A/B (95/5) to A/B (100/0) in 7min, kept for 4 min, then back to A/B (95/5) in 0.1 min, and maintained for additional 1.9 min (13min in total).; Injection volume: 10 μL
Num peaks: 39
73.06267 479
73.06851 482
87.04486 3649
89.06052 35286
90.06551 1189
90.07619 1148
91.08067 359
117.08768 701
117.09456 709
131.07181 2160
133.08672 32777
134.09029 754
145.01712 901
145.02559 908
175.09769 818
175.10664 902
177.11357 9877
178.11896 1000
189.04546 725
221.13789 1006
233.07086 936
233.08118 860
265.15216 817
265.16611 1016
271.1326 605
293.14383 5755
293.63956 863
293.65207 817
294.14008 394
294.15158 397
309.19275 597
309.21158 451
353.22095 449
503.30151 500
503.3215 593
547.33368 7335
548.33698 1633
564.34814 553
564.36542 1001
Name: dodecaethylene glycol
PrecursorMZ: 569.3145
PrecursorType: [M+Na]+
IonMode: Positive
Formula: C24H50O13
SMILES: C(COCCOCCOCCOCCOCCOCCOCCOCCOCCOCCOCCO)O
InChI: 
InChIKey: WRZXKWFJEFFURH-UHFFFAOYSA-N
RetentionTime: 4.76
CCS: 
CollisionEnergy: 20-40 eV
InstrumentType: UPLC-QTOF-MS
Comment: PI: Cristina Nerin; Data collector: QiZhi Su, GUIA, University of Zaragoza, Spain; Collision energy: 20-40 V; Instrument: Waters HPLC-QTOF-MS (Xevo G2 QTof); Ionization: ESI; Deconvoluted by MS-DIAL; Column: Waters AtlantisTM premier BEH C18 AX column (2.1 × 100mm x 1.7μm); Flow rate: 0.3mL/min; Mobile phase A and B are water and methnaol, respectively, both with 0.1% formic acid; Gradient elution: from A/B (95/5) to A/B (100/0) in 7min, kept for 4 min, then back to A/B (95/5) in 0.1 min, and maintained for additional 1.9 min (13min in total).; Injection volume: 10 μL
Num peaks: 27
87.04486 532
89.06069 9313
90.07713 397
131.07246 996
131.08969 1077
133.08693 9228
134.09113 517
145.01552 437
145.02289 410
145.03691 615
175.09775 570
175.11041 502
177.11383 4272
178.11833 517
189.04182 728
189.05029 727
221.1407 867
233.06102 543
233.07295 507
265.16812 562
271.13443 745
271.15253 423
293.65088 1565
547.33411 4813
548.33374 1303
564.36169 987
569.31659 37686
Name: dodecaethylene glycol
PrecursorMZ: 585.2866
PrecursorType: [M+K]+
IonMode: Positive
Formula: C24H50O13
SMILES: C(COCCOCCOCCOCCOCCOCCOCCOCCOCCOCCOCCO)O
InChI: 
InChIKey: WRZXKWFJEFFURH-UHFFFAOYSA-N
RetentionTime: 4.76
CCS: 
CollisionEnergy: 20-40 eV
InstrumentType: UPLC-QTOF-MS
Comment: PI: Cristina Nerin; Data collector: QiZhi Su, GUIA, University of Zaragoza, Spain; Collision energy: 20-40 V; Instrument: Waters HPLC-QTOF-MS (Xevo G2 QTof); Ionization: ESI; Deconvoluted by MS-DIAL; Column: Waters AtlantisTM premier BEH C18 AX column (2.1 × 100mm x 1.7μm); Flow rate: 0.3mL/min; Mobile phase A and B are water and methnaol, respectively, both with 0.1% formic acid; Gradient elution: from A/B (95/5) to A/B (100/0) in 7min, kept for 4 min, then back to A/B (95/5) in 0.1 min, and maintained for additional 1.9 min (13min in total).; Injection volume: 10 μL
Num peaks: 31
87.04483 4632
87.05178 4632
89.06071 48751
90.06364 2030
91.06342 510
91.0697 510
91.07616 496
91.08026 512
117.09087 550
131.07133 1938
133.08696 40773
134.09097 2572
175.0985 951
177.1133 9677
178.10504 709
178.11601 719
178.13593 653
221.14009 1658
265.16071 590
265.17896 618
271.11548 529
271.13211 603
293.14362 5782
293.64139 1494
293.66617 768
309.17664 671
309.19327 661
309.20786 717
503.30301 501
547.33423 1635
585.28326 4622
Name: HO-PEG13-OH
PrecursorMZ: 591.3597
PrecursorType: [M+H]+
IonMode: Positive
Formula: C26H54O14
SMILES: C(COCCOCCOCCOCCOCCOCCOCCOCCOCCOCCOCCOCCO)O
InChI: 
InChIKey: AKWFJQNBHYVIPY-UHFFFAOYSA-N
RetentionTime: 4.878016
CCS: 
CollisionEnergy: 20-40 eV
InstrumentType: UPLC-QTOF-MS
Comment: PI: Cristina Nerin; Data collector: QiZhi Su, GUIA, University of Zaragoza, Spain; Collision energy: 20-40 V; Instrument: Waters HPLC-QTOF-MS (Xevo G2 QTof); Ionization: ESI; Deconvoluted by MS-DIAL; Column: Waters AtlantisTM premier BEH C18 AX column (2.1 × 100mm x 1.7μm); Flow rate: 0.3mL/min; Mobile phase A and B are water and methnaol, respectively, both with 0.1% formic acid; Gradient elution: from A/B (95/5) to A/B (100/0) in 7min, kept for 4 min, then back to A/B (95/5) in 0.1 min, and maintained for additional 1.9 min (13min in total).; Injection volume: 10 μL
Num peaks: 30
87.04564 979
89.0611 10720
90.05191 478
90.0641 479
100.9936 114
101.00292 112
117.09343 137
131.07144 716
133.08684 9943
134.08679 470
134.09506 482
135.08278 128
135.09705 158
135.1091 140
175.09653 378
175.1095 406
177.11394 2726
178.11496 180
178.13153 187
221.14021 485
223.15121 129
223.16028 131
265.16077 220
265.17282 193
271.1326 116
293.64731 175
315.15942 1261
315.66031 392
548.32996 129
591.36017 5026
Name: HO-PEG13-OH
PrecursorMZ: 608.3873
PrecursorType: [M+NH4]+
IonMode: Positive
Formula: C26H54O14
SMILES: C(COCCOCCOCCOCCOCCOCCOCCOCCOCCOCCOCCOCCO)O
InChI: 
InChIKey: AKWFJQNBHYVIPY-UHFFFAOYSA-N
RetentionTime: 4.876117
CCS: 
CollisionEnergy: 20-40 eV
InstrumentType: UPLC-QTOF-MS
Comment: PI: Cristina Nerin; Data collector: QiZhi Su, GUIA, University of Zaragoza, Spain; Collision energy: 20-40 V; Instrument: Waters HPLC-QTOF-MS (Xevo G2 QTof); Ionization: ESI; Deconvoluted by MS-DIAL; Column: Waters AtlantisTM premier BEH C18 AX column (2.1 × 100mm x 1.7μm); Flow rate: 0.3mL/min; Mobile phase A and B are water and methnaol, respectively, both with 0.1% formic acid; Gradient elution: from A/B (95/5) to A/B (100/0) in 7min, kept for 4 min, then back to A/B (95/5) in 0.1 min, and maintained for additional 1.9 min (13min in total).; Injection volume: 10 μL
Num peaks: 37
73.06796 221
87.04575 1978
89.06083 15492
90.06204 935
90.06687 938
117.08739 353
117.09604 366
133.08652 15061
134.09047 1118
138.03239 155
175.08516 243
177.11395 5076
178.11827 481
179.11618 189
179.12798 180
219.11662 212
219.12802 218
221.13882 1108
223.14981 231
223.16206 227
233.07001 178
233.08263 199
265.14209 188
265.16797 330
265.18494 336
293.62967 177
293.64078 164
309.181 332
309.19574 261
315.15955 1449
315.65964 472
353.21902 244
591.34973 3989
591.37054 4204
592.35938 308
593.35559 192
608.38538 1794
Name: HO-PEG13-OH
PrecursorMZ: 613.3422
PrecursorType: [M+Na]+
IonMode: Positive
Formula: C26H54O14
SMILES: C(COCCOCCOCCOCCOCCOCCOCCOCCOCCOCCOCCOCCO)O
InChI: 
InChIKey: AKWFJQNBHYVIPY-UHFFFAOYSA-N
RetentionTime: 4.878016
CCS: 
CollisionEnergy: 20-40 eV
InstrumentType: UPLC-QTOF-MS
Comment: PI: Cristina Nerin; Data collector: QiZhi Su, GUIA, University of Zaragoza, Spain; Collision energy: 20-40 V; Instrument: Waters HPLC-QTOF-MS (Xevo G2 QTof); Ionization: ESI; Deconvoluted by MS-DIAL; Column: Waters AtlantisTM premier BEH C18 AX column (2.1 × 100mm x 1.7μm); Flow rate: 0.3mL/min; Mobile phase A and B are water and methnaol, respectively, both with 0.1% formic acid; Gradient elution: from A/B (95/5) to A/B (100/0) in 7min, kept for 4 min, then back to A/B (95/5) in 0.1 min, and maintained for additional 1.9 min (13min in total).; Injection volume: 10 μL
Num peaks: 21
87.04564 1020
89.0611 11194
90.05191 509
90.0641 511
131.07144 761
133.08684 10382
134.08679 488
134.09506 500
175.09653 404
175.1095 432
177.11394 2849
189.02995 403
221.14021 512
315.15942 1281
315.66031 398
591.36017 4826
592.36475 1161
608.37335 1516
608.39655 1676
609.39008 432
613.34302 32409
Name: HO-PEG13-OH
PrecursorMZ: 629.3151
PrecursorType: [M+K]+
IonMode: Positive
Formula: C26H54O14
SMILES: C(COCCOCCOCCOCCOCCOCCOCCOCCOCCOCCOCCOCCO)O
InChI: 
InChIKey: AKWFJQNBHYVIPY-UHFFFAOYSA-N
RetentionTime: 4.887533
CCS: 
CollisionEnergy: 20-40 eV
InstrumentType: UPLC-QTOF-MS
Comment: PI: Cristina Nerin; Data collector: QiZhi Su, GUIA, University of Zaragoza, Spain; Collision energy: 20-40 V; Instrument: Waters HPLC-QTOF-MS (Xevo G2 QTof); Ionization: ESI; Deconvoluted by MS-DIAL; Column: Waters AtlantisTM premier BEH C18 AX column (2.1 × 100mm x 1.7μm); Flow rate: 0.3mL/min; Mobile phase A and B are water and methnaol, respectively, both with 0.1% formic acid; Gradient elution: from A/B (95/5) to A/B (100/0) in 7min, kept for 4 min, then back to A/B (95/5) in 0.1 min, and maintained for additional 1.9 min (13min in total).; Injection volume: 10 μL
Num peaks: 51
87.04436 1052
87.05113 1066
88.03056 137
88.04769 113
89.06071 9630
90.06345 794
90.07013 799
91.06427 266
91.0751 311
91.08524 255
113.063 146
131.07202 1323
133.08717 6526
135.07867 225
135.08635 307
135.09846 124
145.0208 305
145.03421 374
175.09616 846
177.11388 1949
189.04372 293
189.05438 265
221.14232 335
221.16441 199
223.15686 106
265.14761 377
265.17786 265
293.62985 165
293.64319 159
293.65369 169
309.19684 362
315.15894 321
315.65039 231
315.66522 212
353.19681 143
441.26984 110
459.28665 97
503.29538 107
547.32104 214
547.33557 147
591.36151 1274
592.36963 447
593.3728 142
608.39117 327
609.39014 260
610.40228 135
613.34265 7599
614.34894 3328
615.34393 1440
615.36334 1190
629.31519 2938
Name: HO-PEG14-OH
PrecursorMZ: 635.3876
PrecursorType: [M+H]+
IonMode: Positive
Formula: C28H58O15
SMILES: C(COCCOCCOCCOCCOCCOCCOCCOCCOCCOCCOCCOCCOCCO)O
InChI: 
InChIKey: ILLKMACMBHTSHP-UHFFFAOYSA-N
RetentionTime: 4.986517
CCS: 
CollisionEnergy: 20-40 eV
InstrumentType: UPLC-QTOF-MS
Comment: PI: Cristina Nerin; Data collector: QiZhi Su, GUIA, University of Zaragoza, Spain; Collision energy: 20-40 V; Instrument: Waters HPLC-QTOF-MS (Xevo G2 QTof); Ionization: ESI; Deconvoluted by MS-DIAL; Column: Waters AtlantisTM premier BEH C18 AX column (2.1 × 100mm x 1.7μm); Flow rate: 0.3mL/min; Mobile phase A and B are water and methnaol, respectively, both with 0.1% formic acid; Gradient elution: from A/B (95/5) to A/B (100/0) in 7min, kept for 4 min, then back to A/B (95/5) in 0.1 min, and maintained for additional 1.9 min (13min in total).; Injection volume: 10 μL
Num peaks: 43
73.06554 178
73.07021 180
87.04485 1771
87.05178 1775
89.06039 13132
90.06207 392
90.0706 392
117.09229 269
131.06685 818
131.07423 810
133.08733 13570
134.08955 819
135.08952 183
135.10689 228
145.01907 435
161.12852 138
175.09541 605
177.11339 4349
178.11575 298
178.12602 299
189.04005 630
189.04883 634
196.0873 187
221.14069 879
233.06825 538
233.08472 479
265.17221 333
277.08319 212
277.09839 283
309.17719 292
309.19739 338
315.15186 372
315.16727 386
315.66104 152
337.17398 1653
337.66556 454
337.68149 472
338.1716 202
353.2178 207
353.23273 181
397.25671 144
635.36688 2092
635.39075 4052
Name: HO-PEG14-OH
PrecursorMZ: 652.4127
PrecursorType: [M+NH4]+
IonMode: Positive
Formula: C28H58O15
SMILES: C(COCCOCCOCCOCCOCCOCCOCCOCCOCCOCCOCCOCCOCCO)O
InChI: 
InChIKey: ILLKMACMBHTSHP-UHFFFAOYSA-N
RetentionTime: 4.986517
CCS: 
CollisionEnergy: 20-40 eV
InstrumentType: UPLC-QTOF-MS
Comment: PI: Cristina Nerin; Data collector: QiZhi Su, GUIA, University of Zaragoza, Spain; Collision energy: 20-40 V; Instrument: Waters HPLC-QTOF-MS (Xevo G2 QTof); Ionization: ESI; Deconvoluted by MS-DIAL; Column: Waters AtlantisTM premier BEH C18 AX column (2.1 × 100mm x 1.7μm); Flow rate: 0.3mL/min; Mobile phase A and B are water and methnaol, respectively, both with 0.1% formic acid; Gradient elution: from A/B (95/5) to A/B (100/0) in 7min, kept for 4 min, then back to A/B (95/5) in 0.1 min, and maintained for additional 1.9 min (13min in total).; Injection volume: 10 μL
Num peaks: 50
73.06554 227
73.07021 228
87.04485 1805
87.05178 1811
89.06039 13132
90.06207 367
90.0706 367
100.99394 159
117.09229 269
131.06685 842
131.07423 846
133.08733 13570
134.08955 850
135.08952 191
135.10689 228
145.01907 446
161.11604 139
161.12852 147
175.09541 612
177.11339 4349
178.11575 367
178.12602 362
189.04005 697
189.04883 701
196.0873 203
219.11166 154
219.1304 163
221.14069 783
233.06825 596
233.08472 526
240.1095 137
265.17221 318
277.08319 203
277.09839 271
309.17719 276
309.19739 315
315.15186 391
315.16727 386
337.17398 1664
337.66556 505
337.68149 468
338.1716 194
353.2178 235
353.23273 249
635.36688 2391
635.39075 3944
636.39154 1040
637.40491 157
652.41431 2422
652.46014 285
Name: HO-PEG14-OH
PrecursorMZ: 657.3695
PrecursorType: [M+Na]+
IonMode: Positive
Formula: C28H58O15
SMILES: C(COCCOCCOCCOCCOCCOCCOCCOCCOCCOCCOCCOCCOCCO)O
InChI: 
InChIKey: ILLKMACMBHTSHP-UHFFFAOYSA-N
RetentionTime: 4.992225
CCS: 
CollisionEnergy: 20-40 eV
InstrumentType: UPLC-QTOF-MS
Comment: PI: Cristina Nerin; Data collector: QiZhi Su, GUIA, University of Zaragoza, Spain; Collision energy: 20-40 V; Instrument: Waters HPLC-QTOF-MS (Xevo G2 QTof); Ionization: ESI; Deconvoluted by MS-DIAL; Column: Waters AtlantisTM premier BEH C18 AX column (2.1 × 100mm x 1.7μm); Flow rate: 0.3mL/min; Mobile phase A and B are water and methnaol, respectively, both with 0.1% formic acid; Gradient elution: from A/B (95/5) to A/B (100/0) in 7min, kept for 4 min, then back to A/B (95/5) in 0.1 min, and maintained for additional 1.9 min (13min in total).; Injection volume: 10 μL
Num peaks: 49
73.0281 624
73.03548 620
73.0664 241
73.07045 241
87.0406 1798
87.0455 1809
89.06054 11941
90.0637 505
90.06937 506
117.07864 323
117.09204 321
131.06682 898
131.07393 896
133.08679 12605
134.07681 744
134.09073 773
145.00963 467
145.01637 483
145.02611 478
175.09061 689
175.09737 682
175.10976 646
177.11337 3937
178.11691 294
189.04004 785
189.04662 783
196.0881 252
221.13026 893
221.13989 883
221.14995 904
233.07285 670
265.16974 452
277.09283 387
277.10413 371
309.19333 428
315.15494 345
315.16864 347
337.16873 1995
337.66833 612
353.224 285
635.38385 4452
635.40576 2164
636.36517 250
636.38538 1116
637.39349 276
652.38678 610
652.41345 2336
653.41864 767
657.36664 22382
Name: HO-PEG14-OH
PrecursorMZ: 673.3439
PrecursorType: [M+K]+
IonMode: Positive
Formula: C28H58O15
SMILES: C(COCCOCCOCCOCCOCCOCCOCCOCCOCCOCCOCCOCCOCCO)O
InChI: 
InChIKey: ILLKMACMBHTSHP-UHFFFAOYSA-N
RetentionTime: 5.00175
CCS: 
CollisionEnergy: 20-40 eV
InstrumentType: UPLC-QTOF-MS
Comment: PI: Cristina Nerin; Data collector: QiZhi Su, GUIA, University of Zaragoza, Spain; Collision energy: 20-40 V; Instrument: Waters HPLC-QTOF-MS (Xevo G2 QTof); Ionization: ESI; Deconvoluted by MS-DIAL; Column: Waters AtlantisTM premier BEH C18 AX column (2.1 × 100mm x 1.7μm); Flow rate: 0.3mL/min; Mobile phase A and B are water and methnaol, respectively, both with 0.1% formic acid; Gradient elution: from A/B (95/5) to A/B (100/0) in 7min, kept for 4 min, then back to A/B (95/5) in 0.1 min, and maintained for additional 1.9 min (13min in total).; Injection volume: 10 μL
Num peaks: 51
73.0281 459
73.03548 456
87.0406 1598
87.0455 1618
89.06054 11388
90.0637 520
90.06937 520
117.07864 299
117.09204 283
131.06682 861
131.07393 852
133.08679 11642
134.07681 744
134.09073 769
145.00963 411
145.01637 428
145.02611 423
175.09061 669
175.09737 660
175.10976 653
177.11337 3541
178.11691 318
189.04004 712
189.04662 711
221.13026 1047
221.13989 1040
221.14995 1071
233.07285 550
265.16974 473
277.09283 301
277.10413 315
309.19333 449
315.15494 319
315.16864 329
337.16873 1921
337.66833 595
353.224 291
635.38385 4393
635.40576 2162
636.36517 222
636.38538 1099
637.39349 233
652.38678 610
652.41345 2298
653.41864 820
657.36664 22072
658.37549 6064
659.36597 974
659.39203 457
673.33539 2950
673.36261 943
Name: tetraethylene glycol
PrecursorMZ: 217.1064
PrecursorType: [M+Na]+
IonMode: Positive
Formula: C8H18O5
SMILES: C(COCCOCCOCCO)O
InChI: 
InChIKey: UWHCKJMYHZGTIT-UHFFFAOYSA-N
RetentionTime: 2.349617
CCS: 
CollisionEnergy: 20-40 eV
InstrumentType: UPLC-QTOF-MS
Comment: PI: Cristina Nerin; Data collector: QiZhi Su, GUIA, University of Zaragoza, Spain; Collision energy: 20-40 V; Instrument: Waters HPLC-QTOF-MS (Xevo G2 QTof); Ionization: ESI; Deconvoluted by MS-DIAL; Column: Waters AtlantisTM premier BEH C18 AX column (2.1 × 100mm x 1.7μm); Flow rate: 0.3mL/min; Mobile phase A and B are water and methnaol, respectively, both with 0.1% formic acid; Gradient elution: from A/B (95/5) to A/B (100/0) in 7min, kept for 4 min, then back to A/B (95/5) in 0.1 min, and maintained for additional 1.9 min (13min in total).; Injection volume: 10 μL
Num peaks: 70
56.96997 44
59.05104 30
70.97668 35
74.95625 31
77.03786 34
84.95312 33
84.95983 283
87.04169 40
87.0476 157
89.06127 2875
90.0617 73
90.9583 35
92.80349 41
95.04813 50
96.04836 34
96.96915 29
98.09921 67
100.92876 106
100.95751 32
100.98967 252
100.99589 128
105.93444 95
109.06824 32
115.06253 65
116.9615 79
117.03593 29
117.07098 30
121.10104 108
123.02717 33
123.98518 45
124.95908 34
124.99581 32
127.62396 31
128.98668 49
130.00507 29
130.93129 36
131.07202 51
132.08698 42
133.06834 31
133.08704 1556
133.10884 38
135.10947 51
138.96196 87
143.00079 33
145.02002 292
147.0367 39
149.03384 39
151.00929 38
156.00777 33
156.8775 33
157.10632 37
158.97314 35
169.00359 63
175.10025 32
175.94485 42
176.02464 38
176.92638 69
177.10614 65
177.11491 33
181.08984 50
183.07451 49
183.58569 29
184.125 38
189.05109 54
189.09642 31
195.11823 52
196.1199 63
206.11819 52
217.09924 65
217.11742 63
Name: HO-PEG15-OH
PrecursorMZ: 679.4149
PrecursorType: [M+H]+
IonMode: Positive
Formula: C30H62O16
SMILES: C(COCCOCCOCCOCCOCCOCCOCCOCCOCCOCCOCCOCCOCCOCCO)O
InChI: 
InChIKey: OWTQQPNDSWCHOV-UHFFFAOYSA-N
RetentionTime: 5.074075
CCS: 
CollisionEnergy: 20-40 eV
InstrumentType: UPLC-QTOF-MS
Comment: PI: Cristina Nerin; Data collector: QiZhi Su, GUIA, University of Zaragoza, Spain; Collision energy: 20-40 V; Instrument: Waters HPLC-QTOF-MS (Xevo G2 QTof); Ionization: ESI; Deconvoluted by MS-DIAL; Column: Waters AtlantisTM premier BEH C18 AX column (2.1 × 100mm x 1.7μm); Flow rate: 0.3mL/min; Mobile phase A and B are water and methnaol, respectively, both with 0.1% formic acid; Gradient elution: from A/B (95/5) to A/B (100/0) in 7min, kept for 4 min, then back to A/B (95/5) in 0.1 min, and maintained for additional 1.9 min (13min in total).; Injection volume: 10 μL
Num peaks: 177
56.94041 16
56.96788 36
60.08128 14
62.70797 15
70.97743 22
70.98434 32
71.05173 19
71.09064 34
80.05565 55
81.06966 48
84.9536 87
84.96011 86
86.62285 17
87.04708 136
89.06094 1381
90.06263 186
90.06805 186
94.96019 14
94.96881 16
97.97249 30
100.96834 25
100.98188 62
100.98901 76
101.01131 32
102.0699 55
102.1311 48
102.13768 48
107.08237 20
107.09161 22
110.97102 19
112.97399 60
112.98674 25
113.10812 21
115.97762 14
116.05331 14
117.02893 25
117.03561 16
117.07395 40
117.09295 47
121.1007 23
124.0799 28
124.57428 32
127.04243 15
128.01181 15
129.0224 77
129.03223 44
129.0957 16
130.97525 16
131.00829 18
131.07014 63
133.0766 992
133.08733 1000
134.08795 28
134.93701 22
138.98898 14
139.04907 14
142.07455 21
142.99577 16
144.99968 123
145.01482 137
145.02669 133
145.09021 32
145.10078 16
148.00227 15
148.04384 20
149.006 33
149.02274 14
149.06685 19
152.07698 28
157.07457 25
157.09171 38
159.06807 36
159.12279 17
161.08006 14
165.05067 29
167.00215 25
167.03052 18
169.05289 14
169.06187 22
169.32497 15
172.03307 14
172.04521 16
175.09599 48
175.10283 55
177.10513 348
177.11449 317
178.12331 35
180.9989 14
183.07936 24
185.06372 19
185.13914 22
187.06247 82
187.07513 91
189.02786 161
189.0435 193
189.05678 200
189.07294 36
194.03148 14
194.06233 15
196.07404 61
201.07492 25
203.05 14
203.09399 39
204.09721 23
207.09196 14
210.13313 17
213.16328 29
213.18137 27
218.09735 51
219.13472 47
221.14012 180
233.07166 273
234.0726 17
239.15149 14
239.15883 16
240.10408 30
240.62421 18
245.08783 27
249.11537 28
259.09399 20
262.11139 15
263.08392 22
265.16071 88
265.16992 91
271.15466 19
277.11386 73
284.63989 19
291.9519 39
291.96411 27
309.20917 45
310.19275 24
315.14047 29
327.00394 23
337.16888 71
337.25211 32
337.65799 19
338.25281 16
339.28711 21
353.20676 31
359.17691 284
359.19467 160
359.67572 172
361.2821 14
362.18628 20
370.67267 18
371.1673 23
380.18719 15
382.02783 18
396.1969 16
410.30225 15
419.21481 19
435.32394 19
436.21918 27
441.27173 32
444.09424 15
453.3399 17
461.02411 15
476.29401 18
476.78372 21
478.51358 21
481.24835 27
482.25146 18
507.10257 14
508.27756 15
519.22583 17
539.28729 19
554.22461 28
554.25171 45
555.24353 40
569.32941 50
579.8363 16
583.34015 16
614.3598 36
638.94098 14
673.34851 20
679.3974 205
679.41803 428
Name: HO-PEG15-OH
PrecursorMZ: 696.4385
PrecursorType: [M+NH4]+
IonMode: Positive
Formula: C30H62O16
SMILES: C(COCCOCCOCCOCCOCCOCCOCCOCCOCCOCCOCCOCCOCCOCCO)O
InChI: 
InChIKey: OWTQQPNDSWCHOV-UHFFFAOYSA-N
RetentionTime: 5.072175
CCS: 
CollisionEnergy: 20-40 eV
InstrumentType: UPLC-QTOF-MS
Comment: PI: Cristina Nerin; Data collector: QiZhi Su, GUIA, University of Zaragoza, Spain; Collision energy: 20-40 V; Instrument: Waters HPLC-QTOF-MS (Xevo G2 QTof); Ionization: ESI; Deconvoluted by MS-DIAL; Column: Waters AtlantisTM premier BEH C18 AX column (2.1 × 100mm x 1.7μm); Flow rate: 0.3mL/min; Mobile phase A and B are water and methnaol, respectively, both with 0.1% formic acid; Gradient elution: from A/B (95/5) to A/B (100/0) in 7min, kept for 4 min, then back to A/B (95/5) in 0.1 min, and maintained for additional 1.9 min (13min in total).; Injection volume: 10 μL
Num peaks: 97
73.0285 176
73.06693 108
80.05403 112
87.04121 579
87.04789 575
89.04499 4232
89.06084 4184
91.06418 47
91.07006 53
91.07499 63
102.06939 267
105.93835 48
111.08438 47
117.08737 87
117.09837 116
117.11178 121
118.07796 59
118.08604 57
118.09383 58
124.08079 95
124.0865 95
131.0497 164
131.06757 253
131.08208 253
133.08736 4183
134.07957 226
134.09251 240
135.07953 70
135.0925 111
145.01572 77
145.02275 72
161.04243 45
161.1179 44
166.10561 54
174.07437 48
175.08061 210
175.0995 223
177.10306 1477
177.1144 1433
178.11159 166
178.12206 172
179.13336 50
189.03145 92
189.04669 142
190.04877 52
196.0825 78
196.09319 84
218.10002 51
219.11942 59
221.13931 306
221.15305 240
222.14651 84
223.14445 96
233.06691 297
233.07755 314
233.0863 351
240.11986 57
265.15326 174
265.16498 214
265.1813 218
277.08603 107
277.1015 132
309.18863 164
309.20084 172
321.11255 47
337.15958 110
337.27109 71
337.67609 55
353.20688 106
353.22507 122
359.18207 877
359.68137 261
360.17871 61
362.19247 45
370.17383 83
397.2431 93
437.2251 75
481.24942 126
485.28906 57
485.30649 53
525.27209 103
525.29358 216
526.28668 60
569.31195 256
569.32941 336
570.315 103
613.32709 146
635.35809 50
635.38397 66
636.39874 43
679.41302 1569
680.41138 368
680.43732 180
681.41711 151
681.44989 69
696.4328 1946
696.46777 712
Name: HO-PEG15-OH
PrecursorMZ: 701.3922
PrecursorType: [M+Na]+
IonMode: Positive
Formula: C30H62O16
SMILES: C(COCCOCCOCCOCCOCCOCCOCCOCCOCCOCCOCCOCCOCCOCCO)O
InChI: 
InChIKey: OWTQQPNDSWCHOV-UHFFFAOYSA-N
RetentionTime: 5.072175
CCS: 
CollisionEnergy: 20-40 eV
InstrumentType: UPLC-QTOF-MS
Comment: PI: Cristina Nerin; Data collector: QiZhi Su, GUIA, University of Zaragoza, Spain; Collision energy: 20-40 V; Instrument: Waters HPLC-QTOF-MS (Xevo G2 QTof); Ionization: ESI; Deconvoluted by MS-DIAL; Column: Waters AtlantisTM premier BEH C18 AX column (2.1 × 100mm x 1.7μm); Flow rate: 0.3mL/min; Mobile phase A and B are water and methnaol, respectively, both with 0.1% formic acid; Gradient elution: from A/B (95/5) to A/B (100/0) in 7min, kept for 4 min, then back to A/B (95/5) in 0.1 min, and maintained for additional 1.9 min (13min in total).; Injection volume: 10 μL
Num peaks: 155
56.94041 19
56.96788 33
70.97743 86
70.98434 95
71.09064 18
73.02503 69
73.03082 58
80.05565 55
81.06966 38
84.9536 195
84.96011 185
87.04708 138
89.06094 1237
90.06263 183
90.06805 183
91.05453 21
100.96834 27
100.98188 68
100.98901 72
102.0699 58
102.1311 40
102.13768 40
107.08237 29
107.09161 30
111.05392 18
112.97399 39
112.98674 17
113.04465 17
113.05457 19
116.05331 19
117.02893 23
117.03561 20
117.07395 41
117.09295 43
121.1007 22
124.0799 41
124.57428 24
129.0224 148
129.03223 144
131.07014 78
133.0766 1002
133.08733 989
134.08795 46
134.93701 18
144.99968 119
145.01482 136
145.02669 129
145.09021 29
147.03076 35
148.04384 20
149.006 17
149.06685 22
149.10385 20
152.07698 33
157.07457 31
157.09171 44
159.06807 28
159.10233 24
159.12279 17
161.08006 24
165.05067 28
167.00215 23
169.05289 19
169.06187 28
172.04521 18
174.09233 17
175.09599 55
175.10283 60
176.01363 27
176.0228 27
176.09734 18
176.11829 18
177.10513 328
177.11449 312
178.12331 37
183.07936 30
185.06372 21
185.13914 26
187.06247 162
187.07513 179
189.02786 155
189.0435 182
189.05678 187
189.07294 34
196.07404 56
201.07492 20
203.09399 29
204.09721 22
208.03867 19
213.16328 28
213.18137 26
218.09735 46
219.13472 50
221.14012 145
233.07166 274
234.0726 23
240.10408 36
240.62421 18
245.08783 18
249.11537 31
259.09399 19
263.08392 17
265.16071 69
265.16992 71
277.11386 73
284.63989 17
291.9519 40
291.96411 26
309.20917 42
310.19275 21
315.14047 29
327.00394 21
337.16888 62
337.25211 52
337.65799 17
339.28711 17
353.20676 20
359.17691 313
359.19467 191
359.67572 176
362.18628 23
371.1673 17
382.02783 18
435.32394 34
436.21918 28
441.27173 28
453.3399 17
462.27084 25
463.2395 17
476.29401 18
476.78372 18
478.51358 17
481.24835 26
539.28729 20
547.32874 18
554.22461 57
554.25171 82
555.24353 38
569.32941 47
614.3598 32
673.34851 20
679.3974 249
679.41803 363
680.37067 22
680.40918 82
680.43982 37
681.41962 17
687.38184 19
696.41132 166
696.43817 370
697.38434 17
697.43292 89
698.43469 35
701.37164 1666
701.39789 1667
Name: HO-PEG16-OH
PrecursorMZ: 740.4649
PrecursorType: [M+NH4]+
IonMode: Positive
Formula: C32H66O17
SMILES: C(COCCOCCOCCOCCOCCOCCOCCOCCOCCOCCOCCOCCOCCOCCOCCO)O
InChI: 
InChIKey: DHORSBRLGKJPFC-UHFFFAOYSA-N
RetentionTime: 5.1888
CCS: 
CollisionEnergy: 20-40 eV
InstrumentType: UPLC-QTOF-MS
Comment: PI: Cristina Nerin; Data collector: QiZhi Su, GUIA, University of Zaragoza, Spain; Collision energy: 20-40 V; Instrument: Waters HPLC-QTOF-MS (Xevo G2 QTof); Ionization: ESI; Deconvoluted by MS-DIAL; Column: Waters AtlantisTM premier BEH C18 AX column (2.1 × 100mm x 1.7μm); Flow rate: 0.3mL/min; Mobile phase A and B are water and methnaol, respectively, both with 0.1% formic acid; Gradient elution: from A/B (95/5) to A/B (100/0) in 7min, kept for 4 min, then back to A/B (95/5) in 0.1 min, and maintained for additional 1.9 min (13min in total).; Injection volume: 10 μL
Num peaks: 162
71.04598 46
71.05185 43
73.02269 230
73.03261 227
73.06415 117
77.0416 51
80.04791 73
80.05521 88
80.06059 88
80.07114 82
84.96122 192
87.04498 512
88.04623 40
88.05302 44
89.04521 3473
89.06107 3546
89.06905 3548
90.05634 204
90.06175 204
90.06662 205
91.04426 48
91.05042 45
91.05801 68
91.06693 69
91.08045 60
98.96203 55
98.96636 49
100.99125 118
101.01044 80
102.06482 208
102.07339 210
102.5759 36
103.04038 38
113.05437 41
113.06497 39
117.08014 58
117.08897 82
119.08273 42
119.08903 43
124.08086 174
131.06837 386
131.08113 385
132.07483 38
133.08725 3173
133.58548 48
134.07182 218
134.08485 195
134.09122 199
135.09332 75
135.11296 77
135.12367 61
139.04631 92
144.06569 89
144.0732 84
144.08521 94
145.00783 255
145.02097 256
145.02748 249
147.03285 56
147.05028 56
147.10493 37
152.04893 50
152.06219 52
159.04036 37
161.0495 47
161.06487 46
174.07935 121
175.09435 173
175.10368 183
176.09923 54
177.10762 1055
177.11945 1063
178.11336 75
179.12494 50
179.13907 38
183.08153 97
189.04132 418
189.05048 436
196.06784 105
196.08034 139
196.59047 69
196.59586 69
199.14954 36
218.09569 94
218.10811 89
219.10643 68
219.11995 88
221.14107 287
223.14099 57
223.16386 60
233.07545 535
238.56779 36
240.11452 176
259.08755 93
262.10461 45
262.12955 81
265.15598 123
265.17319 152
277.08746 234
277.10483 273
277.12424 110
295.09378 39
307.16946 45
309.17465 52
309.19269 128
319.25198 43
321.12582 106
321.1387 84
337.23764 99
337.25089 75
349.19031 36
353.20471 87
353.2179 113
353.23151 92
359.18945 78
365.13083 66
365.14688 71
370.16507 39
381.16196 36
381.18839 1814
381.20236 1812
381.69647 536
382.2059 156
384.20609 274
384.70667 86
392.16333 87
392.18149 119
392.67596 58
392.6972 56
397.23233 105
397.25305 80
409.1817 44
415.24884 44
453.19165 42
453.22 58
459.27527 36
462.2702 58
463.25143 111
463.27014 116
475.31281 36
477.24445 67
507.26584 112
507.29129 117
525.27832 177
525.30084 143
526.29004 54
541.27271 58
551.31226 36
554.25586 54
569.31342 176
570.3299 45
613.34296 319
614.3432 51
657.36011 67
723.39655 183
723.44299 1455
724.41687 133
724.44275 553
725.43536 80
725.46362 47
731.41022 42
740.4679 2585
Name: HO-PEG16-OH
PrecursorMZ: 745.4199
PrecursorType: [M+Na]+
IonMode: Positive
Formula: C32H66O17
SMILES: C(COCCOCCOCCOCCOCCOCCOCCOCCOCCOCCOCCOCCOCCOCCOCCO)O
InChI: 
InChIKey: DHORSBRLGKJPFC-UHFFFAOYSA-N
RetentionTime: 5.184983
CCS: 
CollisionEnergy: 20-40 eV
InstrumentType: UPLC-QTOF-MS
Comment: PI: Cristina Nerin; Data collector: QiZhi Su, GUIA, University of Zaragoza, Spain; Collision energy: 20-40 V; Instrument: Waters HPLC-QTOF-MS (Xevo G2 QTof); Ionization: ESI; Deconvoluted by MS-DIAL; Column: Waters AtlantisTM premier BEH C18 AX column (2.1 × 100mm x 1.7μm); Flow rate: 0.3mL/min; Mobile phase A and B are water and methnaol, respectively, both with 0.1% formic acid; Gradient elution: from A/B (95/5) to A/B (100/0) in 7min, kept for 4 min, then back to A/B (95/5) in 0.1 min, and maintained for additional 1.9 min (13min in total).; Injection volume: 10 μL
Num peaks: 101
73.02816 245
73.0611 91
73.06692 87
80.05032 91
80.05627 102
84.95805 189
84.96349 193
87.04523 223
87.05408 226
89.06019 1502
90.06397 113
90.07444 110
100.98769 62
100.99563 73
102.05715 232
102.06791 235
124.0814 187
124.08825 189
131.07005 249
133.08742 1004
133.10194 905
134.09061 80
144.07243 115
144.07933 101
145.01271 180
145.02037 183
161.04546 66
174.07135 118
174.0793 110
175.09499 107
175.10872 111
177.11212 489
177.12257 514
189.02634 232
189.04387 319
189.06868 73
196.08096 118
196.09686 106
218.09476 115
218.11136 99
221.1418 166
223.14487 61
233.05127 248
233.07568 524
233.09361 317
240.10925 151
240.12143 160
259.08429 73
259.099 70
262.12799 80
262.13739 83
265.16656 92
277.09824 248
309.18509 85
309.19653 69
321.11554 104
321.13434 107
337.24442 79
337.25931 76
359.17801 210
381.19028 1890
381.69949 575
382.18768 133
384.1918 192
384.2186 202
384.69406 85
384.71371 87
392.1864 135
392.67847 82
397.22531 80
397.24466 93
453.21945 73
462.26419 74
462.28333 96
463.26343 90
477.24515 85
507.25354 73
507.27139 133
507.30298 76
525.28827 202
541.25775 67
554.24091 89
569.31 244
569.32739 244
570.31512 66
613.33258 345
613.36066 285
614.34406 87
641.33087 160
641.35431 135
723.43726 1493
723.46313 421
724.44324 503
725.44727 86
740.46143 1955
741.44897 285
741.47327 664
741.50037 112
742.46136 158
742.48523 107
745.42047 6039
Name: HO-PEG17-OH
PrecursorMZ: 784.4901
PrecursorType: [M+NH4]+
IonMode: Positive
Formula: C34H70O18
SMILES: C(COCCOCCOCCOCCOCCOCCOCCOCCOCCOCCOCCOCCOCCOCCOCCOCCO)O
InChI: 
InChIKey: NIELXDCPHZJHGM-UHFFFAOYSA-N
RetentionTime: 5.234483
CCS: 
CollisionEnergy: 20-40 eV
InstrumentType: UPLC-QTOF-MS
Comment: PI: Cristina Nerin; Data collector: QiZhi Su, GUIA, University of Zaragoza, Spain; Collision energy: 20-40 V; Instrument: Waters HPLC-QTOF-MS (Xevo G2 QTof); Ionization: ESI; Deconvoluted by MS-DIAL; Column: Waters AtlantisTM premier BEH C18 AX column (2.1 × 100mm x 1.7μm); Flow rate: 0.3mL/min; Mobile phase A and B are water and methnaol, respectively, both with 0.1% formic acid; Gradient elution: from A/B (95/5) to A/B (100/0) in 7min, kept for 4 min, then back to A/B (95/5) in 0.1 min, and maintained for additional 1.9 min (13min in total).; Injection volume: 10 μL
Num peaks: 251
55.05218 16
73.02879 192
73.06635 73
75.03297 24
84.95547 150
84.96312 150
84.97421 162
85.06535 35
87.0444 202
88.04843 22
89.06065 1424
91.05481 31
91.07809 16
93.07218 59
95.04808 17
97.06964 19
98.95965 17
100.99281 63
101.06093 20
102.06698 185
105.02345 18
111.01375 70
111.03397 42
113.02361 118
113.04482 136
113.06277 36
113.96021 24
113.97296 16
115.0032 31
115.01239 37
115.0648 52
115.07736 33
117.09141 21
118.08759 88
119.08308 29
120.02714 15
124.07822 109
127.01326 20
127.0181 19
129.02701 65
129.04228 76
131.0672 158
131.07451 136
131.09169 114
133.08801 1292
134.09808 36
135.10153 46
140.90196 15
144.05351 15
144.07094 38
144.08041 36
145.01357 134
145.01965 135
145.02924 120
145.04367 21
145.08824 24
147.04291 38
148.07259 19
154.52127 32
155.08986 55
155.1013 59
157.03651 80
157.05655 98
161.04236 48
163.03928 22
166.09766 22
167.09248 17
173.13094 15
174.07552 66
175.06381 46
175.08759 124
175.09668 119
177.10985 507
177.1174 514
177.61967 28
178.11169 44
179.1138 15
182.05673 16
183.06415 25
183.07492 31
185.08984 20
187.04079 25
188.08989 26
188.1024 25
189.04208 218
189.05272 224
191.03735 19
195.1277 25
196.08345 90
196.59129 28
197.11461 19
201.07591 76
201.08849 63
203.03351 22
209.13539 40
215.0551 37
217.04823 17
217.11636 16
218.09459 118
218.10246 121
218.60143 18
219.12013 73
221.13911 121
221.14632 113
223.15625 26
229.15892 19
233.06035 260
233.07463 279
233.0838 294
234.07318 25
236.06693 43
236.07809 20
237.13145 30
238.16695 21
240.10277 48
240.12227 63
240.61812 31
242.09251 19
243.13197 24
247.09155 31
259.08905 55
262.11743 67
263.10602 18
265.1622 106
277.08389 128
277.09628 142
277.11249 145
284.13452 42
284.147 46
286.57364 15
295.23013 29
303.12024 17
306.14908 23
309.1998 33
319.23325 17
321.12524 52
324.13901 17
335.09607 18
337.10315 15
337.23456 59
337.27359 36
338.25729 44
347.13861 32
348.15347 15
353.21756 26
365.14478 16
378.21753 16
381.19675 173
381.69754 81
382.21329 36
385.26974 26
386.2446 24
386.2569 23
389.61615 19
393.21649 65
396.21509 28
397.25122 51
403.17813 153
403.20578 1143
403.24796 45
403.70761 367
403.7211 347
404.21353 80
404.71161 34
405.21698 33
406.21814 197
406.70773 74
406.72549 64
407.2092 35
414.20734 134
414.69138 64
414.71158 59
422.18469 17
432.21674 39
435.22101 33
437.23026 71
441.27927 25
441.2951 18
443.23877 32
443.25372 17
453.19894 31
453.34387 41
462.25818 74
462.27106 109
463.26343 29
475.31656 92
479.23587 22
481.27621 22
482.27832 26
485.30014 25
499.24484 55
499.26462 53
499.77829 32
502.76111 16
521.75653 16
523.28888 19
525.26953 55
525.29419 33
536.22961 15
541.24756 16
541.2666 35
547.33899 21
554.19043 16
554.23828 190
554.25623 110
555.2218 35
555.23883 28
555.26996 53
556.24414 31
569.27448 27
569.32648 148
570.21161 20
570.31598 78
585.31531 20
595.3327 34
606.35828 16
611.31769 45
611.36835 50
613.34973 224
614.32874 36
614.35205 29
629.32983 19
655.39569 15
657.35852 97
658.37158 39
658.40277 24
680.38116 22
680.41864 23
685.32288 40
685.35522 157
685.38177 100
686.36017 57
687.33643 37
701.32043 39
701.33917 38
723.42926 31
745.40424 26
761.40424 25
767.44806 260
767.48053 325
768.45801 140
768.48999 77
769.46204 42
769.48737 32
770.45215 27
775.40094 27
775.43445 70
776.24506 15
776.42322 27
784.48645 414
784.51404 291
Name: pentaethylene glycol
PrecursorMZ: 239.1503
PrecursorType: [M+H]+
IonMode: Positive
Formula: C10H22O6
SMILES: C(COCCOCCOCCOCCO)O
InChI: 
InChIKey: JLFNLZLINWHATN-UHFFFAOYSA-N
RetentionTime: 2.77835
CCS: 
CollisionEnergy: 20-40 eV
InstrumentType: UPLC-QTOF-MS
Comment: PI: Cristina Nerin; Data collector: QiZhi Su, GUIA, University of Zaragoza, Spain; Collision energy: 20-40 V; Instrument: Waters HPLC-QTOF-MS (Xevo G2 QTof); Ionization: ESI; Deconvoluted by MS-DIAL; Column: Waters AtlantisTM premier BEH C18 AX column (2.1 × 100mm x 1.7μm); Flow rate: 0.3mL/min; Mobile phase A and B are water and methnaol, respectively, both with 0.1% formic acid; Gradient elution: from A/B (95/5) to A/B (100/0) in 7min, kept for 4 min, then back to A/B (95/5) in 0.1 min, and maintained for additional 1.9 min (13min in total).; Injection volume: 10 μL
Num peaks: 165
56.94331 22
56.96658 28
64.64462 28
66.45866 42
67.04739 21
67.05294 31
68.97878 24
69.03402 36
69.04336 46
69.07375 59
72.04794 31
72.08099 24
72.94247 159
72.98367 38
72.98827 33
73.03381 39
73.94418 24
74.09347 41
74.95058 25
76.93109 28
77.04418 24
78.98302 43
79.05329 60
80.0555 31
81.03327 28
81.95281 23
83.05455 33
83.06221 28
84.96017 220
84.96587 149
85.93853 25
86.9516 23
87.04195 42
87.04678 119
88.9693 77
89.05413 332
89.05973 1037
89.0665 344
90.06046 38
90.25288 21
90.36747 32
93.0138 112
94.04184 27
96.96333 83
97.98118 25
98.96603 123
98.97401 22
99.05501 30
99.92757 40
99.96611 24
100.10819 54
100.11452 28
100.93233 52
100.96242 30
100.99438 190
101.06059 20
102.12655 24
102.9296 26
102.95296 85
102.99167 27
103.05363 21
104.97749 42
105.02606 46
105.92681 21
108.06666 33
108.22755 22
108.74677 53
110.95488 20
110.97636 28
111.07893 32
112.97182 27
113.96558 64
114.12464 33
114.95913 30
115.94917 33
115.96667 24
116.97981 86
118.08718 30
120.05165 21
120.48278 76
120.93724 29
123.10899 20
123.32703 21
124.99089 21
126.04664 57
128.87462 32
128.90881 20
128.98183 32
129.04866 36
130.94788 39
131.02826 27
132.96826 25
133.08038 168
133.08841 359
134.08904 60
135.09541 22
136.08403 35
138.96677 36
139.00798 24
139.04286 25
139.05661 31
141.9511 25
142.86386 23
144.98279 29
145.01894 213
145.05444 22
145.09499 32
145.40562 20
147.00374 29
147.10472 20
149.01154 21
149.02786 25
150.96854 20
151.92526 26
154.98294 24
155.98492 22
156.07698 26
156.8904 26
159.04596 31
160.99246 29
161.97212 32
164.89072 22
165.06577 36
165.077 70
165.08911 21
167.84544 23
170.99529 24
171.10931 31
172.92763 50
172.97383 24
172.9875 51
173.05745 37
174.91093 30
175.09137 54
176.89905 121
177.02812 20
177.10429 31
177.11252 82
178.10689 34
185.12263 23
188.8636 28
189.01476 20
189.04344 304
190.05165 60
192.06152 20
192.87225 28
192.95029 25
193.02097 28
194.00249 23
194.04135 35
196.01875 42
197.13318 64
199.90202 61
203.17749 20
203.68864 30
206.19041 22
207.01016 23
221.15253 28
225.12987 23
229.95436 31
230.07651 21
230.8924 98
232.02513 21
233.06937 228
235.97156 25
Name: pentaethylene glycol
PrecursorMZ: 256.1767
PrecursorType: [M+NH4]+
IonMode: Positive
Formula: C10H22O6
SMILES: C(COCCOCCOCCOCCO)O
InChI: 
InChIKey: JLFNLZLINWHATN-UHFFFAOYSA-N
RetentionTime: 2.784117
CCS: 
CollisionEnergy: 20-40 eV
InstrumentType: UPLC-QTOF-MS
Comment: PI: Cristina Nerin; Data collector: QiZhi Su, GUIA, University of Zaragoza, Spain; Collision energy: 20-40 V; Instrument: Waters HPLC-QTOF-MS (Xevo G2 QTof); Ionization: ESI; Deconvoluted by MS-DIAL; Column: Waters AtlantisTM premier BEH C18 AX column (2.1 × 100mm x 1.7μm); Flow rate: 0.3mL/min; Mobile phase A and B are water and methnaol, respectively, both with 0.1% formic acid; Gradient elution: from A/B (95/5) to A/B (100/0) in 7min, kept for 4 min, then back to A/B (95/5) in 0.1 min, and maintained for additional 1.9 min (13min in total).; Injection volume: 10 μL
Num peaks: 32
82.0675 153
84.96137 306
85.0158 134
86.95932 146
87.0432 217
88.04946 95
89.06051 7144
90.06088 199
98.97744 82
98.98301 80
100.11033 96
100.99256 190
102.09535 82
119.0977 135
128.92461 77
128.96333 99
133.08682 2555
133.09976 198
139.0498 137
145.01898 318
175.05927 214
177.10934 125
177.11852 244
178.11174 79
189.0401 322
189.04993 157
205.01112 100
231.0918 72
233.07545 87
236.07672 88
239.14198 88
242.9874 98
Name: pentaethylene glycol
PrecursorMZ: 261.1314
PrecursorType: [M+Na]+
IonMode: Positive
Formula: C10H22O6
SMILES: C(COCCOCCOCCOCCO)O
InChI: 
InChIKey: JLFNLZLINWHATN-UHFFFAOYSA-N
RetentionTime: 2.77835
CCS: 
CollisionEnergy: 20-40 eV
InstrumentType: UPLC-QTOF-MS
Comment: PI: Cristina Nerin; Data collector: QiZhi Su, GUIA, University of Zaragoza, Spain; Collision energy: 20-40 V; Instrument: Waters HPLC-QTOF-MS (Xevo G2 QTof); Ionization: ESI; Deconvoluted by MS-DIAL; Column: Waters AtlantisTM premier BEH C18 AX column (2.1 × 100mm x 1.7μm); Flow rate: 0.3mL/min; Mobile phase A and B are water and methnaol, respectively, both with 0.1% formic acid; Gradient elution: from A/B (95/5) to A/B (100/0) in 7min, kept for 4 min, then back to A/B (95/5) in 0.1 min, and maintained for additional 1.9 min (13min in total).; Injection volume: 10 μL
Num peaks: 24
84.9593 128
84.9675 83
87.04547 179
89.06038 7351
90.0628 276
90.9993 139
93.03638 126
96.08627 166
100.99088 124
100.99608 245
124.98449 114
133.08707 2856
134.092 152
139.04965 219
145.01224 112
145.01877 132
177.11031 273
177.11829 433
189.04466 244
233.07037 170
245.16612 98
249.0419 171
261.13046 634
261.15097 105
Name: hexaethylene glycol
PrecursorMZ: 283.1768
PrecursorType: [M+H]+
IonMode: Positive
Formula: C12H26O7
SMILES: C(COCCOCCOCCOCCOCCO)O
InChI: 
InChIKey: IIRDTKBZINWQAW-UHFFFAOYSA-N
RetentionTime: 3.180491
CCS: 
CollisionEnergy: 20-40 eV
InstrumentType: UPLC-QTOF-MS
Comment: PI: Cristina Nerin; Data collector: QiZhi Su, GUIA, University of Zaragoza, Spain; Collision energy: 20-40 V; Instrument: Waters HPLC-QTOF-MS (Xevo G2 QTof); Ionization: ESI; Deconvoluted by MS-DIAL; Column: Waters AtlantisTM premier BEH C18 AX column (2.1 × 100mm x 1.7μm); Flow rate: 0.3mL/min; Mobile phase A and B are water and methnaol, respectively, both with 0.1% formic acid; Gradient elution: from A/B (95/5) to A/B (100/0) in 7min, kept for 4 min, then back to A/B (95/5) in 0.1 min, and maintained for additional 1.9 min (13min in total).; Injection volume: 10 μL
Num peaks: 35
56.96339 42
56.97109 37
73.06457 56
81.06004 38
87.04862 98
89.06017 3437
90.05261 126
90.0585 121
90.06531 123
91.06149 36
91.07373 40
100.98636 214
100.9943 218
104.02688 48
115.05607 37
126.03451 42
126.04411 57
126.05293 54
133.08667 1284
133.09923 1305
134.08096 58
134.08864 65
139.04279 88
139.06137 91
145.01416 318
145.02348 314
146.02071 47
177.11203 132
177.11961 125
189.04068 288
189.05305 281
233.06613 237
277.09409 156
277.10623 99
278.09006 38
Name: hexaethylene glycol
PrecursorMZ: 305.1593
PrecursorType: [M+Na]+
IonMode: Positive
Formula: C12H26O7
SMILES: C(COCCOCCOCCOCCOCCO)O
InChI: 
InChIKey: IIRDTKBZINWQAW-UHFFFAOYSA-N
RetentionTime: 3.174775
CCS: 
CollisionEnergy: 20-40 eV
InstrumentType: UPLC-QTOF-MS
Comment: PI: Cristina Nerin; Data collector: QiZhi Su, GUIA, University of Zaragoza, Spain; Collision energy: 20-40 V; Instrument: Waters HPLC-QTOF-MS (Xevo G2 QTof); Ionization: ESI; Deconvoluted by MS-DIAL; Column: Waters AtlantisTM premier BEH C18 AX column (2.1 × 100mm x 1.7μm); Flow rate: 0.3mL/min; Mobile phase A and B are water and methnaol, respectively, both with 0.1% formic acid; Gradient elution: from A/B (95/5) to A/B (100/0) in 7min, kept for 4 min, then back to A/B (95/5) in 0.1 min, and maintained for additional 1.9 min (13min in total).; Injection volume: 10 μL
Num peaks: 38
56.9618 45
56.96871 37
73.0657 56
78.99973 50
79.01439 42
87.03875 95
87.04705 99
89.05959 3437
89.0771 3546
90.06296 121
91.06897 39
100.98844 217
100.99464 223
117.04426 36
124.98355 44
124.99292 49
124.99835 52
126.04108 61
126.05989 48
133.08478 1306
133.10069 1300
134.08719 65
139.04744 91
145.01767 325
146.01677 50
146.02396 49
177.10173 95
177.11221 139
177.12292 130
189.02885 266
189.04102 288
233.06949 237
277.08173 96
277.1106 102
278.10632 38
305.14316 381
305.15915 1735
305.17917 181
Name: hexaethylene glycol
PrecursorMZ: 321.1327
PrecursorType: [M+K]+
IonMode: Positive
Formula: C12H26O7
SMILES: C(COCCOCCOCCOCCOCCO)O
InChI: 
InChIKey: IIRDTKBZINWQAW-UHFFFAOYSA-N
RetentionTime: 3.182392
CCS: 
CollisionEnergy: 20-40 eV
InstrumentType: UPLC-QTOF-MS
Comment: PI: Cristina Nerin; Data collector: QiZhi Su, GUIA, University of Zaragoza, Spain; Collision energy: 20-40 V; Instrument: Waters HPLC-QTOF-MS (Xevo G2 QTof); Ionization: ESI; Deconvoluted by MS-DIAL; Column: Waters AtlantisTM premier BEH C18 AX column (2.1 × 100mm x 1.7μm); Flow rate: 0.3mL/min; Mobile phase A and B are water and methnaol, respectively, both with 0.1% formic acid; Gradient elution: from A/B (95/5) to A/B (100/0) in 7min, kept for 4 min, then back to A/B (95/5) in 0.1 min, and maintained for additional 1.9 min (13min in total).; Injection volume: 10 μL
Num peaks: 46
89.06101 3062
90.0611 44
90.06937 45
95.08833 33
100.97792 166
100.98644 164
100.99602 161
126.04214 33
133.08759 368
139.03419 76
139.0497 97
145.01891 247
145.02832 261
149.01904 33
149.02617 36
159.97363 34
159.9882 42
160.98911 41
160.99699 38
161.04375 83
161.05902 115
175.05676 32
183.07977 66
189.04111 253
189.04964 240
204.00743 48
204.02133 38
205.02704 36
233.06612 211
233.07704 206
248.03687 48
249.04813 64
263.04431 90
263.05789 79
277.08774 118
277.10623 119
283.17233 43
289.1897 63
293.07111 55
305.16003 3159
306.1431 326
306.16098 460
307.1326 34
307.16614 72
321.11353 124
321.12808 179
Name: heptaethylene glycol
PrecursorMZ: 327.2014
PrecursorType: [M+H]+
IonMode: Positive
Formula: C14H30O8
SMILES: C(COCCOCCOCCOCCOCCOCCO)O
InChI: 
InChIKey: XPJRQAIZZQMSCM-UHFFFAOYSA-N
RetentionTime: 3.620708
CCS: 
CollisionEnergy: 20-40 eV
InstrumentType: UPLC-QTOF-MS
Comment: PI: Cristina Nerin; Data collector: QiZhi Su, GUIA, University of Zaragoza, Spain; Collision energy: 20-40 V; Instrument: Waters HPLC-QTOF-MS (Xevo G2 QTof); Ionization: ESI; Deconvoluted by MS-DIAL; Column: Waters AtlantisTM premier BEH C18 AX column (2.1 × 100mm x 1.7μm); Flow rate: 0.3mL/min; Mobile phase A and B are water and methnaol, respectively, both with 0.1% formic acid; Gradient elution: from A/B (95/5) to A/B (100/0) in 7min, kept for 4 min, then back to A/B (95/5) in 0.1 min, and maintained for additional 1.9 min (13min in total).; Injection volume: 10 μL
Num peaks: 22
87.04413 183
89.06032 6889
90.04974 282
90.06229 296
90.07822 284
133.0865 1200
134.09792 77
145.01552 175
161.06903 78
183.07498 376
183.08466 380
195.12015 74
205.01616 99
233.07201 128
249.04147 95
277.08121 93
277.08835 128
277.09998 110
293.0575 70
321.12564 130
327.19849 273
327.21683 98
Name: heptaethylene glycol
PrecursorMZ: 344.2282
PrecursorType: [M+NH4]+
IonMode: Positive
Formula: C14H30O8
SMILES: C(COCCOCCOCCOCCOCCOCCO)O
InChI: 
InChIKey: XPJRQAIZZQMSCM-UHFFFAOYSA-N
RetentionTime: 3.620708
CCS: 
CollisionEnergy: 20-40 eV
InstrumentType: UPLC-QTOF-MS
Comment: PI: Cristina Nerin; Data collector: QiZhi Su, GUIA, University of Zaragoza, Spain; Collision energy: 20-40 V; Instrument: Waters HPLC-QTOF-MS (Xevo G2 QTof); Ionization: ESI; Deconvoluted by MS-DIAL; Column: Waters AtlantisTM premier BEH C18 AX column (2.1 × 100mm x 1.7μm); Flow rate: 0.3mL/min; Mobile phase A and B are water and methnaol, respectively, both with 0.1% formic acid; Gradient elution: from A/B (95/5) to A/B (100/0) in 7min, kept for 4 min, then back to A/B (95/5) in 0.1 min, and maintained for additional 1.9 min (13min in total).; Injection volume: 10 μL
Num peaks: 21
87.04413 183
89.06032 6889
90.04974 282
90.06229 296
90.07822 284
133.0865 1200
134.09792 77
145.01552 175
161.06903 78
183.07498 376
183.08466 380
195.12015 74
205.01616 99
233.07201 128
249.04147 95
277.08121 93
277.08835 128
277.09998 110
293.0575 70
321.12564 130
327.21683 83
Name: heptaethylene glycol
PrecursorMZ: 349.1829
PrecursorType: [M+Na]+
IonMode: Positive
Formula: C14H30O8
SMILES: C(COCCOCCOCCOCCOCCOCCO)O
InChI: 
InChIKey: XPJRQAIZZQMSCM-UHFFFAOYSA-N
RetentionTime: 3.620708
CCS: 
CollisionEnergy: 20-40 eV
InstrumentType: UPLC-QTOF-MS
Comment: PI: Cristina Nerin; Data collector: QiZhi Su, GUIA, University of Zaragoza, Spain; Collision energy: 20-40 V; Instrument: Waters HPLC-QTOF-MS (Xevo G2 QTof); Ionization: ESI; Deconvoluted by MS-DIAL; Column: Waters AtlantisTM premier BEH C18 AX column (2.1 × 100mm x 1.7μm); Flow rate: 0.3mL/min; Mobile phase A and B are water and methnaol, respectively, both with 0.1% formic acid; Gradient elution: from A/B (95/5) to A/B (100/0) in 7min, kept for 4 min, then back to A/B (95/5) in 0.1 min, and maintained for additional 1.9 min (13min in total).; Injection volume: 10 μL
Num peaks: 22
89.06032 7127
90.04974 386
90.06229 329
90.07822 340
133.0865 1012
134.08942 86
134.09792 88
145.01552 105
183.07498 399
183.08466 413
189.04298 82
189.05135 90
205.01616 81
233.07201 211
249.04147 100
277.08835 92
277.09998 92
321.12564 120
327.19849 193
327.21683 141
333.21024 80
349.18423 7909
Name: heptaethylene glycol
PrecursorMZ: 365.1553
PrecursorType: [M+K]+
IonMode: Positive
Formula: C14H30O8
SMILES: C(COCCOCCOCCOCCOCCOCCO)O
InChI: 
InChIKey: XPJRQAIZZQMSCM-UHFFFAOYSA-N
RetentionTime: 3.615
CCS: 
CollisionEnergy: 20-40 eV
InstrumentType: UPLC-QTOF-MS
Comment: PI: Cristina Nerin; Data collector: QiZhi Su, GUIA, University of Zaragoza, Spain; Collision energy: 20-40 V; Instrument: Waters HPLC-QTOF-MS (Xevo G2 QTof); Ionization: ESI; Deconvoluted by MS-DIAL; Column: Waters AtlantisTM premier BEH C18 AX column (2.1 × 100mm x 1.7μm); Flow rate: 0.3mL/min; Mobile phase A and B are water and methnaol, respectively, both with 0.1% formic acid; Gradient elution: from A/B (95/5) to A/B (100/0) in 7min, kept for 4 min, then back to A/B (95/5) in 0.1 min, and maintained for additional 1.9 min (13min in total).; Injection volume: 10 μL
Num peaks: 26
87.03917 214
87.04645 216
89.06054 6340
90.05284 346
90.06123 356
90.06923 357
90.07734 354
100.98572 207
100.9923 204
101.00197 198
133.08502 2449
134.08275 88
134.08987 108
145.01341 135
145.0201 135
177.10785 347
177.11722 339
189.03438 105
189.04503 105
327.19141 174
327.21088 139
349.1799 5419
350.17279 745
350.1875 769
351.19293 130
365.14108 173
Name: octaethylene glycol
PrecursorMZ: 371.2281
PrecursorType: [M+H]+
IonMode: Positive
Formula: C16H34O9
SMILES: C(COCCOCCOCCOCCOCCOCCOCCO)O
InChI: 
InChIKey: GLZWNFNQMJAZGY-UHFFFAOYSA-N
RetentionTime: 3.919567
CCS: 
CollisionEnergy: 20-40 eV
InstrumentType: UPLC-QTOF-MS
Comment: PI: Cristina Nerin; Data collector: QiZhi Su, GUIA, University of Zaragoza, Spain; Collision energy: 20-40 V; Instrument: Waters HPLC-QTOF-MS (Xevo G2 QTof); Ionization: ESI; Deconvoluted by MS-DIAL; Column: Waters AtlantisTM premier BEH C18 AX column (2.1 × 100mm x 1.7μm); Flow rate: 0.3mL/min; Mobile phase A and B are water and methnaol, respectively, both with 0.1% formic acid; Gradient elution: from A/B (95/5) to A/B (100/0) in 7min, kept for 4 min, then back to A/B (95/5) in 0.1 min, and maintained for additional 1.9 min (13min in total).; Injection volume: 10 μL
Num peaks: 31
87.00361 275
87.00971 275
87.04513 605
89.06055 27085
89.07806 27080
90.06277 956
133.08675 6969
134.09181 494
139.04976 322
139.05934 329
161.06018 314
161.06851 303
161.07635 327
177.11259 441
183.07721 560
183.09283 513
205.07224 1895
205.08994 2714
205.58405 443
205.59396 463
227.0927 335
227.10484 381
233.06012 435
233.07152 403
249.11116 306
249.12352 365
271.12451 574
271.1366 650
271.14828 395
271.63379 271
371.22934 460
Name: octaethylene glycol
PrecursorMZ: 388.254
PrecursorType: [M+NH4]+
IonMode: Positive
Formula: C16H34O9
SMILES: C(COCCOCCOCCOCCOCCOCCOCCO)O
InChI: 
InChIKey: GLZWNFNQMJAZGY-UHFFFAOYSA-N
RetentionTime: 3.915758
CCS: 
CollisionEnergy: 20-40 eV
InstrumentType: UPLC-QTOF-MS
Comment: PI: Cristina Nerin; Data collector: QiZhi Su, GUIA, University of Zaragoza, Spain; Collision energy: 20-40 V; Instrument: Waters HPLC-QTOF-MS (Xevo G2 QTof); Ionization: ESI; Deconvoluted by MS-DIAL; Column: Waters AtlantisTM premier BEH C18 AX column (2.1 × 100mm x 1.7μm); Flow rate: 0.3mL/min; Mobile phase A and B are water and methnaol, respectively, both with 0.1% formic acid; Gradient elution: from A/B (95/5) to A/B (100/0) in 7min, kept for 4 min, then back to A/B (95/5) in 0.1 min, and maintained for additional 1.9 min (13min in total).; Injection volume: 10 μL
Num peaks: 30
87.04561 444
89.06017 25346
89.07961 25349
90.06232 941
90.06725 945
100.9901 267
100.99783 279
133.08611 5735
134.08882 403
139.03273 296
139.05228 303
145.01672 301
161.06429 289
177.11235 462
183.0605 453
183.07703 556
189.04073 265
189.04941 290
205.09142 2785
205.58549 450
205.59416 470
227.10365 376
227.11284 321
233.0647 482
233.07484 468
249.11357 301
249.13171 263
271.12787 271
371.22607 323
371.24399 338
Name: PPG (9)
PrecursorMZ: 579.3524
PrecursorType: [M+K]+
IonMode: Positive
Formula: C27H56O10
SMILES: CC(O)COC(C)COC(C)COC(C)COC(C)COC(C)COC(C)COC(C)COC(C)CO
InChI: 
InChIKey: DXVLAUMXGHQKAV-UHFFFAOYNA-N
RetentionTime: 7.15135
CCS: 
CollisionEnergy: 20-40 eV
InstrumentType: UPLC-QTOF-MS
Comment: PI: Cristina Nerin; Data collector: QiZhi Su, GUIA, University of Zaragoza, Spain; Collision energy: 20-40 V; Instrument: Waters HPLC-QTOF-MS (Xevo G2 QTof); Ionization: ESI; Deconvoluted by MS-DIAL; Column: Waters AtlantisTM premier BEH C18 AX column (2.1 × 100mm x 1.7μm); Flow rate: 0.3mL/min; Mobile phase A and B are water and methnaol, respectively, both with 0.1% formic acid; Gradient elution: from A/B (95/5) to A/B (100/0) in 7min, kept for 4 min, then back to A/B (95/5) in 0.1 min, and maintained for additional 1.9 min (13min in total).; Injection volume: 10 μL
Num peaks: 208
59.05008 1656
60.05529 973
60.18727 27
72.93662 24
79.05554 59
83.04847 63
87.04781 28
87.08409 71
89.05589 35
91.0537 32
91.06013 25
96.99242 27
97.06531 44
97.07585 40
98.96329 29
99.06799 370
99.08173 487
101.09365 79
101.10049 64
102.10322 40
105.07568 26
108.86195 27
111.04641 69
111.12106 31
113.08299 31
113.09433 32
115.07594 566
116.0796 44
117.02452 33
117.09163 2205
117.1599 26
118.09346 336
118.10087 356
118.11069 200
120.82052 25
123.0743 42
123.09075 33
125.06195 50
125.06684 46
125.09548 46
126.04883 127
127.05405 30
127.07108 26
129.01909 23
135.05992 27
136.06615 33
139.12732 25
144.06688 31
144.08943 36
145.06618 42
145.07524 53
153.04935 63
153.0551 61
153.06319 56
155.08907 62
155.10414 45
156.05295 28
158.10966 76
158.12573 34
159.10638 35
159.12619 124
159.13693 132
160.12152 42
163.09619 63
163.11221 41
164.02803 43
164.03799 31
164.04568 40
165.01929 26
171.00546 50
171.01715 71
171.03696 72
173.14044 95
174.07623 25
174.11488 24
175.10838 23
175.13429 891
175.16956 25
176.1342 423
176.14655 380
177.14655 45
180.04402 28
181.0468 24
184.10422 27
184.12218 30
185.13748 25
186.14369 30
187.00407 50
189.12332 28
193.14153 94
194.04999 24
200.15195 30
201.05249 34
205.08228 25
208.06488 48
209.06563 25
209.08931 47
209.10677 311
209.12315 308
209.13841 266
209.16148 49
210.07237 25
210.09023 28
210.1232 90
210.13464 77
213.08183 28
213.13528 29
213.16362 58
214.11021 37
214.15985 28
215.16998 36
217.05881 32
217.06793 42
217.0836 30
217.09059 37
228.1281 62
228.14633 56
229.15515 58
229.17111 64
232.62187 31
233.17555 441
234.09669 32
234.15846 445
237.12285 62
239.18692 33
241.15802 27
242.21132 36
251.16273 125
253.18185 49
253.19958 42
255.17242 58
255.18469 70
261.10114 24
261.14426 50
261.15967 47
262.1265 27
262.16132 30
271.1196 56
271.17648 25
277.1965 24
277.21356 26
289.21249 36
290.13046 29
290.14529 48
291.09488 45
291.16226 38
291.1806 25
291.21906 324
293.14966 23
293.1687 31
295.19855 38
295.21155 33
309.2598 46
321.24844 29
327.20438 24
333.17474 33
339.24472 52
339.25897 58
340.16122 29
350.25818 29
350.27579 62
354.04379 36
368.17566 24
420.22348 27
433.13638 41
464.24689 39
465.25024 39
483.34338 57
483.36835 35
485.36823 23
499.27789 47
499.29758 44
499.31613 66
506.34525 37
516.17834 27
516.31055 25
521.26056 29
521.27539 77
521.29309 49
531.54865 40
536.20154 29
536.22217 44
536.83081 36
538.33563 32
542.40344 168
543.40833 38
547.39996 27
547.41571 53
548.40137 23
554.24396 28
555.25995 59
556.27496 35
558.40277 25
558.41547 172
558.42999 136
559.42145 31
563.37756 261
563.69672 102
564.29919 43
564.38 1526
564.44696 66
565.01257 43
566.35938 71
567.38611 30
570.21954 28
579.34515 1640
579.36383 623
579.49756 25
Name: PPG (10)
PrecursorMZ: 599.4365
PrecursorType: [M+H]+
IonMode: Positive
Formula: C30H62O11
SMILES: CC(O)COC(C)COC(C)COC(C)COC(C)COC(C)COC(C)COC(C)COC(C)COC(C)CO
InChI: 
InChIKey: MCVKSYYBBHNAFN-UHFFFAOYNA-N
RetentionTime: 7.299833
CCS: 
CollisionEnergy: 20-40 eV
InstrumentType: UPLC-QTOF-MS
Comment: PI: Cristina Nerin; Data collector: QiZhi Su, GUIA, University of Zaragoza, Spain; Collision energy: 20-40 V; Instrument: Waters HPLC-QTOF-MS (Xevo G2 QTof); Ionization: ESI; Deconvoluted by MS-DIAL; Column: Waters AtlantisTM premier BEH C18 AX column (2.1 × 100mm x 1.7μm); Flow rate: 0.3mL/min; Mobile phase A and B are water and methnaol, respectively, both with 0.1% formic acid; Gradient elution: from A/B (95/5) to A/B (100/0) in 7min, kept for 4 min, then back to A/B (95/5) in 0.1 min, and maintained for additional 1.9 min (13min in total).; Injection volume: 10 μL
Num peaks: 24
57.03433 1029
59.03929 14844
59.05003 14879
60.05235 561
99.08095 534
115.05933 3753
115.0766 3550
117.07392 29171
117.09182 29181
118.09011 2014
118.09769 2018
157.11775 734
157.12692 1122
159.12047 475
159.13544 617
159.147 579
175.13377 12912
176.13715 1280
209.11121 355
291.21774 773
349.25565 306
462.26639 404
599.41956 1096
599.44525 1550
Name: PPG (10)
PrecursorMZ: 621.4185
PrecursorType: [M+Na]+
IonMode: Positive
Formula: C30H62O11
SMILES: CC(O)COC(C)COC(C)COC(C)COC(C)COC(C)COC(C)COC(C)COC(C)COC(C)CO
InChI: 
InChIKey: MCVKSYYBBHNAFN-UHFFFAOYNA-N
RetentionTime: 7.299833
CCS: 
CollisionEnergy: 20-40 eV
InstrumentType: UPLC-QTOF-MS
Comment: PI: Cristina Nerin; Data collector: QiZhi Su, GUIA, University of Zaragoza, Spain; Collision energy: 20-40 V; Instrument: Waters HPLC-QTOF-MS (Xevo G2 QTof); Ionization: ESI; Deconvoluted by MS-DIAL; Column: Waters AtlantisTM premier BEH C18 AX column (2.1 × 100mm x 1.7μm); Flow rate: 0.3mL/min; Mobile phase A and B are water and methnaol, respectively, both with 0.1% formic acid; Gradient elution: from A/B (95/5) to A/B (100/0) in 7min, kept for 4 min, then back to A/B (95/5) in 0.1 min, and maintained for additional 1.9 min (13min in total).; Injection volume: 10 μL
Num peaks: 15
59.03929 14919
59.05003 14933
101.09069 1256
101.09683 1255
115.05933 1876
117.07392 29371
117.09182 29197
118.09011 2067
118.09769 2086
157.12692 1140
175.13377 13930
176.13715 1293
599.41956 1569
599.44525 1452
621.41815 108883
Name: PPG (4)
PrecursorMZ: 273.1702
PrecursorType: [M+Na]+
IonMode: Positive
Formula: C12H26O5
SMILES: CC(O)COC(C)COC(C)COC(C)CO
InChI: 
InChIKey: QVHMSMOUDQXMRS-UHFFFAOYNA-N
RetentionTime: 5.062634
CCS: 
CollisionEnergy: 20-40 eV
InstrumentType: UPLC-QTOF-MS
Comment: PI: Cristina Nerin; Data collector: QiZhi Su, GUIA, University of Zaragoza, Spain; Collision energy: 20-40 V; Instrument: Waters HPLC-QTOF-MS (Xevo G2 QTof); Ionization: ESI; Deconvoluted by MS-DIAL; Column: Waters AtlantisTM premier BEH C18 AX column (2.1 × 100mm x 1.7μm); Flow rate: 0.3mL/min; Mobile phase A and B are water and methnaol, respectively, both with 0.1% formic acid; Gradient elution: from A/B (95/5) to A/B (100/0) in 7min, kept for 4 min, then back to A/B (95/5) in 0.1 min, and maintained for additional 1.9 min (13min in total).; Injection volume: 10 μL
Num peaks: 263
51.93984 22
55.05409 22
56.94018 34
56.96665 34
57.0673 20
57.64925 26
59.04457 116
59.05003 230
64.60213 23
65.03514 31
65.52553 20
68.98286 63
70.98282 27
71.0497 68
74.06744 73
77.03822 49
77.05061 59
78.98267 45
79.05241 37
79.0627 66
81.06559 68
81.21951 37
82.98327 22
83.93732 27
84.01418 26
84.07439 21
84.95129 31
84.96259 715
84.99862 40
85.02448 44
85.06846 26
85.10063 69
85.94302 22
86.09155 20
86.95183 30
87.03323 37
87.0398 45
87.05154 35
87.98253 24
88.05051 26
91.05547 54
93.06344 20
93.06879 57
95.46774 22
96.93015 20
96.9865 23
97.08416 30
97.36279 20
97.96876 27
98.9592 70
99.04367 20
99.04978 43
99.0812 58
99.94025 59
99.97097 26
100.07103 61
100.92706 30
100.93121 21
101.93999 40
102.09177 50
102.97082 101
104.07236 107
105.06681 74
105.0759 57
107.04742 47
109.06341 23
111.07833 33
111.99725 20
112.98909 75
112.99496 36
113.06041 57
113.94099 37
114.08885 31
114.09505 51
114.94946 28
114.9589 23
115.0044 59
115.01439 23
115.03923 26
115.94894 48
117.0226 20
117.05141 22
117.07222 49
118.08613 31
118.91452 31
118.92492 23
119.0814 27
119.09319 65
119.80498 40
120.08096 25
120.97235 23
121.07249 24
121.09839 36
121.70616 34
122.03797 44
123.1145 44
123.12554 53
126.02748 101
128.07265 45
128.53523 28
129.02068 112
130.93871 31
131.06023 23
131.06837 57
133.02139 30
133.08044 32
133.09047 98
134.89706 22
135.11617 32
136.12831 47
138.95157 21
139.00429 27
140.05322 20
140.91911 20
140.95424 24
142.00304 29
143.00951 40
144.04167 25
149.01683 75
149.02293 26
149.0658 84
150.88783 23
152.00758 71
153.0905 23
156.01027 22
156.04387 34
157.01411 31
157.02721 63
157.10847 116
158.91508 24
158.995 20
159.02437 27
159.08594 24
160.09898 48
160.69382 26
160.98936 20
161.05965 28
161.09567 26
161.11172 42
161.12338 41
162.06265 24
163.07553 40
166.09488 39
167.02325 25
167.03247 43
168.00807 21
169.00345 31
169.09654 21
171.91284 29
172.03343 23
173.04729 211
173.08348 86
176.00862 22
176.0166 30
176.13048 69
177.08546 22
177.79886 57
178.02492 51
178.90645 29
178.94843 47
178.96727 27
183.07956 23
184.87854 35
185.05112 46
185.06866 26
185.10614 31
185.12492 45
186.99506 35
187.07056 52
187.10426 24
187.16031 33
188.02304 24
189.03682 38
190.94421 24
193.05713 76
194.03436 75
194.08195 24
195.02621 27
197.04053 30
199.10864 30
200.84441 22
201.15787 28
201.99028 30
202.02763 25
202.12483 99
203.02101 20
204.08636 21
204.27425 21
205.01646 36
206.02374 32
206.86049 25
208.04741 127
208.07411 67
208.94933 28
209.03822 25
209.11035 55
209.13271 115
209.15221 21
209.16066 26
209.17659 30
211.0518 32
213.07103 70
213.09123 117
213.16577 29
214.03195 24
216.03558 42
216.0547 21
218.06175 35
218.07973 44
218.59207 39
219.0712 25
219.09247 37
221.1682 29
223.01436 20
223.2074 30
227.1438 77
227.16609 24
227.87317 24
229.06926 67
229.14444 24
230.02115 22
231.08765 30
231.85252 25
232.02969 65
233.15034 20
233.79366 34
234.83551 34
235.05241 20
235.97382 27
237.05867 37
239.10123 22
239.18578 20
240.13115 25
241.02341 30
243.07602 25
243.15848 27
244.98933 21
246.0302 48
246.05266 20
246.16858 37
246.9516 24
249.11766 49
252.07465 68
253.91829 22
254.44815 21
254.88268 37
255.00706 21
255.07291 20
255.83006 28
257.19943 50
257.24918 22
258.18967 24
265.02881 24
265.04202 22
265.20117 33
269.07812 21
270.99939 20
271.10947 37
271.12766 20
272.09631 26
272.37933 20
273.06042 22
273.1701 1162
Name: PPG (11)
PrecursorMZ: 679.4579
PrecursorType: [M+Na]+
IonMode: Positive
Formula: C33H68O12
SMILES: CC(O)COC(C)COC(C)COC(C)COC(C)COC(C)COC(C)COC(C)COC(C)COC(C)COC(C)CO
InChI: 
InChIKey: ZRTKYIJRMCSONJ-UHFFFAOYNA-N
RetentionTime: 7.414033
CCS: 
CollisionEnergy: 20-40 eV
InstrumentType: UPLC-QTOF-MS
Comment: PI: Cristina Nerin; Data collector: QiZhi Su, GUIA, University of Zaragoza, Spain; Collision energy: 20-40 V; Instrument: Waters HPLC-QTOF-MS (Xevo G2 QTof); Ionization: ESI; Deconvoluted by MS-DIAL; Column: Waters AtlantisTM premier BEH C18 AX column (2.1 × 100mm x 1.7μm); Flow rate: 0.3mL/min; Mobile phase A and B are water and methnaol, respectively, both with 0.1% formic acid; Gradient elution: from A/B (95/5) to A/B (100/0) in 7min, kept for 4 min, then back to A/B (95/5) in 0.1 min, and maintained for additional 1.9 min (13min in total).; Injection volume: 10 μL
Num peaks: 15
59.04988 5748
59.05959 5745
115.06878 2350
115.07605 2365
117.07177 9167
117.09184 13966
118.08592 953
118.09621 959
175.13377 7679
233.17606 3216
291.21735 1198
657.46149 1484
657.48767 1782
674.50739 1813
679.45917 78290
Name: PPG (12)
PrecursorMZ: 715.5206
PrecursorType: [M+H]+
IonMode: Positive
Formula: C36H74O13
SMILES: CC(O)COC(C)COC(C)COC(C)COC(C)COC(C)COC(C)COC(C)COC(C)COC(C)COC(C)COC(C)CO
InChI: 
InChIKey: XUAGABNXLLHNRF-UHFFFAOYNA-N
RetentionTime: 7.520633
CCS: 
CollisionEnergy: 20-40 eV
InstrumentType: UPLC-QTOF-MS
Comment: PI: Cristina Nerin; Data collector: QiZhi Su, GUIA, University of Zaragoza, Spain; Collision energy: 20-40 V; Instrument: Waters HPLC-QTOF-MS (Xevo G2 QTof); Ionization: ESI; Deconvoluted by MS-DIAL; Column: Waters AtlantisTM premier BEH C18 AX column (2.1 × 100mm x 1.7μm); Flow rate: 0.3mL/min; Mobile phase A and B are water and methnaol, respectively, both with 0.1% formic acid; Gradient elution: from A/B (95/5) to A/B (100/0) in 7min, kept for 4 min, then back to A/B (95/5) in 0.1 min, and maintained for additional 1.9 min (13min in total).; Injection volume: 10 μL
Num peaks: 166
57.04044 210
65.0442 108
73.02596 131
73.04609 437
73.05176 432
73.08378 80
83.04517 60
83.07233 77
85.02625 223
85.03287 225
89.05643 58
89.0658 62
91.03545 119
93.0198 153
93.03069 145
93.03885 133
96.08354 77
96.09016 78
98.9668 55
98.97728 71
98.98384 68
98.9884 58
99.07906 290
99.08537 290
101.09432 121
101.10224 170
105.06373 121
105.06952 123
106.07169 59
111.03652 70
111.0435 66
111.0495 57
115.07529 86
115.08733 129
116.07649 61
116.08407 66
117.09209 5196
117.1239 72
118.07865 174
118.09493 161
118.10522 142
119.10996 162
121.00992 164
123.12022 59
125.05774 56
127.0601 72
127.07835 79
129.02153 85
131.06277 59
131.08955 120
131.09982 107
133.02321 65
133.07047 185
133.08131 211
133.09042 229
133.10036 221
133.10927 223
135.07574 54
135.08742 65
135.09778 86
147.10077 74
147.11717 56
148.00385 216
148.01511 231
149.02573 1822
149.04993 117
149.0773 103
149.09338 57
154.07153 65
154.08261 81
155.04428 58
157.10182 58
159.14732 188
169.12128 59
173.07089 94
173.1178 191
173.12798 230
175.13437 2796
176.13171 223
176.1403 128
176.15776 225
177.11092 77
177.12666 119
177.1411 130
180.03728 53
183.0905 57
183.11908 138
191.13045 93
199.14412 53
201.16547 192
203.11522 58
207.03043 113
207.04666 164
208.0285 162
208.03856 206
208.04929 52
209.021 70
210.13002 112
210.14111 106
211.17081 81
213.15663 128
213.16614 141
215.14116 69
215.15375 85
222.07179 53
222.08987 54
223.12117 54
227.17146 68
228.14375 89
228.15631 89
233.17575 1556
234.17899 260
234.19389 170
237.06886 56
237.15984 84
237.17366 68
243.18748 54
249.1879 97
250.96875 91
251.16727 76
251.1797 120
251.19469 111
274.17041 68
274.18338 79
283.05286 113
291.2182 829
292.22049 91
292.24063 80
293.20627 119
300.13681 79
301.1561 88
307.22018 62
309.22165 55
317.13449 62
317.14783 68
319.22385 256
337.22079 107
338.28708 98
339.2554 54
349.23218 60
349.2554 409
349.27277 310
354.17114 78
367.27551 70
380.22729 83
395.26471 76
407.3053 225
432.87076 53
443.21033 52
463.27338 233
465.32413 57
475.29272 85
475.31497 70
475.80878 71
482.30084 73
516.19714 69
516.30066 54
533.34552 54
538.25439 100
539.27344 158
554.25934 157
556.25311 76
556.27271 64
604.21033 61
625.3396 55
715.52216 976
Name: PPG (12)
PrecursorMZ: 737.5029
PrecursorType: [M+Na]+
IonMode: Positive
Formula: C36H74O13
SMILES: CC(O)COC(C)COC(C)COC(C)COC(C)COC(C)COC(C)COC(C)COC(C)COC(C)COC(C)COC(C)CO
InChI: 
InChIKey: XUAGABNXLLHNRF-UHFFFAOYNA-N
RetentionTime: 7.520633
CCS: 
CollisionEnergy: 20-40 eV
InstrumentType: UPLC-QTOF-MS
Comment: PI: Cristina Nerin; Data collector: QiZhi Su, GUIA, University of Zaragoza, Spain; Collision energy: 20-40 V; Instrument: Waters HPLC-QTOF-MS (Xevo G2 QTof); Ionization: ESI; Deconvoluted by MS-DIAL; Column: Waters AtlantisTM premier BEH C18 AX column (2.1 × 100mm x 1.7μm); Flow rate: 0.3mL/min; Mobile phase A and B are water and methnaol, respectively, both with 0.1% formic acid; Gradient elution: from A/B (95/5) to A/B (100/0) in 7min, kept for 4 min, then back to A/B (95/5) in 0.1 min, and maintained for additional 1.9 min (13min in total).; Injection volume: 10 μL
Num peaks: 18
59.04994 2041
73.04609 451
73.05176 432
117.09209 5660
118.07865 428
149.02573 1572
175.13437 3990
233.17575 1701
291.2182 864
337.24387 589
464.2782 792
715.52216 1102
716.52515 380
732.52441 616
732.55695 2020
733.53528 591
733.565 549
737.50189 34782
Name: PPG (4)
PrecursorMZ: 251.1866
PrecursorType: [M+H]+
IonMode: Positive
Formula: C12H26O5
SMILES: CC(O)COC(C)COC(C)COC(C)CO
InChI: 
InChIKey: QVHMSMOUDQXMRS-UHFFFAOYNA-N
RetentionTime: 5.23825
CCS: 
CollisionEnergy: 20-40 eV
InstrumentType: UPLC-QTOF-MS
Comment: PI: Cristina Nerin; Data collector: QiZhi Su, GUIA, University of Zaragoza, Spain; Collision energy: 20-40 V; Instrument: Waters HPLC-QTOF-MS (Xevo G2 QTof); Ionization: ESI; Deconvoluted by MS-DIAL; Column: Waters AtlantisTM premier BEH C18 AX column (2.1 × 100mm x 1.7μm); Flow rate: 0.3mL/min; Mobile phase A and B are water and methnaol, respectively, both with 0.1% formic acid; Gradient elution: from A/B (95/5) to A/B (100/0) in 7min, kept for 4 min, then back to A/B (95/5) in 0.1 min, and maintained for additional 1.9 min (13min in total).; Injection volume: 10 μL
Num peaks: 289
53.04246 30
53.31443 48
55.9369 54
56.96454 75
56.96931 124
57.03645 84
59.05216 1080
60.05365 109
60.99924 20
61.01264 47
61.43168 33
65.0397 28
65.06676 31
70.95717 48
70.9781 26
70.98797 20
71.04657 23
71.1381 34
72.08092 20
72.10759 39
72.22352 20
72.42567 34
72.93667 86
74.95647 22
75.83234 127
75.94812 27
77.04248 98
78.98704 23
81.0325 23
81.06808 74
81.96163 59
82.97836 20
83.04703 47
83.08816 83
84.95976 425
84.96606 255
85.85158 21
85.94279 23
87.04322 23
88.07462 60
89.05862 64
90.95425 35
91.02701 44
91.04807 24
91.05392 55
91.5773 22
92.98029 24
95.0526 48
96.02953 41
96.09569 20
96.99495 55
97.96468 115
97.97656 69
97.99296 24
98.34446 23
98.96004 53
99.51797 23
99.81879 23
99.93752 24
99.97235 46
100.01976 20
100.93399 21
101.0248 45
101.06312 96
102.00686 20
102.08997 21
102.12989 27
102.929 62
102.94717 21
103.5419 35
104.9483 45
105.06996 30
106.06702 29
107.00832 30
107.0424 27
107.0928 30
108.9647 40
108.99469 30
110.01209 31
110.9269 26
110.96417 24
111.00642 35
111.01501 22
111.04659 70
111.10922 25
112.05243 24
112.83739 23
112.99344 201
113.0269 65
113.11932 33
113.96003 21
113.96505 21
114.53497 43
114.62936 43
114.9569 50
114.96353 41
114.98333 66
115.0085 441
116.00867 22
116.27568 20
117.05847 208
117.09541 38
118.08819 135
120.04184 39
120.05966 49
120.12456 49
121.06356 31
121.08466 85
121.09428 37
121.10962 94
125.00247 80
125.03472 23
126.01752 28
126.02205 51
127.00808 38
127.0796 20
128.01437 28
128.95042 30
128.98413 51
129.02367 197
130.06894 71
131.08766 21
131.48776 22
132.99785 23
133.01718 110
135.07307 22
135.08162 123
136.02371 57
136.07623 32
136.22981 29
137.5578 30
138.04877 29
138.05763 28
138.09618 44
139.0105 49
139.95352 20
140.9819 22
141.0437 25
141.06146 20
144.17563 25
144.49947 29
145.01212 23
145.04655 30
145.06561 128
145.07722 26
145.10822 23
145.76886 60
147.0674 40
147.60492 39
148.04619 89
148.9986 22
149.02396 55
149.03163 30
149.07227 42
151.99666 33
152.01227 44
152.06146 28
153.0065 23
153.09435 46
154.08578 40
155.01227 21
155.04597 23
155.0923 37
155.58327 53
155.99474 20
156.05351 54
156.59894 54
157.05916 46
158.96008 26
159.03748 21
159.07907 36
159.12021 129
160.97722 24
161.01225 57
161.14499 59
162.05771 30
163.01425 29
163.97285 47
164.00217 33
164.0771 39
164.10078 27
165.00479 24
165.58369 45
166.06558 63
167.06241 23
168.10629 25
169.06363 32
169.07272 36
169.63617 32
170.86473 22
171.03305 153
171.0396 151
171.11925 25
173.0506 1055
173.14499 25
173.20024 20
174.10323 31
175.04253 21
175.06694 21
178.10423 25
178.99442 23
179.00584 30
179.06909 22
179.80786 31
181.09581 44
183 27
183.56036 57
184.02455 34
184.12967 21
185.0472 73
185.05316 204
187.02824 20
187.04486 23
187.06816 168
188.55472 23
189.04199 20
189.05771 77
190.01933 22
190.02821 28
191.02354 27
191.05627 39
194.95309 66
195.05077 26
195.08554 22
196.03258 20
199.04626 25
199.06213 40
199.09691 32
199.12891 27
199.14856 112
201.00018 129
201.01805 25
201.07538 23
201.12788 23
202.10721 27
205.03636 24
205.08443 45
205.9818 25
206.9529 25
209.06538 30
209.12643 100
209.13693 25
211.0714 118
212.37076 43
213.00175 20
213.04433 49
213.08305 315
213.11786 21
213.1582 23
213.16808 25
215.12091 21
217.05972 20
219.08929 25
219.1107 48
219.12682 25
224.15492 50
225.17267 52
226.14268 21
226.20427 27
227.06142 27
227.12538 45
227.14255 38
227.16414 28
228.07179 97
228.16624 24
229.07393 154
229.0858 100
229.10515 47
231.06856 23
231.08887 119
231.42387 45
233.12553 21
234.08089 27
235.03203 29
236.13145 33
236.15413 20
241.15244 44
241.16057 30
241.18585 22
241.19681 29
243.08075 48
243.09477 26
243.15807 29
245.04878 21
246.10692 37
246.12245 21
247.08032 67
249.23019 30
251.09544 49
Name: PPG (13)
PrecursorMZ: 795.5453
PrecursorType: [M+Na]+
IonMode: Positive
Formula: C39H80O14
SMILES: CC(O)COC(C)COC(C)COC(C)COC(C)COC(C)COC(C)COC(C)COC(C)COC(C)COC(C)COC(C)COC(C)CO
InChI: 
InChIKey: COLJSLDBDWQMGD-UHFFFAOYNA-N
RetentionTime: 7.615817
CCS: 
CollisionEnergy: 20-40 eV
InstrumentType: UPLC-QTOF-MS
Comment: PI: Cristina Nerin; Data collector: QiZhi Su, GUIA, University of Zaragoza, Spain; Collision energy: 20-40 V; Instrument: Waters HPLC-QTOF-MS (Xevo G2 QTof); Ionization: ESI; Deconvoluted by MS-DIAL; Column: Waters AtlantisTM premier BEH C18 AX column (2.1 × 100mm x 1.7μm); Flow rate: 0.3mL/min; Mobile phase A and B are water and methnaol, respectively, both with 0.1% formic acid; Gradient elution: from A/B (95/5) to A/B (100/0) in 7min, kept for 4 min, then back to A/B (95/5) in 0.1 min, and maintained for additional 1.9 min (13min in total).; Injection volume: 10 μL
Num peaks: 45
83.04513 105
83.05056 97
83.05518 109
97.06573 103
115.05643 146
117.0713 113
117.08089 1434
117.09194 1536
129.05675 128
129.07193 122
135.06097 116
147.0446 153
147.05374 124
156.12798 85
175.1364 1064
176.14259 147
221.07031 131
221.08397 153
221.09433 181
227.17442 85
231.1586 88
233.18532 488
249.1635 90
291.21085 198
291.22202 242
309.26077 94
319.27951 91
409.26385 178
409.28033 134
480.263 159
484.23157 107
484.24954 114
504.32861 271
554.27673 92
643.271 95
643.29236 99
773.56293 185
774.54779 92
774.58215 108
790.5943 694
791.57257 191
791.60889 157
792.60553 98
795.51898 452
795.54761 8404
Name: PPG (4)
PrecursorMZ: 273.1685
PrecursorType: [M+Na]+
IonMode: Positive
Formula: C12H26O5
SMILES: CC(O)COC(C)COC(C)COC(C)CO
InChI: 
InChIKey: QVHMSMOUDQXMRS-UHFFFAOYNA-N
RetentionTime: 5.23825
CCS: 
CollisionEnergy: 20-40 eV
InstrumentType: UPLC-QTOF-MS
Comment: PI: Cristina Nerin; Data collector: QiZhi Su, GUIA, University of Zaragoza, Spain; Collision energy: 20-40 V; Instrument: Waters HPLC-QTOF-MS (Xevo G2 QTof); Ionization: ESI; Deconvoluted by MS-DIAL; Column: Waters AtlantisTM premier BEH C18 AX column (2.1 × 100mm x 1.7μm); Flow rate: 0.3mL/min; Mobile phase A and B are water and methnaol, respectively, both with 0.1% formic acid; Gradient elution: from A/B (95/5) to A/B (100/0) in 7min, kept for 4 min, then back to A/B (95/5) in 0.1 min, and maintained for additional 1.9 min (13min in total).; Injection volume: 10 μL
Num peaks: 108
53.31443 48
55.9369 54
56.96454 75
56.96931 124
57.03645 84
59.05216 1080
60.05365 109
61.01264 47
70.95717 48
72.93667 86
75.83234 127
77.04248 98
81.06808 74
81.96163 59
83.04703 47
83.08816 83
84.95976 425
84.96606 255
88.07462 60
89.05862 64
91.02701 44
91.05392 55
95.0526 48
96.99495 55
97.96468 115
97.97656 69
98.96004 53
99.97235 46
101.0248 45
101.06312 96
102.929 62
104.9483 45
111.04659 70
112.99344 201
113.0269 65
114.53497 43
114.62936 43
114.9569 50
114.98333 66
115.0085 441
117.05847 208
118.08819 135
120.05966 49
120.12456 49
121.08466 85
121.10962 94
125.00247 80
126.02205 51
128.98413 51
129.02367 197
130.06894 71
133.01718 110
135.08162 123
136.02371 57
138.09618 44
139.0105 49
145.06561 128
145.76886 60
148.04619 89
149.02396 55
152.01227 44
153.09435 46
155.58327 53
156.05351 54
156.59894 54
157.05916 46
159.12021 129
161.01225 57
161.14499 59
163.97285 47
165.58369 45
166.06558 63
171.03305 153
171.0396 151
173.0506 1055
181.09581 44
183.56036 57
185.0472 73
185.05316 204
187.06816 168
189.05771 77
194.95309 66
199.14856 112
201.00018 129
205.08443 45
209.12643 100
211.0714 118
212.37076 43
213.04433 49
213.08305 315
219.1107 48
224.15492 50
225.17267 52
227.12538 45
228.07179 97
229.07393 154
229.0858 100
229.10515 47
231.08887 119
231.42387 45
241.15244 44
243.08075 48
247.08032 67
251.09544 49
254.20157 56
255.08841 43
271.13165 58
273.16891 4287
Name: PPG (5)
PrecursorMZ: 309.2289
PrecursorType: [M+H]+
IonMode: Positive
Formula: C15H32O6
SMILES: CC(O)COC(C)COC(C)COC(C)COC(C)CO
InChI: 
InChIKey: AQRQHYITOOVBTO-UHFFFAOYNA-N
RetentionTime: 5.882133
CCS: 
CollisionEnergy: 20-40 eV
InstrumentType: UPLC-QTOF-MS
Comment: PI: Cristina Nerin; Data collector: QiZhi Su, GUIA, University of Zaragoza, Spain; Collision energy: 20-40 V; Instrument: Waters HPLC-QTOF-MS (Xevo G2 QTof); Ionization: ESI; Deconvoluted by MS-DIAL; Column: Waters AtlantisTM premier BEH C18 AX column (2.1 × 100mm x 1.7μm); Flow rate: 0.3mL/min; Mobile phase A and B are water and methnaol, respectively, both with 0.1% formic acid; Gradient elution: from A/B (95/5) to A/B (100/0) in 7min, kept for 4 min, then back to A/B (95/5) in 0.1 min, and maintained for additional 1.9 min (13min in total).; Injection volume: 10 μL
Num peaks: 222
51.12243 64
56.96485 56
57.02836 51
57.03501 295
58.08504 173
58.93691 130
59.05012 3296
59.91251 41
60.05099 218
60.23535 39
65.14661 35
65.76131 47
66.54215 38
67.05032 82
67.05647 52
69.03184 95
70.98492 124
71.08299 42
79.04726 57
82.07375 56
83.04825 73
84.95442 176
84.96153 498
84.98063 38
85.03433 50
85.07155 50
86.09558 85
86.95357 56
87.04334 87
88.03873 33
91.05273 107
95.05433 79
96.99195 70
97.00904 78
97.02393 40
97.05292 35
97.94495 60
97.96725 186
98.00262 38
98.03972 60
98.96184 61
99.07556 44
99.95972 35
101.09223 52
105.04001 55
105.07164 96
105.07523 36
105.96332 38
107.09543 59
109.10036 177
110.97497 53
112.04156 34
112.9854 57
112.99271 151
113.00092 42
113.06902 84
115.00528 219
115.01208 366
115.07259 71
115.08175 133
115.77431 41
115.97467 38
116.97971 49
117.093 1332
117.93356 63
118.09848 95
119.07726 35
120.39943 43
121.10188 126
122.07559 35
123.08187 42
124.99606 57
126.01943 228
126.02585 87
126.99892 39
128.965 39
129.0303 65
129.06367 35
129.07153 67
130.99997 119
131.06747 39
133.06615 41
133.08366 168
133.0993 50
133.11351 63
135.01483 40
135.05141 35
135.10968 34
135.11819 79
138.98897 51
139.0424 53
139.06918 33
142.96741 51
143.08298 88
143.08827 52
144.06209 40
145.06877 49
145.10205 105
149.02838 61
149.99922 34
152.01674 37
152.03693 40
152.04375 34
154.99011 33
156.04782 68
156.89386 49
157.09746 91
159.04039 63
161.09804 33
161.10471 36
165.04594 42
165.07268 67
169.10762 41
171.01656 57
171.03061 77
171.04659 90
171.11414 51
172.04338 49
172.12688 51
172.87619 43
173.04805 529
173.06358 116
173.1418 72
174.08133 45
174.09276 112
174.7056 36
175.1192 71
176.74701 39
177.07697 38
183.07404 61
185.05026 102
185.12863 67
187.01881 53
187.05721 137
187.07327 36
187.11131 62
188.98718 104
189.01949 71
189.14911 52
190.95534 36
192.07785 38
194.00677 33
197.1369 57
199.14847 114
200.10681 43
201.60361 36
202.10802 55
202.11723 62
205.07082 35
206.93343 37
208.06285 56
209.03897 43
209.0661 63
209.21095 44
211.06624 116
211.08075 42
211.14989 36
211.23021 37
213.07114 249
213.08189 61
213.15582 61
213.16907 85
215.03505 38
215.33638 47
222.0625 43
223.06332 38
224.07114 56
226.18141 55
227.12706 52
227.14693 37
227.15872 58
227.19339 34
228.14891 46
228.19054 35
229.07942 61
229.15662 71
229.21803 55
230.09517 42
231.08423 207
231.09813 98
231.99438 40
232.08589 53
232.0954 35
234.09029 40
235.52048 47
236.59956 59
238.17055 34
239.10101 46
241.19341 97
241.20705 34
243.082 62
245.1091 192
246.20596 39
246.65869 39
249.87706 73
251.10406 33
252.06311 36
254.19986 35
255.16708 33
257.18851 131
260.10071 44
262.10086 33
271.11557 62
271.13684 153
272.60138 47
278.18628 44
281.02423 70
282.10883 36
283.06067 51
283.21252 35
287.08145 100
287.12067 109
289.11758 62
289.13541 206
292.10849 71
293.12201 87
301.12314 43
303.13397 58
303.14905 121
304.11523 86
309.22122 51
309.25226 40
Name: PPG (5)
PrecursorMZ: 331.2103
PrecursorType: [M+Na]+
IonMode: Positive
Formula: C15H32O6
SMILES: CC(O)COC(C)COC(C)COC(C)COC(C)CO
InChI: 
InChIKey: AQRQHYITOOVBTO-UHFFFAOYNA-N
RetentionTime: 5.882133
CCS: 
CollisionEnergy: 20-40 eV
InstrumentType: UPLC-QTOF-MS
Comment: PI: Cristina Nerin; Data collector: QiZhi Su, GUIA, University of Zaragoza, Spain; Collision energy: 20-40 V; Instrument: Waters HPLC-QTOF-MS (Xevo G2 QTof); Ionization: ESI; Deconvoluted by MS-DIAL; Column: Waters AtlantisTM premier BEH C18 AX column (2.1 × 100mm x 1.7μm); Flow rate: 0.3mL/min; Mobile phase A and B are water and methnaol, respectively, both with 0.1% formic acid; Gradient elution: from A/B (95/5) to A/B (100/0) in 7min, kept for 4 min, then back to A/B (95/5) in 0.1 min, and maintained for additional 1.9 min (13min in total).; Injection volume: 10 μL
Num peaks: 9
57.03501 295
59.05012 3296
84.96153 498
115.01208 366
117.093 1332
173.04805 529
213.07114 249
331.17834 565
331.20923 23060
Name: PPG (6)
PrecursorMZ: 367.2677
PrecursorType: [M+H]+
IonMode: Positive
Formula: C18H38O7
SMILES: CC(O)COC(C)COC(C)COC(C)COC(C)COC(C)CO
InChI: 
InChIKey: UDOJNGPPRYJMKR-UHFFFAOYNA-N
RetentionTime: 6.3547
CCS: 
CollisionEnergy: 20-40 eV
InstrumentType: UPLC-QTOF-MS
Comment: PI: Cristina Nerin; Data collector: QiZhi Su, GUIA, University of Zaragoza, Spain; Collision energy: 20-40 V; Instrument: Waters HPLC-QTOF-MS (Xevo G2 QTof); Ionization: ESI; Deconvoluted by MS-DIAL; Column: Waters AtlantisTM premier BEH C18 AX column (2.1 × 100mm x 1.7μm); Flow rate: 0.3mL/min; Mobile phase A and B are water and methnaol, respectively, both with 0.1% formic acid; Gradient elution: from A/B (95/5) to A/B (100/0) in 7min, kept for 4 min, then back to A/B (95/5) in 0.1 min, and maintained for additional 1.9 min (13min in total).; Injection volume: 10 μL
Num peaks: 72
57.03403 1154
57.04269 1188
60.05359 412
60.06659 116
75.04847 84
79.04358 85
79.04972 84
79.05617 84
81.06699 127
81.07127 127
81.07554 127
99.07993 365
99.08812 395
101.09796 300
101.10789 295
107.08409 82
107.09457 82
112.98636 326
112.99306 322
115.07085 773
115.07804 789
117.07323 7842
117.09179 7688
118.0817 503
118.09293 528
118.10317 530
126.01988 137
126.03205 135
129.02913 81
144.06085 109
144.06506 105
148.00108 148
148.00848 148
157.11252 287
157.12395 301
171.03183 109
171.03894 93
173.03992 131
174.08878 120
175.11656 993
175.13255 1031
176.12013 156
176.13672 159
199.13974 123
199.15012 145
203.11243 309
203.60358 94
203.61459 91
209.11415 104
209.12805 222
209.15399 131
213.1483 81
213.16502 195
225.15897 105
227.14716 229
231.08826 217
231.1003 216
255.15245 87
255.16508 102
289.12558 246
289.13794 109
289.15201 111
319.23773 266
319.25348 383
320.23605 103
320.24823 122
329.15646 95
337.24249 440
337.25549 573
339.26862 82
347.18292 157
367.26706 159
Name: PPG (6)
PrecursorMZ: 389.2503
PrecursorType: [M+Na]+
IonMode: Positive
Formula: C18H38O7
SMILES: CC(O)COC(C)COC(C)COC(C)COC(C)COC(C)CO
InChI: 
InChIKey: UDOJNGPPRYJMKR-UHFFFAOYNA-N
RetentionTime: 6.3585
CCS: 
CollisionEnergy: 20-40 eV
InstrumentType: UPLC-QTOF-MS
Comment: PI: Cristina Nerin; Data collector: QiZhi Su, GUIA, University of Zaragoza, Spain; Collision energy: 20-40 V; Instrument: Waters HPLC-QTOF-MS (Xevo G2 QTof); Ionization: ESI; Deconvoluted by MS-DIAL; Column: Waters AtlantisTM premier BEH C18 AX column (2.1 × 100mm x 1.7μm); Flow rate: 0.3mL/min; Mobile phase A and B are water and methnaol, respectively, both with 0.1% formic acid; Gradient elution: from A/B (95/5) to A/B (100/0) in 7min, kept for 4 min, then back to A/B (95/5) in 0.1 min, and maintained for additional 1.9 min (13min in total).; Injection volume: 10 μL
Num peaks: 1
389.25092 62576
Name: PPG (6)
PrecursorMZ: 405.2254
PrecursorType: [M+K]+
IonMode: Positive
Formula: C18H38O7
SMILES: CC(O)COC(C)COC(C)COC(C)COC(C)COC(C)CO
InChI: 
InChIKey: UDOJNGPPRYJMKR-UHFFFAOYNA-N
RetentionTime: 6.369916
CCS: 
CollisionEnergy: 20-40 eV
InstrumentType: UPLC-QTOF-MS
Comment: PI: Cristina Nerin; Data collector: QiZhi Su, GUIA, University of Zaragoza, Spain; Collision energy: 20-40 V; Instrument: Waters HPLC-QTOF-MS (Xevo G2 QTof); Ionization: ESI; Deconvoluted by MS-DIAL; Column: Waters AtlantisTM premier BEH C18 AX column (2.1 × 100mm x 1.7μm); Flow rate: 0.3mL/min; Mobile phase A and B are water and methnaol, respectively, both with 0.1% formic acid; Gradient elution: from A/B (95/5) to A/B (100/0) in 7min, kept for 4 min, then back to A/B (95/5) in 0.1 min, and maintained for additional 1.9 min (13min in total).; Injection volume: 10 μL
Num peaks: 5
389.24945 61767
390.25327 11318
391.25473 1664
405.2041 1348
405.21869 686
Name: PPG (7)
PrecursorMZ: 425.3135
PrecursorType: [M+H]+
IonMode: Positive
Formula: C21H44O8
SMILES: CC(O)COC(C)COC(C)COC(C)COC(C)COC(C)COC(C)CO
InChI: 
InChIKey: OWRNLGZKEZSHGO-UHFFFAOYNA-N
RetentionTime: 6.694016
CCS: 
CollisionEnergy: 20-40 eV
InstrumentType: UPLC-QTOF-MS
Comment: PI: Cristina Nerin; Data collector: QiZhi Su, GUIA, University of Zaragoza, Spain; Collision energy: 20-40 V; Instrument: Waters HPLC-QTOF-MS (Xevo G2 QTof); Ionization: ESI; Deconvoluted by MS-DIAL; Column: Waters AtlantisTM premier BEH C18 AX column (2.1 × 100mm x 1.7μm); Flow rate: 0.3mL/min; Mobile phase A and B are water and methnaol, respectively, both with 0.1% formic acid; Gradient elution: from A/B (95/5) to A/B (100/0) in 7min, kept for 4 min, then back to A/B (95/5) in 0.1 min, and maintained for additional 1.9 min (13min in total).; Injection volume: 10 μL
Num peaks: 27
57.03277 2380
57.03817 2380
59.05001 27760
60.05166 958
60.05679 943
60.06541 785
97.06561 733
99.06853 1807
99.08215 1708
101.09557 850
115.00691 325
116.06943 380
117.09207 30002
118.09513 1080
145.08025 316
157.1198 697
157.1272 746
175.13385 9272
176.12968 976
176.14125 994
232.12811 767
232.13956 761
233.17532 1347
234.17346 315
291.21741 378
291.23053 329
425.31927 377
Name: PPG (7)
PrecursorMZ: 447.2931
PrecursorType: [M+Na]+
IonMode: Positive
Formula: C21H44O8
SMILES: CC(O)COC(C)COC(C)COC(C)COC(C)COC(C)COC(C)CO
InChI: 
InChIKey: OWRNLGZKEZSHGO-UHFFFAOYNA-N
RetentionTime: 6.697817
CCS: 
CollisionEnergy: 20-40 eV
InstrumentType: UPLC-QTOF-MS
Comment: PI: Cristina Nerin; Data collector: QiZhi Su, GUIA, University of Zaragoza, Spain; Collision energy: 20-40 V; Instrument: Waters HPLC-QTOF-MS (Xevo G2 QTof); Ionization: ESI; Deconvoluted by MS-DIAL; Column: Waters AtlantisTM premier BEH C18 AX column (2.1 × 100mm x 1.7μm); Flow rate: 0.3mL/min; Mobile phase A and B are water and methnaol, respectively, both with 0.1% formic acid; Gradient elution: from A/B (95/5) to A/B (100/0) in 7min, kept for 4 min, then back to A/B (95/5) in 0.1 min, and maintained for additional 1.9 min (13min in total).; Injection volume: 10 μL
Num peaks: 6
99.08037 1911
101.09667 1232
101.10918 1226
115.07522 3835
115.08456 3837
447.2923 96114
Name: PPG (7)
PrecursorMZ: 463.2667
PrecursorType: [M+K]+
IonMode: Positive
Formula: C21H44O8
SMILES: CC(O)COC(C)COC(C)COC(C)COC(C)COC(C)COC(C)CO
InChI: 
InChIKey: OWRNLGZKEZSHGO-UHFFFAOYNA-N
RetentionTime: 6.70925
CCS: 
CollisionEnergy: 20-40 eV
InstrumentType: UPLC-QTOF-MS
Comment: PI: Cristina Nerin; Data collector: QiZhi Su, GUIA, University of Zaragoza, Spain; Collision energy: 20-40 V; Instrument: Waters HPLC-QTOF-MS (Xevo G2 QTof); Ionization: ESI; Deconvoluted by MS-DIAL; Column: Waters AtlantisTM premier BEH C18 AX column (2.1 × 100mm x 1.7μm); Flow rate: 0.3mL/min; Mobile phase A and B are water and methnaol, respectively, both with 0.1% formic acid; Gradient elution: from A/B (95/5) to A/B (100/0) in 7min, kept for 4 min, then back to A/B (95/5) in 0.1 min, and maintained for additional 1.9 min (13min in total).; Injection volume: 10 μL
Num peaks: 17
57.03234 1233
59.05008 29932
99.08144 1922
101.09758 1048
115.07541 3392
117.09165 27326
118.09363 1343
126.02256 1042
175.13423 7665
233.17934 1890
337.25516 2254
447.2926 100109
448.29657 22685
449.29688 3838
462.26279 2391
462.28381 1016
463.26562 2809
Name: PPG (8)
PrecursorMZ: 483.3513
PrecursorType: [M+H]+
IonMode: Positive
Formula: C24H50O9
SMILES: CC(O)COC(C)COC(C)COC(C)COC(C)COC(C)COC(C)COC(C)CO
InChI: 
InChIKey: ZZEANNAZZVVPKU-UHFFFAOYNA-N
RetentionTime: 6.9567
CCS: 
CollisionEnergy: 20-40 eV
InstrumentType: UPLC-QTOF-MS
Comment: PI: Cristina Nerin; Data collector: QiZhi Su, GUIA, University of Zaragoza, Spain; Collision energy: 20-40 V; Instrument: Waters HPLC-QTOF-MS (Xevo G2 QTof); Ionization: ESI; Deconvoluted by MS-DIAL; Column: Waters AtlantisTM premier BEH C18 AX column (2.1 × 100mm x 1.7μm); Flow rate: 0.3mL/min; Mobile phase A and B are water and methnaol, respectively, both with 0.1% formic acid; Gradient elution: from A/B (95/5) to A/B (100/0) in 7min, kept for 4 min, then back to A/B (95/5) in 0.1 min, and maintained for additional 1.9 min (13min in total).; Injection volume: 10 μL
Num peaks: 30
57.02361 2559
57.03502 2568
59.03694 29335
59.05027 29329
60.05388 1213
60.06344 1289
97.0491 452
97.06042 529
97.06707 526
97.07299 523
99.07761 2495
99.08353 2526
101.09638 1526
115.07615 4866
117.07323 39887
117.09194 39794
118.09453 2179
157.11897 1172
157.12878 1182
175.13293 14200
176.13821 1249
233.16812 4018
233.17708 4024
233.19142 3824
234.1757 437
251.18094 435
291.20792 932
291.22235 987
483.34073 611
483.36615 712
Name: PPG (8)
PrecursorMZ: 505.3347
PrecursorType: [M+Na]+
IonMode: Positive
Formula: C24H50O9
SMILES: CC(O)COC(C)COC(C)COC(C)COC(C)COC(C)COC(C)COC(C)CO
InChI: 
InChIKey: ZZEANNAZZVVPKU-UHFFFAOYNA-N
RetentionTime: 6.9605
CCS: 
CollisionEnergy: 20-40 eV
InstrumentType: UPLC-QTOF-MS
Comment: PI: Cristina Nerin; Data collector: QiZhi Su, GUIA, University of Zaragoza, Spain; Collision energy: 20-40 V; Instrument: Waters HPLC-QTOF-MS (Xevo G2 QTof); Ionization: ESI; Deconvoluted by MS-DIAL; Column: Waters AtlantisTM premier BEH C18 AX column (2.1 × 100mm x 1.7μm); Flow rate: 0.3mL/min; Mobile phase A and B are water and methnaol, respectively, both with 0.1% formic acid; Gradient elution: from A/B (95/5) to A/B (100/0) in 7min, kept for 4 min, then back to A/B (95/5) in 0.1 min, and maintained for additional 1.9 min (13min in total).; Injection volume: 10 μL
Num peaks: 13
57.03407 1743
59.05013 20643
99.06743 1669
99.08106 1741
99.09193 1732
115.07562 2902
117.09136 25724
118.09518 1522
175.13263 8516
233.16837 2044
233.17966 2063
483.34549 1146
505.33405 112767
Name: PPG (8)
PrecursorMZ: 521.3077
PrecursorType: [M+K]+
IonMode: Positive
Formula: C24H50O9
SMILES: CC(O)COC(C)COC(C)COC(C)COC(C)COC(C)COC(C)COC(C)CO
InChI: 
InChIKey: ZZEANNAZZVVPKU-UHFFFAOYNA-N
RetentionTime: 6.968117
CCS: 
CollisionEnergy: 20-40 eV
InstrumentType: UPLC-QTOF-MS
Comment: PI: Cristina Nerin; Data collector: QiZhi Su, GUIA, University of Zaragoza, Spain; Collision energy: 20-40 V; Instrument: Waters HPLC-QTOF-MS (Xevo G2 QTof); Ionization: ESI; Deconvoluted by MS-DIAL; Column: Waters AtlantisTM premier BEH C18 AX column (2.1 × 100mm x 1.7μm); Flow rate: 0.3mL/min; Mobile phase A and B are water and methnaol, respectively, both with 0.1% formic acid; Gradient elution: from A/B (95/5) to A/B (100/0) in 7min, kept for 4 min, then back to A/B (95/5) in 0.1 min, and maintained for additional 1.9 min (13min in total).; Injection volume: 10 μL
Num peaks: 56
57.03373 356
57.0373 359
59.03584 5541
59.04956 5536
60.05038 88
60.05507 87
60.05879 94
61.06107 58
91.04804 69
91.05431 77
93.06889 68
97.0526 169
97.06445 214
99.07986 419
99.09414 428
101.09565 194
115.06027 1464
115.07561 1180
117.0919 5779
118.07564 432
118.09268 152
118.10383 156
118.11675 146
126.02397 111
157.09013 72
157.09976 303
157.12154 136
157.13155 152
175.13425 1518
177.13026 95
177.14174 121
177.15598 95
203.10123 64
203.11427 97
211.14169 61
233.1761 1006
233.18694 1022
234.1817 149
255.1835 58
261.14417 81
291.21222 206
291.22324 135
337.25549 107
371.23407 75
462.28146 192
463.25864 97
463.27829 269
480.2952 121
498.30542 116
507.32495 492
508.3302 84
508.3515 153
508.37784 92
516.30603 76
521.29956 1252
521.31757 796
Name: PPG (9)
PrecursorMZ: 541.3942
PrecursorType: [M+H]+
IonMode: Positive
Formula: C27H56O10
SMILES: CC(O)COC(C)COC(C)COC(C)COC(C)COC(C)COC(C)COC(C)COC(C)CO
InChI: 
InChIKey: DXVLAUMXGHQKAV-UHFFFAOYNA-N
RetentionTime: 7.143734
CCS: 
CollisionEnergy: 20-40 eV
InstrumentType: UPLC-QTOF-MS
Comment: PI: Cristina Nerin; Data collector: QiZhi Su, GUIA, University of Zaragoza, Spain; Collision energy: 20-40 V; Instrument: Waters HPLC-QTOF-MS (Xevo G2 QTof); Ionization: ESI; Deconvoluted by MS-DIAL; Column: Waters AtlantisTM premier BEH C18 AX column (2.1 × 100mm x 1.7μm); Flow rate: 0.3mL/min; Mobile phase A and B are water and methnaol, respectively, both with 0.1% formic acid; Gradient elution: from A/B (95/5) to A/B (100/0) in 7min, kept for 4 min, then back to A/B (95/5) in 0.1 min, and maintained for additional 1.9 min (13min in total).; Injection volume: 10 μL
Num peaks: 24
59.03817 26422
59.05016 26400
99.08142 2386
99.09454 2394
115.05807 6930
115.07698 6741
117.0918 44653
118.08949 3202
118.09597 3205
157.10355 1081
157.12379 1402
157.13707 1567
159.12479 486
159.1418 700
175.13371 16809
176.13097 2122
176.14108 2113
176.15848 641
209.11345 466
233.17717 6689
291.2182 2607
292.22485 453
349.2648 704
541.39514 3941
Name: PPG (9)
PrecursorMZ: 563.3776
PrecursorType: [M+Na]+
IonMode: Positive
Formula: C27H56O10
SMILES: CC(O)COC(C)COC(C)COC(C)COC(C)COC(C)COC(C)COC(C)COC(C)CO
InChI: 
InChIKey: DXVLAUMXGHQKAV-UHFFFAOYNA-N
RetentionTime: 7.14755
CCS: 
CollisionEnergy: 20-40 eV
InstrumentType: UPLC-QTOF-MS
Comment: PI: Cristina Nerin; Data collector: QiZhi Su, GUIA, University of Zaragoza, Spain; Collision energy: 20-40 V; Instrument: Waters HPLC-QTOF-MS (Xevo G2 QTof); Ionization: ESI; Deconvoluted by MS-DIAL; Column: Waters AtlantisTM premier BEH C18 AX column (2.1 × 100mm x 1.7μm); Flow rate: 0.3mL/min; Mobile phase A and B are water and methnaol, respectively, both with 0.1% formic acid; Gradient elution: from A/B (95/5) to A/B (100/0) in 7min, kept for 4 min, then back to A/B (95/5) in 0.1 min, and maintained for additional 1.9 min (13min in total).; Injection volume: 10 μL
Num peaks: 9
59.05017 26041
99.08072 2423
117.09138 44722
118.0952 3222
157.12296 1648
175.13321 1524
176.14384 2117
233.1745 1997
563.37756 128622
Name: (AA-BD)2 linear
PrecursorMZ: 419.2278
PrecursorType: [M+H]+
IonMode: Positive
Formula: C20H34O9
SMILES: OCCCCOC(=O)CCCCC(=O)OCCCCOC(=O)CCCCC(O)=O
InChI: 
InChIKey: AIFCSRKYIYNMDQ-UHFFFAOYSA-N
RetentionTime: NA
CCS: 
CollisionEnergy: 10-30 eV
InstrumentType: UPLC-QTOF-MS
Comment: Oligomers tentatively identified (not confirmed by standards) by David; PI: Cristina Nerin; Data collector: QiZhi Su, GUIA, University of Zaragoza, Spain; Collision energy: 20-40 V; Instrument: Waters HPLC-QTOF-MS (Xevo G2 QTof); Ionization: ESI; Deconvoluted by MS-DIAL
Num peaks: 74
55.05488 346
73.06928 232
83.03263 432
83.04548 451
83.05063 451
101.0603 2357
101.06681 2337
111.02665 5227
111.0454 5232
112.04897 308
112.05873 317
123.00774 264
123.0165 262
123.02361 261
129.01653 186
129.02643 180
129.03638 9676
129.05495 9440
130.05432 601
130.06367 609
130.07918 324
143.06097 226
143.06958 231
143.07948 221
147.05548 1147
147.06526 1162
147.08012 978
166.99397 468
167.00496 469
183.09906 1843
183.10878 1846
184.09859 161
184.11113 164
185.01047 531
185.01863 552
201.11256 12856
202.11536 1220
202.13026 1024
219.11713 170
219.12917 170
237.05513 222
237.07248 290
237.08505 255
241.08678 184
243.07274 148
243.092 169
255.07927 428
255.09232 415
255.16193 227
255.17435 215
257.07114 2312
258.07596 279
273.04074 309
283.25598 224
283.2724 262
299.07227 200
311.14233 311
311.15552 306
311.16907 157
329.16275 1107
330.15826 179
330.16718 167
369.13303 338
369.1525 599
371.1283 372
371.14807 330
385.12143 2980
386.12762 369
401.08551 251
401.10547 243
401.19461 214
401.22064 800
402.20898 151
402.23074 140
Name: (AA-BD)2 linear
PrecursorMZ: 436.2545
PrecursorType: [M+NH4]+
IonMode: Positive
Formula: C20H34O9
SMILES: OCCCCOC(=O)CCCCC(=O)OCCCCOC(=O)CCCCC(O)=O
InChI: 
InChIKey: AIFCSRKYIYNMDQ-UHFFFAOYSA-N
RetentionTime: NA
CCS: 
CollisionEnergy: 10-30 eV
InstrumentType: UPLC-QTOF-MS
Comment: Oligomers tentatively identified (not confirmed by standards) by David; PI: Cristina Nerin; Data collector: QiZhi Su, GUIA, University of Zaragoza, Spain; Collision energy: 20-40 V; Instrument: Waters HPLC-QTOF-MS (Xevo G2 QTof); Ionization: ESI; Deconvoluted by MS-DIAL
Num peaks: 74
55.05488 346
73.06928 232
83.03263 432
83.04548 451
83.05063 451
101.0603 2357
101.06681 2337
111.02665 5227
111.0454 5232
112.04897 308
112.05873 317
123.00774 264
123.0165 262
123.02361 261
129.01653 186
129.02643 180
129.03638 9676
129.05495 9440
130.05432 601
130.06367 609
130.07918 324
143.06097 226
143.06958 231
143.07948 221
147.05548 1147
147.06526 1162
147.08012 978
166.99397 468
167.00496 469
183.09906 1843
183.10878 1846
184.09859 161
184.11113 164
185.01047 531
185.01863 552
201.11256 12856
202.11536 1220
202.13026 1024
219.11713 170
219.12917 170
237.05513 222
237.07248 290
237.08505 255
241.08678 184
243.07274 148
243.092 169
255.07927 428
255.09232 415
255.16193 227
255.17435 215
257.07114 2312
258.07596 279
273.04074 309
283.25598 224
283.2724 262
299.07227 200
311.14233 311
311.15552 306
311.16907 157
329.16275 1107
330.15826 179
330.16718 167
369.13303 338
369.1525 599
371.1283 372
371.14807 330
385.12143 2980
386.12762 369
401.08551 251
401.10547 243
401.19461 214
401.22064 800
402.20898 151
402.23074 140
Name: (AA-BD)2 linear
PrecursorMZ: 441.2088
PrecursorType: [M+Na]+
IonMode: Positive
Formula: C20H34O9
SMILES: OCCCCOC(=O)CCCCC(=O)OCCCCOC(=O)CCCCC(O)=O
InChI: 
InChIKey: AIFCSRKYIYNMDQ-UHFFFAOYSA-N
RetentionTime: NA
CCS: 
CollisionEnergy: 10-30 eV
InstrumentType: UPLC-QTOF-MS
Comment: Oligomers tentatively identified (not confirmed by standards) by David; PI: Cristina Nerin; Data collector: QiZhi Su, GUIA, University of Zaragoza, Spain; Collision energy: 20-40 V; Instrument: Waters HPLC-QTOF-MS (Xevo G2 QTof); Ionization: ESI; Deconvoluted by MS-DIAL
Num peaks: 39
55.05488 339
83.03263 399
83.04548 448
83.05063 449
101.0603 2206
101.06681 2191
111.02665 4985
111.0454 4970
112.05873 302
129.03638 9042
129.05495 8869
130.05432 580
130.06367 583
130.07918 309
147.05548 1082
147.06526 1108
147.08012 979
166.99397 436
167.00496 433
183.09906 1750
183.10878 1750
185.01047 528
185.01863 547
201.11256 12036
202.11536 1163
202.13026 1030
255.07927 403
255.09232 387
257.07114 2186
311.15552 301
329.16275 1091
369.13303 303
369.1525 615
371.1283 380
371.14807 329
385.12143 2886
386.12762 390
401.22064 755
441.20917 29827
Name: (AA-BD)2 linear
PrecursorMZ: 457.1763
PrecursorType: [M+K]+
IonMode: Positive
Formula: C20H34O9
SMILES: OCCCCOC(=O)CCCCC(=O)OCCCCOC(=O)CCCCC(O)=O
InChI: 
InChIKey: AIFCSRKYIYNMDQ-UHFFFAOYSA-N
RetentionTime: NA
CCS: 
CollisionEnergy: 10-30 eV
InstrumentType: UPLC-QTOF-MS
Comment: Oligomers tentatively identified (not confirmed by standards) by David; PI: Cristina Nerin; Data collector: QiZhi Su, GUIA, University of Zaragoza, Spain; Collision energy: 20-40 V; Instrument: Waters HPLC-QTOF-MS (Xevo G2 QTof); Ionization: ESI; Deconvoluted by MS-DIAL
Num peaks: 47
55.05488 338
83.03263 398
83.04548 447
83.05063 448
101.0603 2206
101.06681 2191
111.02665 4983
111.0454 4970
112.04897 298
112.05873 302
129.03638 9036
129.05495 8870
130.05432 580
130.06367 583
130.07918 310
147.05548 1083
147.06526 1108
147.08012 979
166.99397 436
167.00496 433
183.09906 1748
183.10878 1749
185.01047 529
185.01863 549
201.11256 12034
202.11536 1164
202.13026 1030
255.07927 403
255.09232 386
257.07114 2185
311.14233 299
311.15552 302
329.16275 1092
369.13303 302
369.1525 613
371.1283 380
371.14807 329
385.12143 2886
386.12762 390
401.22064 757
441.20917 28560
442.21359 4987
443.17984 1010
443.19955 1497
443.22079 812
443.23532 460
457.17654 7644
Name: (AA-BD)2 linear
PrecursorMZ: 419.2278
PrecursorType: [M+H]+
IonMode: Positive
Formula: C20H34O9
SMILES: OCCCCOC(=O)CCCCC(=O)OCCCCOC(=O)CCCCC(O)=O
InChI: 
InChIKey: AIFCSRKYIYNMDQ-UHFFFAOYSA-N
RetentionTime: NA
CCS: 
CollisionEnergy: 10-30 eV
InstrumentType: UPLC-QTOF-MS
Comment: Oligomers tentatively identified (not confirmed by standards) by David; PI: Cristina Nerin; Data collector: QiZhi Su, GUIA, University of Zaragoza, Spain; Collision energy: 20-40 V; Instrument: Waters HPLC-QTOF-MS (Xevo G2 QTof); Ionization: ESI; Deconvoluted by MS-DIAL
Num peaks: 57
55.05472 994
73.06575 547
83.04817 843
101.06001 4631
101.06978 4637
111.04399 12858
112.03506 634
112.04682 657
112.05503 660
123.00629 404
123.0127 404
129.05472 21952
130.05873 1122
143.06366 468
143.07346 490
147.06575 2489
167.00693 588
183.09589 4310
183.10378 4316
184.09395 407
184.10446 468
184.117 439
184.9955 536
185.01512 730
201.1123 30023
202.11574 2687
202.1245 2690
203.11443 310
203.12473 304
219.11458 308
219.1234 309
237.07217 433
243.08119 332
255.07733 668
255.09152 655
255.16101 555
255.17728 455
257.06943 3292
257.08704 3327
258.0654 322
258.07574 358
258.08902 304
273.03253 458
273.04596 475
311.15088 893
329.15759 2620
329.17072 2698
330.151 366
330.16824 358
369.13223 508
369.14859 710
371.13074 827
385.11801 4642
386.12253 657
401.21893 1732
402.2269 348
419.2291 357
Name: (AA-BD)2 linear
PrecursorMZ: 436.2577
PrecursorType: [M+NH4]+
IonMode: Positive
Formula: C20H34O9
SMILES: OCCCCOC(=O)CCCCC(=O)OCCCCOC(=O)CCCCC(O)=O
InChI: 
InChIKey: AIFCSRKYIYNMDQ-UHFFFAOYSA-N
RetentionTime: NA
CCS: 
CollisionEnergy: 10-30 eV
InstrumentType: UPLC-QTOF-MS
Comment: Oligomers tentatively identified (not confirmed by standards) by David; PI: Cristina Nerin; Data collector: QiZhi Su, GUIA, University of Zaragoza, Spain; Collision energy: 20-40 V; Instrument: Waters HPLC-QTOF-MS (Xevo G2 QTof); Ionization: ESI; Deconvoluted by MS-DIAL
Num peaks: 56
55.05472 994
73.06575 547
83.04817 843
101.06001 4631
101.06978 4637
111.04399 12858
112.03506 634
112.04682 657
112.05503 660
123.00629 404
123.0127 404
129.05472 21952
130.05873 1122
143.06366 468
143.07346 490
147.06575 2489
167.00693 588
183.09589 4310
183.10378 4316
184.09395 407
184.10446 468
184.117 439
184.9955 536
185.01512 730
201.1123 30023
202.11574 2687
202.1245 2690
203.11443 310
203.12473 304
219.11458 308
219.1234 309
237.07217 433
243.08119 332
255.07733 668
255.09152 655
255.16101 555
255.17728 455
257.06943 3292
257.08704 3327
258.0654 322
258.07574 358
258.08902 304
273.03253 458
273.04596 475
311.15088 893
329.15759 2620
329.17072 2698
330.151 366
330.16824 358
369.13223 508
369.14859 710
371.13074 827
385.11801 4642
386.12253 657
401.21893 1732
402.2269 348
Name: (AA-BD)2 cylic
PrecursorMZ: 401.2174
PrecursorType: [M+H]+
IonMode: Positive
Formula: C20H32O8
SMILES: O=C1CCCCC(=O)OCCCCOC(=O)CCCCC(=O)OCCCCO1
InChI: 
InChIKey: CICCYHMSMANUGA-UHFFFAOYSA-N
RetentionTime: NA
CCS: 
CollisionEnergy: 10-30 eV
InstrumentType: UPLC-QTOF-MS
Comment: Oligomers tentatively identified (not confirmed by standards) by David; PI: Cristina Nerin; Data collector: QiZhi Su, GUIA, University of Zaragoza, Spain; Collision energy: 20-40 V; Instrument: Waters HPLC-QTOF-MS (Xevo G2 QTof); Ionization: ESI; Deconvoluted by MS-DIAL
Num peaks: 65
55.05363 186
55.0589 186
83.04337 190
83.049 188
100.11271 142
100.1219 142
101.06053 1108
111.04512 3805
112.03924 273
112.04965 267
123.00537 117
123.01646 114
129.01878 169
129.02986 168
129.03697 6484
129.05515 6281
130.0596 342
147.05205 289
147.06837 304
147.07834 267
153.09088 115
166.99742 275
167.00652 268
183.09952 2295
183.10913 2301
184.10204 218
185.00758 204
185.02071 199
201.04327 102
201.11218 10163
202.11777 915
202.1288 868
212.08728 167
212.10071 156
220.08414 2344
220.58643 373
222.08609 120
225.15576 310
225.18672 137
225.20807 141
228.06529 127
228.07898 118
239.05952 179
251.08698 129
251.10039 119
255.1441 424
255.15782 646
257.06021 779
257.07281 931
257.0871 824
257.10519 124
311.13882 393
311.15533 428
325.20584 238
329.13995 301
329.15121 732
329.168 730
330.16721 115
365.20813 104
371.12537 203
385.08408 137
385.1156 718
386.1116 113
401.21356 2366
401.23117 893
Name: (AA-BD)2 linear
PrecursorMZ: 457.1772
PrecursorType: [M+K]+
IonMode: Positive
Formula: C20H34O9
SMILES: OCCCCOC(=O)CCCCC(=O)OCCCCOC(=O)CCCCC(O)=O
InChI: 
InChIKey: AIFCSRKYIYNMDQ-UHFFFAOYSA-N
RetentionTime: NA
CCS: 
CollisionEnergy: 10-30 eV
InstrumentType: UPLC-QTOF-MS
Comment: Oligomers tentatively identified (not confirmed by standards) by David; PI: Cristina Nerin; Data collector: QiZhi Su, GUIA, University of Zaragoza, Spain; Collision energy: 20-40 V; Instrument: Waters HPLC-QTOF-MS (Xevo G2 QTof); Ionization: ESI; Deconvoluted by MS-DIAL
Num peaks: 40
55.05472 973
73.06575 546
83.04817 848
101.06001 4531
101.06978 4537
111.04399 12554
112.03506 623
112.04682 657
112.05503 660
129.05472 21681
130.05873 1093
147.06575 2428
167.00693 591
183.09589 4225
183.10378 4232
184.9955 542
185.01512 740
201.1123 29246
202.11574 2651
202.1245 2657
255.07733 672
255.09152 656
255.16101 549
257.06943 3312
257.08704 3310
311.15088 879
329.15759 2547
329.17072 2622
369.13223 511
369.14859 714
371.13074 839
385.11801 4656
386.12253 658
401.21893 1745
441.20865 48445
442.21149 7905
443.18292 3235
443.21207 2105
444.1991 736
457.17587 20567
Name: (AA-BD)2 cylic
PrecursorMZ: 418.2442
PrecursorType: [M+NH4]+
IonMode: Positive
Formula: C20H32O8
SMILES: O=C1CCCCC(=O)OCCCCOC(=O)CCCCC(=O)OCCCCO1
InChI: 
InChIKey: CICCYHMSMANUGA-UHFFFAOYSA-N
RetentionTime: NA
CCS: 
CollisionEnergy: 10-30 eV
InstrumentType: UPLC-QTOF-MS
Comment: Oligomers tentatively identified (not confirmed by standards) by David; PI: Cristina Nerin; Data collector: QiZhi Su, GUIA, University of Zaragoza, Spain; Collision energy: 20-40 V; Instrument: Waters HPLC-QTOF-MS (Xevo G2 QTof); Ionization: ESI; Deconvoluted by MS-DIAL
Num peaks: 67
55.05363 186
55.0589 186
83.04337 190
83.049 188
100.11271 142
100.1219 142
101.06053 1108
111.04512 3805
112.03924 273
112.04965 267
123.00537 117
123.01646 114
129.01878 169
129.02986 168
129.03697 6484
129.05515 6281
130.0596 342
147.05205 289
147.06837 304
147.07834 267
153.09088 115
166.99742 275
167.00652 268
183.09952 2295
183.10913 2301
184.10204 218
185.00758 204
185.02071 199
201.04327 102
201.11218 10163
202.11777 915
202.1288 868
212.08728 167
212.10071 156
220.08414 2344
220.58643 373
222.08609 120
225.15576 310
225.18672 137
225.20807 141
228.06529 127
228.07898 118
239.05952 179
251.08698 129
251.10039 119
255.1441 424
255.15782 646
257.06021 779
257.07281 931
257.0871 824
257.10519 124
311.13882 393
311.15533 428
325.20584 238
329.13995 301
329.15121 732
329.168 730
330.16721 115
365.20813 104
371.12537 203
385.08408 137
385.1156 718
386.1116 113
401.21356 2423
401.23117 2627
402.20398 205
402.22562 360
Name: (AA-BD)2 linear
PrecursorMZ: 875.3973
PrecursorType: [2M+K]+
IonMode: Positive
Formula: C20H34O9
SMILES: OCCCCOC(=O)CCCCC(=O)OCCCCOC(=O)CCCCC(O)=O
InChI: 
InChIKey: AIFCSRKYIYNMDQ-UHFFFAOYSA-N
RetentionTime: NA
CCS: 
CollisionEnergy: 10-30 eV
InstrumentType: UPLC-QTOF-MS
Comment: Oligomers tentatively identified (not confirmed by standards) by David; PI: Cristina Nerin; Data collector: QiZhi Su, GUIA, University of Zaragoza, Spain; Collision energy: 20-40 V; Instrument: Waters HPLC-QTOF-MS (Xevo G2 QTof); Ionization: ESI; Deconvoluted by MS-DIAL
Num peaks: 43
55.05472 973
73.06575 546
83.04817 848
101.06001 4531
101.06978 4537
111.04399 12553
112.03506 623
112.04682 657
112.05503 660
129.05472 21680
130.05873 1093
147.06575 2428
167.00693 591
183.09589 4225
183.10378 4232
184.9955 542
185.01512 740
201.1123 29245
202.11574 2651
202.1245 2656
255.07733 672
255.09152 656
255.16101 549
257.06943 3311
257.08704 3310
311.15088 879
329.15759 2547
329.17072 2622
369.13223 511
369.14859 714
371.13074 839
385.11801 4656
386.12253 658
401.21893 1745
441.20865 48443
442.21149 7904
443.18292 3235
443.21207 2105
444.1991 735
457.17587 17984
458.17767 2844
459.1792 634
473.15268 524
Name: (AA-BD)2 cylic
PrecursorMZ: 423.1987
PrecursorType: [M+Na]+
IonMode: Positive
Formula: C20H32O8
SMILES: O=C1CCCCC(=O)OCCCCOC(=O)CCCCC(=O)OCCCCO1
InChI: 
InChIKey: CICCYHMSMANUGA-UHFFFAOYSA-N
RetentionTime: NA
CCS: 
CollisionEnergy: 10-30 eV
InstrumentType: UPLC-QTOF-MS
Comment: Oligomers tentatively identified (not confirmed by standards) by David; PI: Cristina Nerin; Data collector: QiZhi Su, GUIA, University of Zaragoza, Spain; Collision energy: 20-40 V; Instrument: Waters HPLC-QTOF-MS (Xevo G2 QTof); Ionization: ESI; Deconvoluted by MS-DIAL
Num peaks: 17
101.06039 1019
111.0452 3482
129.05539 6001
183.10553 2353
201.11378 9614
202.10583 856
202.1174 922
220.07603 2326
220.08203 2323
220.09081 2323
257.07419 675
329.16202 810
329.17938 657
401.21683 2588
401.23477 2111
420.19388 1263
423.19843 61366
Name: Cylic PLA n=6
PrecursorMZ: 433.1346
PrecursorType: [M+H]+
IonMode: Positive
Formula: C18H24O12
SMILES: CC1OC(=O)C(C)OC(=O)C(C)OC(=O)C(C)OC(=O)C(C)OC(=O)C(C)OC1=O
InChI: 
InChIKey: PYXOVGBGCDZGFV-UHFFFAOYNA-N
RetentionTime: NA
CCS: 
CollisionEnergy: 10-30 eV
InstrumentType: UPLC-QTOF-MS
Comment: Oligomers tentatively identified (not confirmed by standards) by David; PI: Cristina Nerin; Data collector: QiZhi Su, GUIA, University of Zaragoza, Spain; Collision energy: 20-40 V; Instrument: Waters HPLC-QTOF-MS (Xevo G2 QTof); Ionization: ESI; Deconvoluted by MS-DIAL
Num peaks: 54
55.01741 572
65.0379 1521
89.05917 21223
90.05435 997
90.0638 1022
93.04565 2103
93.05273 1600
105.05293 717
105.06155 654
105.07085 670
117.05179 748
117.06013 733
121.02824 2268
127.03532 591
145.04942 31074
146.05402 1862
146.07263 527
150.02043 619
150.02892 619
164.01657 1205
164.02354 1236
173.00652 1486
189.0755 723
189.08986 964
200.0334 2288
200.04298 2331
217.07051 50104
218.0746 4218
219.07855 700
228.05228 897
228.06473 848
236.04349 1676
236.53497 654
244.02457 1839
244.03664 1809
245.01233 1033
245.03117 1290
261.09521 1704
261.10486 1696
273.02173 724
289.09216 21277
290.09573 2718
291.09799 520
327.0415 620
333.10535 585
333.11926 882
333.1322 636
345.05222 1336
361.11139 9503
362.11679 1579
383.09488 1873
417.05847 1221
417.07645 1252
433.13452 4830
Name: Cylic PLA n=6
PrecursorMZ: 450.161
PrecursorType: [M+NH4]+
IonMode: Positive
Formula: C18H24O12
SMILES: CC1OC(=O)C(C)OC(=O)C(C)OC(=O)C(C)OC(=O)C(C)OC(=O)C(C)OC1=O
InChI: 
InChIKey: PYXOVGBGCDZGFV-UHFFFAOYNA-N
RetentionTime: NA
CCS: 
CollisionEnergy: 10-30 eV
InstrumentType: UPLC-QTOF-MS
Comment: Oligomers tentatively identified (not confirmed by standards) by David; PI: Cristina Nerin; Data collector: QiZhi Su, GUIA, University of Zaragoza, Spain; Collision energy: 20-40 V; Instrument: Waters HPLC-QTOF-MS (Xevo G2 QTof); Ionization: ESI; Deconvoluted by MS-DIAL
Num peaks: 60
55.01741 559
65.0379 1533
89.05917 20900
90.05435 983
90.0638 1008
93.04565 2108
93.05273 1605
105.05293 712
105.06155 646
105.07085 663
117.05179 721
117.06013 705
121.02824 2270
127.03532 567
145.04942 30164
146.05402 1810
146.07263 501
150.02043 619
150.02892 619
164.01657 1132
164.02354 1163
173.00652 1486
189.0755 651
189.08986 891
200.0334 2194
200.04298 2238
217.07051 48410
218.0746 4061
219.05762 490
219.07855 673
228.05228 897
228.06473 849
236.04349 1632
236.53497 654
244.02457 1839
244.03664 1809
245.01233 1033
245.03117 1290
261.09521 1704
261.10486 1696
273.02173 724
289.09216 21277
290.09573 2718
291.09799 520
327.0415 617
333.10535 524
333.11926 814
333.1322 570
345.05222 1311
361.11139 9503
362.11679 1566
383.09488 1791
417.05847 1221
417.07645 1252
433.13452 4597
434.13644 790
439.14209 590
444.10892 623
444.12695 547
450.15939 4237
Name: (AA-BD)2 cylic
PrecursorMZ: 401.2163
PrecursorType: [M+H]+
IonMode: Positive
Formula: C20H32O8
SMILES: O=C1CCCCC(=O)OCCCCOC(=O)CCCCC(=O)OCCCCO1
InChI: 
InChIKey: CICCYHMSMANUGA-UHFFFAOYSA-N
RetentionTime: NA
CCS: 
CollisionEnergy: 10-30 eV
InstrumentType: UPLC-QTOF-MS
Comment: Oligomers tentatively identified (not confirmed by standards) by David; PI: Cristina Nerin; Data collector: QiZhi Su, GUIA, University of Zaragoza, Spain; Collision energy: 20-40 V; Instrument: Waters HPLC-QTOF-MS (Xevo G2 QTof); Ionization: ESI; Deconvoluted by MS-DIAL
Num peaks: 53
55.05189 515
55.05574 515
55.06039 516
83.04944 245
101.06059 1764
111.04444 6213
111.04964 6212
112.04851 317
129.02649 231
129.05455 10898
130.04865 524
130.05974 538
147.05104 386
147.06651 542
147.07626 525
166.99329 274
167.00124 280
167.0123 298
183.10201 4214
184.10835 360
185.00278 399
185.01628 401
201.11229 17480
202.1167 1616
203.11449 179
204.98264 422
204.99968 342
212.08716 298
212.09879 307
220.08563 4162
220.58684 1005
225.13788 195
225.14708 227
228.06291 258
228.0759 286
255.08435 218
255.15379 942
255.1644 942
257.07242 1456
311.14294 676
311.15826 677
325.21503 359
329.14563 693
329.1712 1015
330.15927 198
371.12347 231
383.19766 203
383.21875 209
385.10471 1349
385.12164 1429
385.1387 794
386.12015 225
401.21613 4267
Name: (AA-BD)2 cylic
PrecursorMZ: 418.2437
PrecursorType: [M+NH4]+
IonMode: Positive
Formula: C20H32O8
SMILES: O=C1CCCCC(=O)OCCCCOC(=O)CCCCC(=O)OCCCCO1
InChI: 
InChIKey: CICCYHMSMANUGA-UHFFFAOYSA-N
RetentionTime: NA
CCS: 
CollisionEnergy: 10-30 eV
InstrumentType: UPLC-QTOF-MS
Comment: Oligomers tentatively identified (not confirmed by standards) by David; PI: Cristina Nerin; Data collector: QiZhi Su, GUIA, University of Zaragoza, Spain; Collision energy: 20-40 V; Instrument: Waters HPLC-QTOF-MS (Xevo G2 QTof); Ionization: ESI; Deconvoluted by MS-DIAL
Num peaks: 55
55.05189 515
55.05574 515
55.06039 516
83.04944 245
101.06059 1764
111.04444 6213
111.04964 6212
112.04851 317
129.02649 231
129.05455 10898
130.04865 524
130.05974 538
147.05104 386
147.06651 542
147.07626 525
166.99329 274
167.00124 280
167.0123 298
183.10201 4214
184.10835 360
185.00278 399
185.01628 401
201.11229 17480
202.1167 1616
203.11449 179
204.98264 422
204.99968 342
212.08716 298
212.09879 307
220.08563 4162
220.58684 1005
225.13788 195
225.14708 227
228.06291 258
228.0759 286
255.08435 218
255.15379 942
255.1644 942
257.07242 1456
311.14294 676
311.15826 677
325.21503 359
329.14563 693
329.1712 1015
330.15927 198
371.12347 231
383.19766 203
383.21875 209
385.10471 1349
385.12164 1429
385.1387 794
386.12015 225
401.21613 3885
402.22012 705
402.24014 257
Name: Cylic PLA n=6
PrecursorMZ: 455.1163
PrecursorType: [M+Na]+
IonMode: Positive
Formula: C18H24O12
SMILES: CC1OC(=O)C(C)OC(=O)C(C)OC(=O)C(C)OC(=O)C(C)OC(=O)C(C)OC1=O
InChI: 
InChIKey: PYXOVGBGCDZGFV-UHFFFAOYNA-N
RetentionTime: NA
CCS: 
CollisionEnergy: 10-30 eV
InstrumentType: UPLC-QTOF-MS
Comment: Oligomers tentatively identified (not confirmed by standards) by David; PI: Cristina Nerin; Data collector: QiZhi Su, GUIA, University of Zaragoza, Spain; Collision energy: 20-40 V; Instrument: Waters HPLC-QTOF-MS (Xevo G2 QTof); Ionization: ESI; Deconvoluted by MS-DIAL
Num peaks: 19
89.05917 26064
145.04942 37957
164.01657 3094
164.02354 3123
200.0334 2919
200.04298 2924
217.07051 51070
218.0746 4633
236.04349 2887
289.09216 21271
290.09573 2718
311.09058 2767
361.11139 9503
383.09488 14860
433.13452 4599
450.15939 3792
452.10684 9869
452.60672 3989
455.11554 268882
Name: Cylic PLA n=6
PrecursorMZ: 471.0894
PrecursorType: [M+K]+
IonMode: Positive
Formula: C18H24O12
SMILES: CC1OC(=O)C(C)OC(=O)C(C)OC(=O)C(C)OC(=O)C(C)OC(=O)C(C)OC1=O
InChI: 
InChIKey: PYXOVGBGCDZGFV-UHFFFAOYNA-N
RetentionTime: NA
CCS: 
CollisionEnergy: 10-30 eV
InstrumentType: UPLC-QTOF-MS
Comment: Oligomers tentatively identified (not confirmed by standards) by David; PI: Cristina Nerin; Data collector: QiZhi Su, GUIA, University of Zaragoza, Spain; Collision energy: 20-40 V; Instrument: Waters HPLC-QTOF-MS (Xevo G2 QTof); Ionization: ESI; Deconvoluted by MS-DIAL
Num peaks: 22
89.05917 26064
145.04942 37957
164.01657 3094
164.02354 3123
200.0334 2919
200.04298 2924
217.07051 51070
218.0746 4633
236.04349 2887
289.09216 21271
290.09573 2718
311.09058 2767
361.11139 9503
383.09488 14860
433.13452 4599
450.15939 3792
452.10684 9869
452.60672 3989
455.11554 265384
456.11978 47982
457.12231 8929
471.09332 3101
Name: PA-BD2-AA cylic
PrecursorMZ: 421.1859
PrecursorType: [M+H]+
IonMode: Positive
Formula: C22H28O8
SMILES: O=C1CCCCC(=O)OCCCCOC(=O)C2=C(C=CC=C2)C(=O)OCCCCO1
InChI: 
InChIKey: FXAZRLIWVYQXEV-UHFFFAOYSA-N
RetentionTime: NA
CCS: 
CollisionEnergy: 10-30 eV
InstrumentType: UPLC-QTOF-MS
Comment: Oligomers tentatively identified (not confirmed by standards) by David; PI: Cristina Nerin; Data collector: QiZhi Su, GUIA, University of Zaragoza, Spain; Collision energy: 20-40 V; Instrument: Waters HPLC-QTOF-MS (Xevo G2 QTof); Ionization: ESI; Deconvoluted by MS-DIAL
Num peaks: 100
55.05008 237
55.05619 239
60.07933 134
60.08395 134
60.08938 134
73.06102 110
73.06643 121
89.05797 99
89.07071 97
111.04517 594
111.05756 593
117.05425 97
117.06929 97
121.0228 160
121.033 168
123.01192 125
123.02129 126
129.04094 207
129.05363 258
129.06233 267
129.06972 269
129.07664 96
143.069 108
143.08105 94
145.04488 215
145.05251 232
145.06784 212
149.00836 2516
149.02397 2504
150.0239 167
150.02985 172
163.04742 200
163.05965 187
163.06978 161
166.98671 163
167.00179 180
167.02928 549
167.04027 531
173.02536 99
183.10464 218
185.00726 96
194.03578 468
194.05371 453
194.53629 124
194.55388 136
201.11298 299
203.05653 127
203.06477 137
217.05403 156
217.06233 174
217.07364 189
221.08011 9223
222.08575 950
230.06018 209
230.07547 210
235.08392 129
239.05035 245
239.06569 244
245.01492 114
245.03395 158
257.05219 158
257.06561 257
257.08408 200
273.01285 524
273.02551 694
273.04401 536
275.13193 103
293.14197 210
304.06644 94
313.11188 148
320.1246 109
320.14407 131
325.18823 121
325.22006 475
327.0777 182
327.09735 134
329.05695 105
329.08572 1121
330.0719 135
330.09988 136
331.09009 112
331.10831 163
331.12277 115
345.03476 959
345.05344 1084
346.0506 131
346.06686 131
349.116 206
349.13129 300
401.10648 3616
401.22412 108
402.10785 617
402.12582 523
405.0676 134
405.0957 467
405.11285 226
417.06635 707
417.08154 763
418.0737 132
421.186 1047
Name: PA-BD2-AA cylic
PrecursorMZ: 443.1683
PrecursorType: [M+Na]+
IonMode: Positive
Formula: C22H28O8
SMILES: O=C1CCCCC(=O)OCCCCOC(=O)C2=C(C=CC=C2)C(=O)OCCCCO1
InChI: 
InChIKey: FXAZRLIWVYQXEV-UHFFFAOYSA-N
RetentionTime: NA
CCS: 
CollisionEnergy: 10-30 eV
InstrumentType: UPLC-QTOF-MS
Comment: Oligomers tentatively identified (not confirmed by standards) by David; PI: Cristina Nerin; Data collector: QiZhi Su, GUIA, University of Zaragoza, Spain; Collision energy: 20-40 V; Instrument: Waters HPLC-QTOF-MS (Xevo G2 QTof); Ionization: ESI; Deconvoluted by MS-DIAL
Num peaks: 74
55.05008 244
55.05619 246
111.04517 596
111.05756 598
121.0228 153
121.033 161
123.01192 135
123.02129 138
129.04094 221
129.05363 260
129.06233 273
129.06972 271
145.04488 249
145.05251 260
145.06784 233
149.00836 2490
149.02397 2504
150.0239 172
150.02985 176
163.04742 209
163.05965 197
163.06978 173
166.98671 168
167.00179 187
167.02928 547
167.04027 531
183.10464 229
194.03578 465
194.05371 448
201.11298 314
217.05403 176
217.06233 186
217.07364 193
221.08011 9129
222.08575 954
230.06018 214
230.07547 216
239.05035 245
239.06569 244
245.03395 169
257.05219 161
257.06561 261
257.08408 200
273.01285 524
273.02551 710
273.04401 547
293.14197 214
313.11188 163
325.22006 480
327.0777 185
329.08572 1145
330.0719 140
330.09988 136
331.10831 161
345.03476 993
345.05344 1135
349.116 196
349.13129 288
401.10648 3633
402.10785 607
402.12582 506
405.0957 462
405.11285 225
417.06635 720
417.08154 772
418.0737 136
421.186 818
422.19083 146
423.09216 162
440.14081 135
440.16992 230
443.16879 13489
443.22403 193
443.24844 158
Name: (AA-BD)2 cylic
PrecursorMZ: 423.1987
PrecursorType: [M+Na]+
IonMode: Positive
Formula: C20H32O8
SMILES: O=C1CCCCC(=O)OCCCCOC(=O)CCCCC(=O)OCCCCO1
InChI: 
InChIKey: CICCYHMSMANUGA-UHFFFAOYSA-N
RetentionTime: NA
CCS: 
CollisionEnergy: 10-30 eV
InstrumentType: UPLC-QTOF-MS
Comment: Oligomers tentatively identified (not confirmed by standards) by David; PI: Cristina Nerin; Data collector: QiZhi Su, GUIA, University of Zaragoza, Spain; Collision energy: 20-40 V; Instrument: Waters HPLC-QTOF-MS (Xevo G2 QTof); Ionization: ESI; Deconvoluted by MS-DIAL
Num peaks: 18
101.0601 1743
111.04458 6073
129.05417 10911
183.10295 4282
201.11249 15696
202.117 1620
220.08202 4153
220.09224 4171
255.14708 852
255.16147 970
257.05994 1439
257.07208 1512
329.1687 1021
385.11987 1271
401.21768 3200
420.19189 2086
420.6918 1009
423.1994 81805
Name: PA-BD2-AA cylic
PrecursorMZ: 438.2147
PrecursorType: [M+NH4]+
IonMode: Positive
Formula: C22H28O8
SMILES: O=C1CCCCC(=O)OCCCCOC(=O)C2=C(C=CC=C2)C(=O)OCCCCO1
InChI: 
InChIKey: FXAZRLIWVYQXEV-UHFFFAOYSA-N
RetentionTime: NA
CCS: 
CollisionEnergy: 10-30 eV
InstrumentType: UPLC-QTOF-MS
Comment: Oligomers tentatively identified (not confirmed by standards) by David; PI: Cristina Nerin; Data collector: QiZhi Su, GUIA, University of Zaragoza, Spain; Collision energy: 20-40 V; Instrument: Waters HPLC-QTOF-MS (Xevo G2 QTof); Ionization: ESI; Deconvoluted by MS-DIAL
Num peaks: 92
55.04809 237
55.05344 238
55.06031 239
60.07544 134
60.08458 134
73.06551 110
73.07285 121
89.06026 99
89.06818 95
111.04395 590
111.05021 595
117.06107 98
121.01815 183
121.03197 166
121.04419 145
123.00984 128
129.03345 97
129.0507 259
129.05765 272
143.06911 108
145.04956 235
145.05576 255
145.06667 240
149.02333 2508
150.03723 170
163.06227 192
163.07364 144
166.99677 179
167.00444 197
167.03401 533
167.05017 422
183.09143 171
183.10213 230
183.11707 178
185.01082 94
194.03914 470
194.54341 135
201.11224 304
201.12766 255
203.05923 141
203.07013 130
217.07248 189
221.08163 9217
222.08772 949
230.07181 210
230.08751 149
235.08853 137
239.06422 243
245.03114 145
257.05261 158
257.06458 257
273.02158 625
273.03427 672
293.13049 195
293.151 168
313.09497 140
313.11029 144
320.13132 131
320.14227 131
325.20486 435
325.21661 499
325.23163 304
327.08127 172
329.08624 1120
330.08737 189
331.1015 113
331.12509 117
345.02765 310
345.0509 1118
346.05496 145
346.06998 125
349.1214 291
349.13693 293
379.20343 94
381.26974 97
396.21207 103
401.10764 3616
402.09143 313
402.11044 623
402.12424 519
405.09021 497
406.09619 100
417.07193 741
417.08673 619
418.07431 132
418.0845 118
421.17148 697
421.1886 820
422.18036 143
422.19324 155
423.08865 156
423.10461 105
Name: (AA-BD)3 cyclic
PrecursorMZ: 623.3062
PrecursorType: [M+Na]+
IonMode: Positive
Formula: C30H48O12
SMILES: O=C1CCCCC(=O)OCCCCOC(=O)CCCCC(=O)OCCCCOC(=O)CCCCC(=O)OCCCCO1
InChI: 
InChIKey: SKOQMASJGYLLBF-UHFFFAOYSA-N
RetentionTime: NA
CCS: 
CollisionEnergy: 10-30 eV
InstrumentType: UPLC-QTOF-MS
Comment: Oligomers tentatively identified (not confirmed by standards) by David; PI: Cristina Nerin; Data collector: QiZhi Su, GUIA, University of Zaragoza, Spain; Collision energy: 20-40 V; Instrument: Waters HPLC-QTOF-MS (Xevo G2 QTof); Ionization: ESI; Deconvoluted by MS-DIAL
Num peaks: 44
60.07504 204
60.08245 201
60.09007 199
84.96053 184
129.05641 212
129.06815 189
145.0502 146
201.11328 881
201.12064 887
255.15263 159
255.16507 145
257.06796 155
257.08054 127
273.02377 248
273.03952 271
313.10013 181
313.11295 133
320.13055 508
320.14456 528
320.63757 199
325.2052 158
325.22089 158
329.08603 269
329.10803 168
329.14709 180
329.16556 156
345.05914 140
381.25937 200
381.27832 163
385.10837 142
385.12637 125
401.10742 707
401.21152 411
401.23926 140
417.06488 124
444.155 199
444.17249 156
505.16003 346
529.26398 123
601.32257 386
601.35815 138
618.33179 226
618.36847 177
623.30786 12130
Name: PA-BD2-AA cylic
PrecursorMZ: 438.2147
PrecursorType: [M+NH4]+
IonMode: Positive
Formula: C22H28O8
SMILES: O=C1CCCCC(=O)OCCCCOC(=O)C2=C(C=CC=C2)C(=O)OCCCCO1
InChI: 
InChIKey: FXAZRLIWVYQXEV-UHFFFAOYSA-N
RetentionTime: NA
CCS: 
CollisionEnergy: 10-30 eV
InstrumentType: UPLC-QTOF-MS
Comment: Oligomers tentatively identified (not confirmed by standards) by David; PI: Cristina Nerin; Data collector: QiZhi Su, GUIA, University of Zaragoza, Spain; Collision energy: 20-40 V; Instrument: Waters HPLC-QTOF-MS (Xevo G2 QTof); Ionization: ESI; Deconvoluted by MS-DIAL
Num peaks: 36
55.05495 568
55.06008 568
111.04628 1040
123.00874 197
123.01957 203
129.04845 365
129.05817 358
149.02423 4665
150.02586 426
150.04237 407
166.99712 372
167.00539 363
167.03444 1080
167.04826 1041
194.02145 397
194.04181 838
203.06207 213
221.08173 18777
222.08679 1944
223.08952 191
230.06755 251
230.07552 232
239.06213 227
293.129 403
293.14728 455
304.07001 289
304.08499 293
325.19745 208
325.21158 286
340.11807 227
349.12729 606
405.07666 875
405.09818 787
406.07898 250
421.18555 1283
422.19513 331
Name: PA-BD2-AA cylic
PrecursorMZ: 443.1677
PrecursorType: [M+Na]+
IonMode: Positive
Formula: C22H28O8
SMILES: O=C1CCCCC(=O)OCCCCOC(=O)C2=C(C=CC=C2)C(=O)OCCCCO1
InChI: 
InChIKey: FXAZRLIWVYQXEV-UHFFFAOYSA-N
RetentionTime: NA
CCS: 
CollisionEnergy: 10-30 eV
InstrumentType: UPLC-QTOF-MS
Comment: Oligomers tentatively identified (not confirmed by standards) by David; PI: Cristina Nerin; Data collector: QiZhi Su, GUIA, University of Zaragoza, Spain; Collision energy: 20-40 V; Instrument: Waters HPLC-QTOF-MS (Xevo G2 QTof); Ionization: ESI; Deconvoluted by MS-DIAL
Num peaks: 31
55.05495 570
55.06008 570
111.04628 1052
129.04845 366
129.05817 358
149.02423 4665
150.02586 429
150.04237 411
166.99712 372
167.00539 363
167.03444 1086
167.04826 1048
194.02145 397
194.04181 846
221.08173 18807
222.08679 1972
293.129 406
293.14728 462
304.07001 289
304.08499 296
325.21158 286
349.12729 611
405.07666 875
405.09818 787
421.18555 1298
422.19513 335
440.15756 1585
440.6525 579
440.67188 568
443.16849 27315
443.24619 332
Name: PA-BD2-AA cylic
PrecursorMZ: 459.1423
PrecursorType: [M+K]+
IonMode: Positive
Formula: C22H28O8
SMILES: O=C1CCCCC(=O)OCCCCOC(=O)C2=C(C=CC=C2)C(=O)OCCCCO1
InChI: 
InChIKey: FXAZRLIWVYQXEV-UHFFFAOYSA-N
RetentionTime: NA
CCS: 
CollisionEnergy: 10-30 eV
InstrumentType: UPLC-QTOF-MS
Comment: Oligomers tentatively identified (not confirmed by standards) by David; PI: Cristina Nerin; Data collector: QiZhi Su, GUIA, University of Zaragoza, Spain; Collision energy: 20-40 V; Instrument: Waters HPLC-QTOF-MS (Xevo G2 QTof); Ionization: ESI; Deconvoluted by MS-DIAL
Num peaks: 35
55.05495 570
55.06008 570
111.04628 1052
129.04845 366
129.05817 358
149.02423 4665
150.02586 429
150.04237 411
166.99712 372
167.00539 363
167.03444 1086
167.04826 1048
194.02145 397
194.04181 846
221.08173 18807
222.08679 1972
230.06755 251
293.129 406
293.14728 462
304.07001 289
304.08499 296
325.21158 286
349.12729 611
405.07666 875
405.09818 787
406.07898 249
421.18555 1298
422.19513 335
440.15756 1585
440.6525 579
440.67188 568
443.16849 23956
444.17078 4429
445.18118 642
459.1431 811
Name: PA-BD2-AA cylic
PrecursorMZ: 421.1867
PrecursorType: [M+H]+
IonMode: Positive
Formula: C22H28O8
SMILES: O=C1CCCCC(=O)OCCCCOC(=O)C2=C(C=CC=C2)C(=O)OCCCCO1
InChI: 
InChIKey: FXAZRLIWVYQXEV-UHFFFAOYSA-N
RetentionTime: NA
CCS: 
CollisionEnergy: 10-30 eV
InstrumentType: UPLC-QTOF-MS
Comment: Oligomers tentatively identified (not confirmed by standards) by David; PI: Cristina Nerin; Data collector: QiZhi Su, GUIA, University of Zaragoza, Spain; Collision energy: 20-40 V; Instrument: Waters HPLC-QTOF-MS (Xevo G2 QTof); Ionization: ESI; Deconvoluted by MS-DIAL
Num peaks: 43
55.05511 569
111.04042 1034
111.04672 1041
111.05625 1017
123.01213 196
129.05318 354
129.0623 332
129.07227 286
149.02458 4668
150.01131 380
150.02966 425
150.03755 416
166.99278 363
166.99858 372
167.0098 415
167.03391 1084
167.04033 1080
194.02362 686
194.0386 832
203.06857 192
221.08195 18777
222.08713 1943
223.08081 202
223.09419 218
230.07048 251
239.05464 219
239.06378 228
293.12595 312
293.13428 505
293.14935 392
304.06714 244
304.08923 257
325.20547 287
325.22247 271
340.11075 223
349.12494 606
349.14362 558
405.07602 803
405.0954 1056
406.07147 210
406.08627 238
421.18457 1082
421.2041 275
Name: (AA-BD)3 cyclic
PrecursorMZ: 618.3511
PrecursorType: [M+NH4]+
IonMode: Positive
Formula: C30H48O12
SMILES: O=C1CCCCC(=O)OCCCCOC(=O)CCCCC(=O)OCCCCOC(=O)CCCCC(=O)OCCCCO1
InChI: 
InChIKey: SKOQMASJGYLLBF-UHFFFAOYSA-N
RetentionTime: NA
CCS: 
CollisionEnergy: 10-30 eV
InstrumentType: UPLC-QTOF-MS
Comment: Oligomers tentatively identified (not confirmed by standards) by David; PI: Cristina Nerin; Data collector: QiZhi Su, GUIA, University of Zaragoza, Spain; Collision energy: 20-40 V; Instrument: Waters HPLC-QTOF-MS (Xevo G2 QTof); Ionization: ESI; Deconvoluted by MS-DIAL
Num peaks: 411
55.0531 35
55.05725 35
56.94143 39
56.94632 47
59.6632 18
60.08064 277
60.08468 278
63.0029 26
65.04037 19
67.05328 52
67.05949 52
69.07001 34
73.04832 29
73.06197 26
74.09538 28
74.10338 27
76.08411 34
80.05463 24
81.96259 31
84.941 504
84.96056 316
88.97769 28
88.98638 22
88.99587 47
93.04666 18
93.06667 17
93.07833 22
101.06491 19
101.95226 26
102.99858 22
104.08144 17
105.96014 16
107.01992 58
107.03143 63
109.04923 28
109.05987 25
109.07089 32
111.04261 114
111.05011 112
112.97655 25
116.06728 17
116.07321 27
117.00178 23
117.08809 40
121.01515 17
121.02435 28
121.46121 16
123.00211 33
123.01167 44
123.0229 20
126.99772 31
127.01598 23
129.04951 388
129.05527 386
129.06859 390
130.1597 109
130.16516 108
133.07614 23
133.08566 28
133.10086 52
135.07973 90
135.09009 94
135.09776 38
137.09109 37
137.09923 29
139.01241 23
139.07364 28
140.9919 21
141.00084 32
141.01752 28
143.06731 34
143.07677 16
147.08211 26
147.09552 42
148.06635 26
149.01236 200
149.02293 261
149.02988 254
156.89658 23
157.09853 16
157.11771 40
159.11002 39
159.11812 23
161.08864 25
161.10245 31
164.98337 18
165.09297 20
165.10118 23
166.0887 28
166.99467 55
167.00662 53
167.03271 55
167.03896 26
168.11186 24
171.07036 46
173.04544 20
178.11771 16
179.05864 22
180.18784 21
181.08493 22
182.11009 18
183.07948 26
183.09325 307
183.10918 308
184.06204 30
184.08212 20
184.10616 47
184.1216 19
185.006 17
185.01628 16
187.05945 21
188.2052 32
190.96832 39
190.98132 32
193.05798 37
193.06793 31
193.16756 17
194.02975 78
194.04893 63
194.12875 31
194.96362 20
195.13414 25
198.07945 34
198.09338 35
198.10204 38
199.11038 37
201.1116 1517
201.13347 391
202.103 131
202.12054 159
203.04135 16
203.04926 20
203.06293 18
203.0842 22
203.10368 47
203.12277 25
204.9715 65
208.11682 20
209.06654 40
211.07254 18
212.10529 31
212.59206 16
213.04955 26
214.06705 16
215.10336 16
217.02104 18
217.07658 40
218.06328 17
218.07353 16
218.12105 24
219.12085 20
220.08093 199
220.09164 206
220.11064 67
220.58455 69
220.59912 68
221.08154 255
222.06161 88
222.11453 18
223.15706 27
224.13383 16
227.06583 18
229.06989 26
229.08385 28
229.09564 36
230.05995 92
230.07869 126
230.57495 20
232.07932 20
234.17731 22
239.05295 79
239.07225 73
242.14919 16
249.07953 20
249.17192 48
249.18877 42
253.16609 17
255.14604 172
255.16595 238
255.17722 209
256.10745 74
256.12021 67
256.16571 24
256.61676 34
257.04327 40
257.07065 190
257.14542 21
261.06711 21
261.07962 27
265.19147 45
266.12311 17
269.05908 24
269.1066 24
269.13474 26
269.15347 28
273.02875 28
273.03821 57
273.05392 54
273.15564 64
273.17499 95
273.1897 72
273.20941 19
275.1246 30
276.1441 28
278.09918 28
279.09924 24
280.09146 23
284.10522 74
284.11554 51
285.11536 26
289.12723 32
289.1615 26
291.1243 34
293.12033 38
293.14996 32
295.16061 29
295.18088 91
296.19373 16
307.25497 22
311.14838 159
312.14407 69
312.15829 59
312.16943 48
313.10492 18
319.05301 33
319.18423 69
319.19812 62
320.10641 86
320.1412 911
320.63391 286
320.65179 278
321.12494 60
321.13553 111
321.16385 65
322.13907 45
322.63882 29
324.18222 16
324.21896 25
325.2085 157
325.2338 59
326.21518 37
327.2168 23
327.22845 28
329.07108 18
329.13388 91
329.15323 317
329.16846 305
330.17212 55
331.12418 17
331.14984 22
331.17609 28
337.18286 36
337.19684 24
337.24509 61
339.11478 18
345.03488 40
345.18372 17
347.15286 19
347.17523 48
349.10605 40
349.12198 21
349.13889 30
353.04639 16
353.22665 33
363.17358 24
363.21021 16
365.18869 34
365.20416 16
367.09637 30
369.14935 63
371.21622 21
371.23593 26
371.24921 75
379.16092 25
379.18448 64
381.1727 20
381.26086 19
382.26715 22
383.18958 117
383.20447 196
383.21945 175
383.29782 18
385.08484 25
385.11371 275
385.13507 200
386.12219 74
387.11844 26
390.0925 19
391.12427 17
396.20078 18
396.22125 45
396.23615 39
399.08279 36
399.09717 52
399.21143 39
399.2305 35
400.24335 20
401.09061 66
401.10919 93
401.19028 19
401.21863 730
402.19766 57
402.2222 175
402.2562 22
403.20157 16
403.23199 71
403.24515 59
405.0759 58
405.09195 52
407.2204 22
412.19556 16
415.25528 19
416.21619 23
417.09262 23
419.04044 20
421.09375 18
421.146 16
421.18152 94
421.2077 99
423.1647 19
425.26779 26
425.30118 19
431.29443 22
433.1796 17
443.24261 26
444.16846 85
444.23373 22
444.25067 34
445.17038 32
454.27081 29
455.24854 25
455.2739 80
457.17624 43
459.13666 53
459.16718 77
465.24075 20
472.27393 21
473.13486 73
477.10489 27
479.25827 31
479.27792 75
480.28583 25
483.10629 17
485.19461 20
487.17545 17
488.25171 18
489.17261 17
494.54306 52
494.56915 103
494.59326 70
495.59198 29
501.08429 20
501.29337 21
502.83118 17
503.31616 18
505.13638 329
505.35541 16
506.13879 55
506.16257 30
511.26459 51
512.21906 31
512.23242 34
512.26678 20
517.3418 21
521.08112 16
521.20239 18
529.26019 287
529.28003 290
529.30219 61
530.24133 30
531.19 22
540.70502 33
544.75922 18
553.33698 18
555.74567 16
556.71356 31
562.35773 16
563.23462 24
563.32941 28
563.349 24
566.61713 19
567.30981 16
576.37366 19
577.27081 16
581.76031 20
583.31781 46
584.31409 21
584.34375 19
585.21667 35
585.23969 51
585.25696 42
601.32507 920
601.3775 50
601.44769 25
602.3175 222
602.35327 103
603.3252 116
604.32764 22
604.3609 16
605.43451 20
606.40839 29
607.41663 18
611.27057 16
611.33453 21
613.9718 20
618.32245 105
618.35107 280
618.38574 75
618.49829 27
618.55774 20
618.67285 24
Name: (AA-BD)3 cyclic
PrecursorMZ: 601.3251
PrecursorType: [M+H]+
IonMode: Positive
Formula: C30H48O12
SMILES: O=C1CCCCC(=O)OCCCCOC(=O)CCCCC(=O)OCCCCOC(=O)CCCCC(=O)OCCCCO1
InChI: 
InChIKey: SKOQMASJGYLLBF-UHFFFAOYSA-N
RetentionTime: NA
CCS: 
CollisionEnergy: 10-30 eV
InstrumentType: UPLC-QTOF-MS
Comment: Oligomers tentatively identified (not confirmed by standards) by David; PI: Cristina Nerin; Data collector: QiZhi Su, GUIA, University of Zaragoza, Spain; Collision energy: 20-40 V; Instrument: Waters HPLC-QTOF-MS (Xevo G2 QTof); Ionization: ESI; Deconvoluted by MS-DIAL
Num peaks: 394
55.05147 40
55.05702 40
55.063 40
56.96453 16
60.08249 276
60.08869 277
61.80057 16
61.81024 16
62.99985 26
65.03896 20
67.04974 50
67.05852 52
69.07023 40
73.06524 19
74.09333 28
76.08568 33
80.05265 22
82.02322 17
84.96046 316
84.97122 311
86.96222 16
88.9768 22
88.98281 25
93.068 27
96.96786 17
97.97115 18
97.98978 20
100.96063 22
101.06128 21
101.93861 17
101.94959 28
102.99481 21
103.00518 22
104.07758 18
105.96741 17
106.99191 18
107.03418 56
109.0653 28
111.04412 119
111.05302 117
111.11555 18
112.96287 25
112.9933 17
113.01039 20
117.03862 16
117.05053 17
120.09193 16
121.02592 19
121.44645 17
121.93279 18
123.01511 51
123.02737 23
126.5573 22
127.05051 16
129.01242 24
129.03128 86
129.04887 396
129.06404 384
130.15324 104
130.16109 109
130.16757 105
133.08463 19
133.10248 34
135.07556 71
135.09143 96
139.07722 39
140.98541 21
143.06258 42
147.06352 27
147.07077 39
148.06659 28
149.02409 265
151.01137 30
153.05753 28
156.12036 37
156.1382 20
156.89262 22
157.10736 31
157.12387 55
159.07501 18
159.11909 25
161.07214 19
161.09045 26
161.11435 36
163.0961 20
164.98367 18
165.12973 21
165.13647 23
167.00735 85
167.02719 95
170.92406 16
171.06194 22
173.04033 21
173.05634 27
176.9234 30
177.09981 33
178.01445 16
181.0887 25
181.10666 25
181.13351 18
183.10266 319
183.12071 295
184.0621 31
184.11894 19
187.119 22
188.19017 33
188.19923 30
190.96669 38
190.97939 31
190.99512 39
193.06708 38
194.04546 54
194.12384 40
194.53346 34
194.97197 16
197.05196 25
198.08475 32
198.09293 34
198.10947 26
199.09389 37
199.10493 38
201.11391 1518
202.11302 157
202.12477 139
203.04449 31
203.11037 24
205.12387 21
205.17044 17
209.07684 31
209.08542 23
209.15025 19
210.10741 18
212.1131 33
213.09694 21
217.03166 19
217.05066 25
217.05786 16
217.07372 29
218.07259 17
220.08777 214
220.5834 69
220.5947 69
221.08243 290
221.33018 16
221.34169 16
222.15575 17
223.11421 17
223.14137 20
223.15529 19
229.08247 30
230.07719 120
230.08943 117
230.10057 40
234.18481 24
238.06735 29
238.1221 17
239.05206 73
239.07404 27
239.08693 32
249.09769 21
249.18015 46
253.09286 47
253.11142 36
253.1546 19
255.16357 239
255.18098 213
256.10025 50
256.1123 63
256.12997 58
256.13968 62
256.15646 18
256.16605 27
256.62476 32
257.05591 161
257.0668 183
257.08109 194
257.09607 74
257.10928 27
257.1398 17
258.07095 20
261.06195 24
261.08133 27
261.1178 17
265.20844 37
266.11591 18
269.05942 23
269.11551 21
270.1077 19
273.0679 26
273.16534 82
273.19061 70
275.10562 29
275.1254 32
276.13519 44
278.1282 28
279.06683 26
279.08362 31
279.09286 28
279.17273 17
280.08798 25
284.09238 48
284.11176 68
285.12531 16
285.67371 30
287.17148 30
289.12772 29
290.17746 18
291.11469 19
299.06406 23
299.17926 25
303.99438 21
307.24545 17
307.26102 27
310.14249 19
311.13208 96
311.15631 145
311.17288 56
312.11182 18
312.15302 74
312.16556 49
313.09442 18
319.03522 33
319.04929 31
319.19208 67
320.12036 476
320.14139 911
320.21521 16
320.63373 287
320.6499 280
321.12488 61
322.1424 45
322.64841 27
323.12064 26
324.21176 20
324.22324 19
325.21368 146
325.23087 77
326.22226 31
328.12616 23
329.1347 95
329.16214 305
329.185 48
330.15314 56
330.16937 50
330.19611 26
331.1062 22
331.14948 27
331.17331 30
334.16562 17
335.25775 32
337.23859 45
337.25085 60
339.11011 19
345.03601 20
347.16611 34
347.17795 53
349.11395 21
349.12646 27
351.15204 27
351.2233 17
352.13318 19
355.15665 31
355.19241 38
365.24188 22
366.18881 19
367.11606 34
368.25537 20
369.13861 62
371.23056 33
376.15125 30
379.17941 57
379.19284 46
380.28027 18
381.15302 23
381.17261 20
381.26834 69
382.2684 23
383.20309 194
383.2207 159
383.23361 41
384.20929 20
384.228 29
385.08957 76
385.12375 304
385.14069 197
385.19928 20
385.2149 20
385.6127 22
386.11844 68
386.14218 41
387.10226 35
396.1962 30
396.22119 44
399.08011 34
399.09531 46
399.21896 53
399.2308 35
400.24429 17
401.19104 19
401.22205 731
402.20084 61
402.22537 173
402.25696 20
403.20984 50
403.22839 82
403.24252 61
415.1889 45
415.26727 21
415.28659 29
418.17673 19
419.24106 17
420.25339 21
421.07895 28
421.13614 17
421.16815 20
421.18878 71
422.16467 22
423.30969 20
425.27066 44
431.27124 19
442.46933 17
443.19083 226
444.1745 90
444.23474 24
445.18564 30
446.08646 19
449.71335 21
455.26288 78
457.18295 48
457.23514 22
459.13315 39
459.17096 76
460.11667 23
462.6546 26
465.22983 17
473.12012 63
473.13937 76
473.25735 17
473.30197 28
475.30115 22
477.10803 30
478.22278 23
479.258 32
479.28937 68
483.10239 18
487.19025 18
494.57465 119
494.59369 71
495.10513 16
495.55759 40
501.3027 25
503.33005 19
505.11731 270
505.1441 360
506.13464 22
506.15588 30
507.12717 34
507.15677 16
509.14084 26
511.25314 46
511.28564 22
512.22821 32
512.26672 20
512.28162 21
517.32819 18
521.20032 16
524.14117 17
526.69653 18
529.25665 248
529.27258 336
530.25574 49
530.28412 20
531.17963 16
531.22485 19
544.7641 18
548.25037 22
548.26349 25
549.23682 16
557.31146 19
563.24176 26
566.61865 20
573.211 21
576.36279 21
579.29602 46
581.77954 20
583.31036 36
583.33691 37
584.31696 22
585.21625 28
585.23663 54
601.28125 36
601.31628 721
601.3653 111
601.41974 52
Name: (AA-BD)3 cyclic
PrecursorMZ: 623.3036
PrecursorType: [M+Na]+
IonMode: Positive
Formula: C30H48O12
SMILES: O=C1CCCCC(=O)OCCCCOC(=O)CCCCC(=O)OCCCCOC(=O)CCCCC(=O)OCCCCO1
InChI: 
InChIKey: SKOQMASJGYLLBF-UHFFFAOYSA-N
RetentionTime: NA
CCS: 
CollisionEnergy: 10-30 eV
InstrumentType: UPLC-QTOF-MS
Comment: Oligomers tentatively identified (not confirmed by standards) by David; PI: Cristina Nerin; Data collector: QiZhi Su, GUIA, University of Zaragoza, Spain; Collision energy: 20-40 V; Instrument: Waters HPLC-QTOF-MS (Xevo G2 QTof); Ionization: ESI; Deconvoluted by MS-DIAL
Num peaks: 31
60.08249 282
60.08869 283
84.96046 316
84.97122 311
129.04887 381
129.06404 365
149.02409 247
183.10266 312
183.12071 284
201.11391 1485
220.08777 211
221.08243 243
255.16357 235
255.18098 206
257.08109 198
320.12036 479
320.14139 919
320.63373 280
320.6499 273
329.16214 295
385.12375 299
401.22205 716
443.19083 226
505.11731 264
505.1441 337
529.25665 238
529.27258 329
601.31628 919
602.32739 217
618.35284 265
623.3056 19355
Name: Cylic PLA n=7
PrecursorMZ: 505.1551
PrecursorType: [M+H]+
IonMode: Positive
Formula: C21H28O14
SMILES: CC1OC(=O)C(C)OC(=O)C(C)OC(=O)C(C)OC(=O)C(C)OC(=O)C(C)OC(=O)C(C)OC1=O
InChI: 
InChIKey: VOIMRKAVESNHRI-UHFFFAOYNA-N
RetentionTime: NA
CCS: 
CollisionEnergy: 10-30 eV
InstrumentType: UPLC-QTOF-MS
Comment: Oligomers tentatively identified (not confirmed by standards) by David; PI: Cristina Nerin; Data collector: QiZhi Su, GUIA, University of Zaragoza, Spain; Collision energy: 20-40 V; Instrument: Waters HPLC-QTOF-MS (Xevo G2 QTof); Ionization: ESI; Deconvoluted by MS-DIAL
Num peaks: 49
89.05902 11279
90.06322 846
90.07069 851
117.03876 967
117.0546 1161
117.0713 1054
145.04872 34720
146.05278 2204
164.01936 2061
164.02716 2100
173.01485 1594
173.03238 1403
189.07527 1747
200.0312 3505
200.53499 660
200.54419 672
207.03098 1012
207.04271 999
217.0701 65812
218.07483 5869
219.07085 1088
219.08084 1182
236.03619 1894
236.04684 1779
261.09695 2153
264.06821 780
272.05371 10730
272.55399 2480
273.04541 963
273.06531 751
280.03827 1502
289.09146 37958
290.09558 5236
291.0961 887
333.10629 2617
333.11649 2656
345.04385 680
345.05853 863
361.11285 27869
362.11481 4051
363.11652 875
383.09647 1173
405.12885 962
405.14581 1142
417.07401 1081
433.13239 21945
434.13885 4441
455.11395 5055
505.15796 3059
Name: Cylic PLA n=7
PrecursorMZ: 522.1805
PrecursorType: [M+NH4]+
IonMode: Positive
Formula: C21H28O14
SMILES: CC1OC(=O)C(C)OC(=O)C(C)OC(=O)C(C)OC(=O)C(C)OC(=O)C(C)OC(=O)C(C)OC1=O
InChI: 
InChIKey: VOIMRKAVESNHRI-UHFFFAOYNA-N
RetentionTime: NA
CCS: 
CollisionEnergy: 10-30 eV
InstrumentType: UPLC-QTOF-MS
Comment: Oligomers tentatively identified (not confirmed by standards) by David; PI: Cristina Nerin; Data collector: QiZhi Su, GUIA, University of Zaragoza, Spain; Collision energy: 20-40 V; Instrument: Waters HPLC-QTOF-MS (Xevo G2 QTof); Ionization: ESI; Deconvoluted by MS-DIAL
Num peaks: 50
89.05902 11396
90.06322 852
90.07069 859
117.03876 981
117.0546 1175
117.0713 1070
145.04872 34987
146.05278 2222
164.01936 2089
164.02716 2127
173.01485 1608
173.03238 1412
189.07527 1770
200.0312 3529
200.53499 664
200.54419 676
207.03098 1012
207.04271 999
217.0701 66305
218.07483 5909
219.07085 1098
219.08084 1191
236.03619 1903
236.04684 1788
261.09695 2128
264.06821 783
272.05371 10741
272.55399 2482
273.04541 970
273.06531 751
280.03827 1502
289.09146 38243
290.09558 5266
291.0961 889
333.10629 2633
333.11649 2678
345.04385 684
345.05853 867
361.11285 28032
362.11481 4073
363.11652 880
383.09647 1215
405.12885 971
405.14581 1150
417.07401 1083
433.13239 22067
434.13885 4463
455.11395 5174
505.15796 2387
522.1817 40537
Name: Cylic PLA n=7
PrecursorMZ: 527.1363
PrecursorType: [M+Na]+
IonMode: Positive
Formula: C21H28O14
SMILES: CC1OC(=O)C(C)OC(=O)C(C)OC(=O)C(C)OC(=O)C(C)OC(=O)C(C)OC(=O)C(C)OC1=O
InChI: 
InChIKey: VOIMRKAVESNHRI-UHFFFAOYNA-N
RetentionTime: NA
CCS: 
CollisionEnergy: 10-30 eV
InstrumentType: UPLC-QTOF-MS
Comment: Oligomers tentatively identified (not confirmed by standards) by David; PI: Cristina Nerin; Data collector: QiZhi Su, GUIA, University of Zaragoza, Spain; Collision energy: 20-40 V; Instrument: Waters HPLC-QTOF-MS (Xevo G2 QTof); Ionization: ESI; Deconvoluted by MS-DIAL
Num peaks: 16
89.05902 11279
145.04872 34720
217.0701 65812
218.07483 5869
272.05371 10730
289.09146 37958
290.09558 5236
361.11285 27869
362.11481 4051
433.13239 21945
434.13885 4441
455.11395 5055
522.1817 34862
523.18408 8385
524.12659 6804
527.1358 378736
Name: Cylic PLA n=7
PrecursorMZ: 543.1094
PrecursorType: [M+K]+
IonMode: Positive
Formula: C21H28O14
SMILES: CC1OC(=O)C(C)OC(=O)C(C)OC(=O)C(C)OC(=O)C(C)OC(=O)C(C)OC(=O)C(C)OC1=O
InChI: 
InChIKey: VOIMRKAVESNHRI-UHFFFAOYNA-N
RetentionTime: NA
CCS: 
CollisionEnergy: 10-30 eV
InstrumentType: UPLC-QTOF-MS
Comment: Oligomers tentatively identified (not confirmed by standards) by David; PI: Cristina Nerin; Data collector: QiZhi Su, GUIA, University of Zaragoza, Spain; Collision energy: 20-40 V; Instrument: Waters HPLC-QTOF-MS (Xevo G2 QTof); Ionization: ESI; Deconvoluted by MS-DIAL
Num peaks: 30
89.05902 11279
145.04872 34720
146.05278 2204
164.01936 2061
164.02716 2100
200.0312 3505
217.0701 65812
218.07483 5869
236.03619 1894
261.09695 2153
272.05371 10730
272.55399 2480
289.09146 37958
290.09558 5236
333.10629 2617
333.11649 2656
361.11285 27869
362.11481 4051
433.13239 21945
434.13885 4441
455.11395 5055
505.15796 2367
522.1817 34862
523.18408 8385
524.12659 6804
524.62927 3331
527.1358 186635
528.13885 36274
529.14307 7705
543.11017 13368
Name: Cylic PLA n=8
PrecursorMZ: 615.1319
PrecursorType: [M+K]+
IonMode: Positive
Formula: C24H32O16
SMILES: CC1OC(=O)C(C)OC(=O)C(C)OC(=O)C(C)OC(=O)C(C)OC(=O)C(C)OC(=O)C(C)OC(=O)C(C)OC1=O
InChI: 
InChIKey: PPVBZYMBCYDDSL-UHFFFAOYNA-N
RetentionTime: NA
CCS: 
CollisionEnergy: 10-30 eV
InstrumentType: UPLC-QTOF-MS
Comment: Oligomers tentatively identified (not confirmed by standards) by David; PI: Cristina Nerin; Data collector: QiZhi Su, GUIA, University of Zaragoza, Spain; Collision energy: 20-40 V; Instrument: Waters HPLC-QTOF-MS (Xevo G2 QTof); Ionization: ESI; Deconvoluted by MS-DIAL
Num peaks: 17
89.0584 5881
127.05579 2216
145.04887 29178
218.07391 8675
308.06448 18600
308.56381 5092
333.11987 7383
361.11267 6530
417.07059 2497
433.13333 14492
505.15442 22311
594.20154 33778
595.20441 5976
599.15674 221556
600.16083 56739
601.16498 13118
615.13062 22939
Name: Cylic PLA n=8
PrecursorMZ: 599.1568
PrecursorType: [M+Na]+
IonMode: Positive
Formula: C24H32O16
SMILES: CC1OC(=O)C(C)OC(=O)C(C)OC(=O)C(C)OC(=O)C(C)OC(=O)C(C)OC(=O)C(C)OC(=O)C(C)OC1=O
InChI: 
InChIKey: PPVBZYMBCYDDSL-UHFFFAOYNA-N
RetentionTime: NA
CCS: 
CollisionEnergy: 10-30 eV
InstrumentType: UPLC-QTOF-MS
Comment: Oligomers tentatively identified (not confirmed by standards) by David; PI: Cristina Nerin; Data collector: QiZhi Su, GUIA, University of Zaragoza, Spain; Collision energy: 20-40 V; Instrument: Waters HPLC-QTOF-MS (Xevo G2 QTof); Ionization: ESI; Deconvoluted by MS-DIAL
Num peaks: 29
89.05769 4705
89.06239 4721
89.07355 4711
145.04893 24183
164.0202 2410
164.03091 2402
189.07632 2668
200.03122 2950
217.07065 75445
218.0739 7019
261.09683 4332
289.09116 62944
290.09476 7972
308.06488 15753
308.55728 4280
308.56866 4414
333.11719 5937
361.11255 63787
362.11548 9501
405.13791 3476
433.13269 80526
434.13596 14583
435.14151 2968
505.15439 18432
506.15939 4049
594.20172 160947
595.20557 41130
596.20801 9635
599.15735 227840
Name: Cylic PLA n=8
PrecursorMZ: 577.1755
PrecursorType: [M+H]+
IonMode: Positive
Formula: C24H32O16
SMILES: CC1OC(=O)C(C)OC(=O)C(C)OC(=O)C(C)OC(=O)C(C)OC(=O)C(C)OC(=O)C(C)OC(=O)C(C)OC1=O
InChI: 
InChIKey: PPVBZYMBCYDDSL-UHFFFAOYNA-N
RetentionTime: NA
CCS: 
CollisionEnergy: 10-30 eV
InstrumentType: UPLC-QTOF-MS
Comment: Oligomers tentatively identified (not confirmed by standards) by David; PI: Cristina Nerin; Data collector: QiZhi Su, GUIA, University of Zaragoza, Spain; Collision energy: 20-40 V; Instrument: Waters HPLC-QTOF-MS (Xevo G2 QTof); Ionization: ESI; Deconvoluted by MS-DIAL
Num peaks: 43
89.05888 1841
89.07783 1593
127.03661 1583
127.04789 1599
145.04898 19505
146.05293 1204
164.02219 1903
189.07669 2280
189.08446 2055
199.06151 1337
199.06989 1358
200.03218 2532
217.07039 69172
218.07469 6097
219.05746 1080
219.0752 905
236.04526 2005
261.0957 3970
273.02954 1143
289.09204 59899
290.09509 7310
291.0943 1392
291.11615 1259
300.07809 1282
308.06503 19369
308.56583 5313
309.06824 1443
316.05124 865
333.11615 6008
334.12375 864
345.05194 1371
361.11188 64409
362.11612 9048
363.11636 1925
405.13858 3507
405.15558 3675
417.06711 2304
433.13293 81917
434.13629 14855
435.13678 3091
505.15536 19783
506.15781 4233
577.17529 2219
Name: Cylic PLA n=8
PrecursorMZ: 594.2018
PrecursorType: [M+NH4]+
IonMode: Positive
Formula: C24H32O16
SMILES: CC1OC(=O)C(C)OC(=O)C(C)OC(=O)C(C)OC(=O)C(C)OC(=O)C(C)OC(=O)C(C)OC(=O)C(C)OC1=O
InChI: 
InChIKey: PPVBZYMBCYDDSL-UHFFFAOYNA-N
RetentionTime: NA
CCS: 
CollisionEnergy: 10-30 eV
InstrumentType: UPLC-QTOF-MS
Comment: Oligomers tentatively identified (not confirmed by standards) by David; PI: Cristina Nerin; Data collector: QiZhi Su, GUIA, University of Zaragoza, Spain; Collision energy: 20-40 V; Instrument: Waters HPLC-QTOF-MS (Xevo G2 QTof); Ionization: ESI; Deconvoluted by MS-DIAL
Num peaks: 22
145.04898 18276
189.07669 2132
200.03218 2403
217.07039 64750
218.07469 5672
261.0957 3745
289.09204 56106
290.09509 6852
308.06503 18647
308.56583 5256
333.11615 5618
361.11188 60303
362.11612 8451
405.13858 3284
405.15558 3436
417.06711 2146
433.13293 76698
434.13629 13882
435.13678 2895
505.15536 18473
506.15781 3970
594.20154 205765
Name: Cylic PLA n=9
PrecursorMZ: 649.1981
PrecursorType: [M+H]+
IonMode: Positive
Formula: C27H36O18
SMILES: CC1OC(=O)C(C)OC(=O)C(C)OC(=O)C(C)OC(=O)C(C)OC(=O)C(C)OC(=O)C(C)OC(=O)C(C)OC(=O)C(C)OC1=O
InChI: 
InChIKey: HUDKHJBZLMMETH-UHFFFAOYNA-N
RetentionTime: NA
CCS: 
CollisionEnergy: 10-30 eV
InstrumentType: UPLC-QTOF-MS
Comment: Oligomers tentatively identified (not confirmed by standards) by David; PI: Cristina Nerin; Data collector: QiZhi Su, GUIA, University of Zaragoza, Spain; Collision energy: 20-40 V; Instrument: Waters HPLC-QTOF-MS (Xevo G2 QTof); Ionization: ESI; Deconvoluted by MS-DIAL
Num peaks: 53
60.08028 2736
60.08469 2736
89.05956 2756
89.06844 2757
116.01799 1236
127.038 3075
127.04672 3061
145.04919 15475
164.02351 3190
189.07744 3214
199.0602 2095
200.03401 4598
217.07083 74463
218.07314 7069
236.04404 3263
261.09708 7340
271.08731 1156
272.05481 3639
273.02997 1357
289.09229 68793
290.09668 9041
291.08124 1386
291.09583 1671
308.06342 2087
308.07785 2107
316.04984 1305
333.11829 7951
334.12335 1190
336.08459 2293
344.07553 34137
344.57767 11060
345.04773 4109
345.07864 3647
346.0723 1230
352.06085 1928
361.11261 68553
362.11691 10109
363.12015 2139
405.13824 5692
406.14322 1133
417.06866 4921
433.13388 109794
434.13864 20054
435.14014 4476
477.15887 2183
489.08826 2008
489.10571 2317
505.15613 47464
506.15912 10247
507.16272 2157
577.17694 9078
578.17926 2968
649.19281 2103
Name: Cylic PLA n=9
PrecursorMZ: 666.2251
PrecursorType: [M+NH4]+
IonMode: Positive
Formula: C27H36O18
SMILES: CC1OC(=O)C(C)OC(=O)C(C)OC(=O)C(C)OC(=O)C(C)OC(=O)C(C)OC(=O)C(C)OC(=O)C(C)OC(=O)C(C)OC1=O
InChI: 
InChIKey: HUDKHJBZLMMETH-UHFFFAOYNA-N
RetentionTime: NA
CCS: 
CollisionEnergy: 10-30 eV
InstrumentType: UPLC-QTOF-MS
Comment: Oligomers tentatively identified (not confirmed by standards) by David; PI: Cristina Nerin; Data collector: QiZhi Su, GUIA, University of Zaragoza, Spain; Collision energy: 20-40 V; Instrument: Waters HPLC-QTOF-MS (Xevo G2 QTof); Ionization: ESI; Deconvoluted by MS-DIAL
Num peaks: 29
127.038 2357
127.04672 2342
145.04919 10903
164.02351 2399
189.07744 2331
200.03401 3770
217.07083 54988
218.07314 5268
236.04404 2367
261.09708 5442
272.05481 2772
289.09229 50621
290.09668 6717
333.11829 5727
344.07553 27688
344.57767 8983
345.07864 3060
361.11261 50870
362.11691 7468
405.13824 4156
417.06866 3552
433.13388 83637
434.13864 15388
435.14014 3448
505.15613 35311
506.15912 7583
577.17694 6203
649.19281 2251
666.22424 215946
Name: AA-BD linear
PrecursorMZ: 241.1045
PrecursorType: [M+Na]+
IonMode: Positive
Formula: C10H18O5
SMILES: OCCCCOC(=O)CCCCC(O)=O
InChI: 
InChIKey: ZSYUYBMMNNGZIB-UHFFFAOYSA-N
RetentionTime: NA
CCS: 
CollisionEnergy: 10-30 eV
InstrumentType: UPLC-QTOF-MS
Comment: Oligomers tentatively identified (not confirmed by standards) by David; PI: Cristina Nerin; Data collector: QiZhi Su, GUIA, University of Zaragoza, Spain; Collision energy: 20-40 V; Instrument: Waters HPLC-QTOF-MS (Xevo G2 QTof); Ionization: ESI; Deconvoluted by MS-DIAL
Num peaks: 148
55.04732 328
55.05262 328
55.05876 328
56.05604 18
59.04586 25
65.0003 21
71.0495 47
73.02773 14
73.06459 451
73.0697 441
73.42451 18
79.51836 21
83.03911 626
83.04502 626
83.05055 626
84.04859 24
84.05725 24
85.96613 22
91.07817 16
93.04334 13
96.95871 25
97.05706 14
97.0631 14
97.10077 26
101.05883 514
102.06462 27
110.00291 28
111.03629 806
111.04642 815
111.06012 734
112.04811 32
112.99432 19
115.02759 44
115.07044 167
115.07938 161
116.08278 13
120.99435 86
121.00443 54
122.01261 16
123.00706 841
123.01293 832
124.00853 36
125.04752 18
127.00426 290
127.01181 345
127.02601 331
127.04092 137
128.00504 36
129.01904 685
129.02502 692
129.03152 736
129.04207 618
129.05467 147
130.05472 29
130.99529 29
134.04492 13
141.01093 76
141.01952 77
141.02541 77
141.97406 17
143.06755 31
145.04422 17
149.02739 24
149.04733 17
149.12851 14
150.99278 55
151.0092 67
155.01866 222
155.03029 228
155.98058 20
155.99016 23
157.04729 136
157.0643 106
162.03596 20
167.00108 1219
167.07954 21
168.00159 49
169.01007 15
169.02736 19
169.03392 40
169.04721 54
170.99428 33
171.01715 300
171.02553 300
171.03331 291
175.13622 21
175.15279 18
177.00061 15
181.08568 47
182.16037 19
185.00206 603
185.01511 655
185.03708 59
186.00853 44
187.02049 30
187.02933 24
187.04019 22
187.97604 16
189.03528 340
190.03702 14
191.01917 19
191.0295 20
193.0751 20
195.09538 93
196.08517 21
197.04324 16
197.06354 28
197.08537 67
198.0869 18
199.01678 261
199.02794 249
199.0844 302
199.09694 331
199.10757 235
200.08775 51
200.10074 49
200.11209 34
200.97478 54
200.98494 57
201.01538 205
201.03015 351
201.03931 348
201.10588 16
202.04117 23
202.05524 14
204.07797 32
204.08942 32
204.99025 18
205.01811 37
205.10883 33
205.12323 14
208.97899 18
210.97145 17
211.04774 14
213.07787 58
217.0144 321
217.02499 388
217.03603 369
221.0462 57
221.06372 45
225.05669 15
227.03616 21
235.17122 19
237.06157 47
237.07016 39
241.08713 122
241.09944 385
241.11031 507
Name: Cylic PLA n=9
PrecursorMZ: 671.1805
PrecursorType: [M+Na]+
IonMode: Positive
Formula: C27H36O18
SMILES: CC1OC(=O)C(C)OC(=O)C(C)OC(=O)C(C)OC(=O)C(C)OC(=O)C(C)OC(=O)C(C)OC(=O)C(C)OC(=O)C(C)OC1=O
InChI: 
InChIKey: HUDKHJBZLMMETH-UHFFFAOYNA-N
RetentionTime: NA
CCS: 
CollisionEnergy: 10-30 eV
InstrumentType: UPLC-QTOF-MS
Comment: Oligomers tentatively identified (not confirmed by standards) by David; PI: Cristina Nerin; Data collector: QiZhi Su, GUIA, University of Zaragoza, Spain; Collision energy: 20-40 V; Instrument: Waters HPLC-QTOF-MS (Xevo G2 QTof); Ionization: ESI; Deconvoluted by MS-DIAL
Num peaks: 21
145.04919 8112
200.03401 2856
217.07083 42580
218.07314 4116
261.09708 4107
289.09229 37008
290.09668 5008
333.11829 3957
344.07553 24840
344.57767 8064
361.11261 36978
362.11691 5350
405.13824 2839
433.13388 61136
434.13864 11184
505.15613 22005
506.15912 4903
666.22424 194871
667.22766 54784
668.22955 14537
671.1795 281905
Name: AA-BD linear
PrecursorMZ: 257.0713
PrecursorType: [M+K]+
IonMode: Positive
Formula: C10H18O5
SMILES: OCCCCOC(=O)CCCCC(O)=O
InChI: 
InChIKey: ZSYUYBMMNNGZIB-UHFFFAOYSA-N
RetentionTime: NA
CCS: 
CollisionEnergy: 10-30 eV
InstrumentType: UPLC-QTOF-MS
Comment: Oligomers tentatively identified (not confirmed by standards) by David; PI: Cristina Nerin; Data collector: QiZhi Su, GUIA, University of Zaragoza, Spain; Collision energy: 20-40 V; Instrument: Waters HPLC-QTOF-MS (Xevo G2 QTof); Ionization: ESI; Deconvoluted by MS-DIAL
Num peaks: 65
55.04732 358
55.05262 358
55.05876 358
73.06459 469
73.0697 459
83.03911 630
83.04502 630
83.05055 630
101.05883 518
111.03629 814
111.04642 817
111.06012 743
115.07044 171
115.07938 163
120.99435 116
121.00443 93
123.00706 851
123.01293 856
127.00426 293
127.01181 347
127.02601 355
127.04092 144
129.01904 687
129.02502 696
129.03152 749
129.04207 621
129.05467 147
141.01093 82
141.01952 82
141.02541 81
155.01866 226
155.03029 230
157.04729 146
157.0643 112
167.00108 1241
171.01715 319
171.02553 318
171.03331 307
185.00206 610
185.01511 660
189.03528 362
195.09538 94
199.01678 296
199.02794 283
199.0844 337
199.09694 365
199.10757 263
201.01538 216
201.03015 386
201.03931 373
217.0144 318
217.02499 395
217.03603 378
241.08713 774
241.09944 1091
241.11031 992
242.09641 98
242.117 87
243.06215 704
243.08424 1297
244.08649 204
249.00288 86
255.07449 176
255.09218 163
257.07013 7054
Name: Cylic PLA n=9
PrecursorMZ: 687.1561
PrecursorType: [M+K]+
IonMode: Positive
Formula: C27H36O18
SMILES: CC1OC(=O)C(C)OC(=O)C(C)OC(=O)C(C)OC(=O)C(C)OC(=O)C(C)OC(=O)C(C)OC(=O)C(C)OC(=O)C(C)OC1=O
InChI: 
InChIKey: HUDKHJBZLMMETH-UHFFFAOYNA-N
RetentionTime: NA
CCS: 
CollisionEnergy: 10-30 eV
InstrumentType: UPLC-QTOF-MS
Comment: Oligomers tentatively identified (not confirmed by standards) by David; PI: Cristina Nerin; Data collector: QiZhi Su, GUIA, University of Zaragoza, Spain; Collision energy: 20-40 V; Instrument: Waters HPLC-QTOF-MS (Xevo G2 QTof); Ionization: ESI; Deconvoluted by MS-DIAL
Num peaks: 25
145.04919 8112
200.03401 2856
217.07083 42580
218.07314 4116
261.09708 4107
289.09229 37008
290.09668 5008
333.11829 3957
344.07553 24840
344.57767 8064
345.07864 2812
361.11261 36978
362.11691 5350
405.13824 2839
433.13388 61136
434.13864 11184
505.15613 22005
506.15912 4903
666.22424 194871
667.22766 54784
668.22955 14537
671.1795 278364
672.18311 76235
673.18622 20346
687.15369 25306
Name: Cylic PLA n=10
PrecursorMZ: 759.1757
PrecursorType: [M+K]+
IonMode: Positive
Formula: C30H40O20
SMILES: CC1OC(=O)C(C)OC(=O)C(C)OC(=O)C(C)OC(=O)C(C)OC(=O)C(C)OC(=O)C(C)OC(=O)C(C)OC(=O)C(C)OC(=O)C(C)OC1=O
InChI: 
InChIKey: TWLJVMPKZBAFRN-UHFFFAOYNA-N
RetentionTime: NA
CCS: 
CollisionEnergy: 10-30 eV
InstrumentType: UPLC-QTOF-MS
Comment: Oligomers tentatively identified (not confirmed by standards) by David; PI: Cristina Nerin; Data collector: QiZhi Su, GUIA, University of Zaragoza, Spain; Collision energy: 20-40 V; Instrument: Waters HPLC-QTOF-MS (Xevo G2 QTof); Ionization: ESI; Deconvoluted by MS-DIAL
Num peaks: 49
60.06897 7327
60.08043 7341
60.09475 7334
116.01968 1122
145.04895 5129
164.02415 1678
173.0401 414
200.04536 3534
209.03763 380
218.07417 2851
244.02719 464
244.03883 387
261.09753 3926
262.10303 466
272.5488 842
280.04932 2181
281.56812 475
301.07501 423
308.06738 4722
317.05499 816
317.06732 596
317.086 679
334.14459 528
336.09229 500
344.57227 957
363.11975 1634
389.0947 425
406.14944 429
415.12323 780
418.09973 413
436.13412 451
477.1795 1074
478.14914 634
507.14828 3897
519.177 497
549.17944 2402
550.22894 393
555.16943 6427
556.17401 1381
557.17346 380
577.17725 37898
579.20673 637
721.21735 3570
742.25598 396
743.20111 1668
746.20599 578
747.19116 462
747.22614 481
759.17596 16500
Name: Cylic PLA n=10
PrecursorMZ: 721.22
PrecursorType: [M+H]+
IonMode: Positive
Formula: C30H40O20
SMILES: CC1OC(=O)C(C)OC(=O)C(C)OC(=O)C(C)OC(=O)C(C)OC(=O)C(C)OC(=O)C(C)OC(=O)C(C)OC(=O)C(C)OC(=O)C(C)OC1=O
InChI: 
InChIKey: TWLJVMPKZBAFRN-UHFFFAOYNA-N
RetentionTime: NA
CCS: 
CollisionEnergy: 10-30 eV
InstrumentType: UPLC-QTOF-MS
Comment: Oligomers tentatively identified (not confirmed by standards) by David; PI: Cristina Nerin; Data collector: QiZhi Su, GUIA, University of Zaragoza, Spain; Collision energy: 20-40 V; Instrument: Waters HPLC-QTOF-MS (Xevo G2 QTof); Ionization: ESI; Deconvoluted by MS-DIAL
Num peaks: 71
55.00888 1095
55.01643 1095
60.08029 7671
81.06828 2308
89.07174 1076
111.04394 1078
127.03871 3096
145.04976 5174
164.01999 1738
164.03305 1726
189.07593 1062
191.08942 1058
191.11935 1129
199.06064 3668
199.07265 3689
200.03473 3385
217.07057 31252
218.07663 2860
236.04617 3440
236.05896 3498
261.09714 3926
271.08298 2141
272.05728 3954
280.04031 2201
289.09244 45150
290.09637 5771
308.06464 4790
308.5687 1479
316.04926 1708
333.11768 6672
334.13528 1088
343.10144 1473
344.07541 2926
345.04953 3297
352.0603 1128
361.11282 53455
362.11914 8579
363.11951 1652
372.09802 3619
372.59067 1752
372.60617 1723
373.09595 1329
380.08594 48564
380.58676 16447
381.08884 5179
381.59064 1164
381.60492 1096
382.08707 1112
388.07108 3592
389.07413 1456
405.14142 5701
417.07159 7019
418.08636 1070
433.13412 101653
434.13751 18626
435.14322 3882
477.16025 3633
489.0929 4109
505.15506 75201
506.1597 15738
507.15991 3595
549.18115 2472
555.14911 2594
555.17151 5504
556.17419 1190
577.1767 39660
578.18073 9898
579.18488 2357
649.19739 15164
650.20001 4185
721.21729 4902
Name: Cylic PLA n=10
PrecursorMZ: 738.2466
PrecursorType: [M+NH4]+
IonMode: Positive
Formula: C30H40O20
SMILES: CC1OC(=O)C(C)OC(=O)C(C)OC(=O)C(C)OC(=O)C(C)OC(=O)C(C)OC(=O)C(C)OC(=O)C(C)OC(=O)C(C)OC(=O)C(C)OC1=O
InChI: 
InChIKey: TWLJVMPKZBAFRN-UHFFFAOYNA-N
RetentionTime: NA
CCS: 
CollisionEnergy: 10-30 eV
InstrumentType: UPLC-QTOF-MS
Comment: Oligomers tentatively identified (not confirmed by standards) by David; PI: Cristina Nerin; Data collector: QiZhi Su, GUIA, University of Zaragoza, Spain; Collision energy: 20-40 V; Instrument: Waters HPLC-QTOF-MS (Xevo G2 QTof); Ionization: ESI; Deconvoluted by MS-DIAL
Num peaks: 49
60.08029 7671
127.03871 3096
145.04976 5174
164.01999 1738
164.03305 1726
199.06064 3668
199.07265 3689
200.03473 3385
217.07057 31252
218.07663 2860
236.04617 3440
236.05896 3498
271.08298 2141
272.05728 3954
280.04031 2201
289.09244 45150
290.09637 5771
308.06464 4790
333.11768 6672
344.07541 2926
345.04953 3297
361.11282 53455
362.11914 8579
372.09802 3619
372.59067 1752
380.08594 48564
380.58676 16447
381.08884 5179
388.07108 3592
405.14142 5701
417.07159 7019
433.13412 101653
434.13751 18626
435.14322 3882
477.16025 3633
489.0929 4109
505.15506 75201
506.1597 15738
507.15991 3595
549.18115 2472
555.14911 2594
555.17151 2260
577.1767 39660
578.18073 9898
579.18488 2357
649.19739 15164
650.20001 4185
721.21729 3718
738.2453 171114
Name: Cylic PLA n=10
PrecursorMZ: 743.2023
PrecursorType: [M+Na]+
IonMode: Positive
Formula: C30H40O20
SMILES: CC1OC(=O)C(C)OC(=O)C(C)OC(=O)C(C)OC(=O)C(C)OC(=O)C(C)OC(=O)C(C)OC(=O)C(C)OC(=O)C(C)OC(=O)C(C)OC1=O
InChI: 
InChIKey: TWLJVMPKZBAFRN-UHFFFAOYNA-N
RetentionTime: NA
CCS: 
CollisionEnergy: 10-30 eV
InstrumentType: UPLC-QTOF-MS
Comment: Oligomers tentatively identified (not confirmed by standards) by David; PI: Cristina Nerin; Data collector: QiZhi Su, GUIA, University of Zaragoza, Spain; Collision energy: 20-40 V; Instrument: Waters HPLC-QTOF-MS (Xevo G2 QTof); Ionization: ESI; Deconvoluted by MS-DIAL
Num peaks: 24
127.03871 3094
145.04976 5174
290.09637 5776
308.06464 4787
344.07541 2926
362.11914 8591
372.09802 3619
380.08594 48564
380.58676 16447
381.08884 5179
388.07108 3592
433.13412 101653
434.13751 18626
505.15506 15689
506.1597 4499
507.15991 3595
577.1767 39660
649.19739 15164
650.20001 4185
721.21729 3718
738.2453 117991
739.24921 34341
740.25165 10752
743.20129 268042
Name: AA-BD linear
PrecursorMZ: 241.1048
PrecursorType: [M+Na]+
IonMode: Positive
Formula: C10H18O5
SMILES: OCCCCOC(=O)CCCCC(O)=O
InChI: 
InChIKey: ZSYUYBMMNNGZIB-UHFFFAOYSA-N
RetentionTime: NA
CCS: 
CollisionEnergy: 10-30 eV
InstrumentType: UPLC-QTOF-MS
Comment: Oligomers tentatively identified (not confirmed by standards) by David; PI: Cristina Nerin; Data collector: QiZhi Su, GUIA, University of Zaragoza, Spain; Collision energy: 20-40 V; Instrument: Waters HPLC-QTOF-MS (Xevo G2 QTof); Ionization: ESI; Deconvoluted by MS-DIAL
Num peaks: 148
55.05323 812
55.0583 812
57.06705 33
57.07317 33
59.01693 40
59.0475 50
69.07014 20
69.0771 24
70.97666 63
70.9838 63
71.04967 49
73.01315 19
73.06181 1569
73.06625 1569
74.06898 99
76.85709 18
81.06541 45
81.0709 45
83.05007 1446
84.05185 25
84.09047 18
90.99722 26
95.0477 26
95.0518 26
95.08321 60
95.08844 62
96.9695 18
97.02608 33
97.06198 126
97.0712 124
97.10126 21
97.96986 32
99.04044 23
101.06165 1058
102.06261 68
105.04919 37
105.06556 36
105.07326 22
107.08327 21
111.04449 1774
112.04785 153
114.10213 44
115.07269 619
115.07943 620
118.08196 29
121.09165 24
123.05 25
123.08074 33
123.08715 30
125.02541 45
126.09715 20
127.00568 75
127.0157 86
127.03112 75
128.0118 33
128.02097 51
128.03645 44
129.02423 595
130.02348 100
130.03104 56
130.16148 42
134.05489 29
134.06233 27
137.0204 30
138.04778 61
139.0526 52
139.9903 27
141.01865 45
141.02579 90
141.06743 20
142.02588 22
143.06358 109
143.0802 110
145.09886 18
147.04048 53
150.96843 18
153.05122 22
155.03056 206
155.98703 43
155.99896 50
157.04576 207
161.06863 18
166.05376 18
166.98349 440
167.00301 311
168.996 36
172.01935 57
172.03189 56
173.02065 82
173.03809 132
174.355 22
177.05022 20
180.02344 37
182.08948 43
184.03149 37
185.13063 21
186.05449 40
189.00919 44
189.03709 628
193.12408 18
195.07277 120
195.08292 170
196.0903 30
197.07309 53
199.01389 44
199.02415 74
199.08162 322
199.09525 349
200.00624 61
200.01508 36
200.02556 36
200.09337 91
200.9828 105
200.99188 102
201.08778 22
202.98164 56
204.07733 22
204.08653 25
205.10233 55
205.1136 49
206.0246 21
206.09526 22
209.11043 25
211.03677 45
211.07831 46
212.9673 18
213.07191 118
213.0851 122
217.03331 18
217.09605 31
217.10703 29
218.04218 42
221.03421 77
221.05019 77
221.09673 22
223.06577 20
224.00859 51
225.08624 85
230.99141 46
231.00809 40
232.08432 35
232.09546 55
234.0482 25
236.17981 19
237.06448 331
237.07765 323
241.09694 1011
241.10954 1683
Name: AA-BD linear
PrecursorMZ: 475.1853
PrecursorType: [2M+K]+
IonMode: Positive
Formula: C10H18O5
SMILES: OCCCCOC(=O)CCCCC(O)=O
InChI: 
InChIKey: ZSYUYBMMNNGZIB-UHFFFAOYSA-N
RetentionTime: NA
CCS: 
CollisionEnergy: 10-30 eV
InstrumentType: UPLC-QTOF-MS
Comment: Oligomers tentatively identified (not confirmed by standards) by David; PI: Cristina Nerin; Data collector: QiZhi Su, GUIA, University of Zaragoza, Spain; Collision energy: 20-40 V; Instrument: Waters HPLC-QTOF-MS (Xevo G2 QTof); Ionization: ESI; Deconvoluted by MS-DIAL
Num peaks: 51
55.05323 756
55.0583 756
73.06181 1570
73.06625 1570
83.05007 1120
101.06165 844
111.04449 1564
115.07269 446
115.07943 467
123.01244 1431
127.03112 295
167.00301 1921
171.02693 515
189.03709 632
195.08292 155
199.01389 656
199.02415 666
205.10233 158
237.06448 335
237.07765 322
241.09694 1165
241.10954 746
242.09271 159
243.08228 4430
255.07706 749
255.09045 724
257.07056 14855
258.0585 662
258.07782 1140
259.06958 161
259.08615 151
261.09439 840
272.0527 188
273.03802 636
273.04901 554
275.04611 235
275.05756 216
299.05423 397
299.07822 461
317.07767 504
317.09344 519
333.15213 977
371.12643 480
371.14636 308
389.14252 797
390.14032 157
459.20691 165
461.18079 1712
461.19934 1651
462.20499 272
475.1864 3499
Name: AA-BD linear
PrecursorMZ: 257.0716
PrecursorType: [M+K]+
IonMode: Positive
Formula: C10H18O5
SMILES: OCCCCOC(=O)CCCCC(O)=O
InChI: 
InChIKey: ZSYUYBMMNNGZIB-UHFFFAOYSA-N
RetentionTime: NA
CCS: 
CollisionEnergy: 10-30 eV
InstrumentType: UPLC-QTOF-MS
Comment: Oligomers tentatively identified (not confirmed by standards) by David; PI: Cristina Nerin; Data collector: QiZhi Su, GUIA, University of Zaragoza, Spain; Collision energy: 20-40 V; Instrument: Waters HPLC-QTOF-MS (Xevo G2 QTof); Ionization: ESI; Deconvoluted by MS-DIAL
Num peaks: 28
55.05346 726
55.05819 726
73.06636 1570
83.04728 1137
83.05177 1151
83.0601 1152
101.06002 835
101.06741 835
111.04322 1606
111.05813 1609
115.06816 433
115.07651 475
115.08407 471
123.01307 1431
126.98751 204
129.02179 350
167.00829 1889
171.02318 530
185.01411 166
189.03738 632
199.01567 656
237.07066 323
241.10451 939
243.07657 4285
243.08649 4257
255.07788 691
255.08929 571
257.07065 15055
Name: Cylic PLA n=11
PrecursorMZ: 793.2394
PrecursorType: [M+H]+
IonMode: Positive
Formula: C33H44O22
SMILES: CC1OC(=O)C(C)OC(=O)C(C)OC(=O)C(C)OC(=O)C(C)OC(=O)C(C)OC(=O)C(C)OC(=O)C(C)OC(=O)C(C)OC(=O)C(C)OC(=O)C(C)OC1=O
InChI: 
InChIKey: LQMOVHJZCRHPCQ-UHFFFAOYNA-N
RetentionTime: NA
CCS: 
CollisionEnergy: 10-30 eV
InstrumentType: UPLC-QTOF-MS
Comment: Oligomers tentatively identified (not confirmed by standards) by David; PI: Cristina Nerin; Data collector: QiZhi Su, GUIA, University of Zaragoza, Spain; Collision energy: 20-40 V; Instrument: Waters HPLC-QTOF-MS (Xevo G2 QTof); Ionization: ESI; Deconvoluted by MS-DIAL
Num peaks: 95
60.08041 6337
116.00831 1203
116.01713 1179
116.02716 1177
127.03925 2281
127.05927 1465
200.03313 1181
217.07164 7083
218.06116 704
218.07469 779
236.04311 2045
245.04378 653
245.05646 713
257.05835 1005
257.06894 689
261.0918 797
261.103 727
271.07117 695
272.05182 2731
272.06424 2772
280.03946 2039
289.09171 13467
290.08408 1732
308.05899 3897
308.07053 3916
308.56091 1084
316.04086 1677
316.05307 1641
317.06128 1036
317.0762 939
327.04498 673
333.11838 3380
343.08279 1146
343.10501 1882
344.07416 3866
344.57767 1291
345.04929 1947
352.06183 1258
353.08548 912
361.11224 17454
362.11487 3419
362.12674 4241
363.11652 836
380.08286 2099
380.58783 939
399.05603 768
405.13797 3480
408.10672 3527
408.6091 1831
409.10876 752
415.12387 1065
416.0961 45649
416.59726 15821
417.09872 5637
417.58887 858
417.60492 1321
423.58398 677
424.06454 3040
424.08307 3296
424.5849 1210
425.069 786
425.0882 1166
433.13437 36454
434.13736 6173
435.13718 1029
475.12906 859
477.16287 3560
489.09363 4745
490.09464 996
505.15555 11796
506.15903 1299
507.14453 2347
507.16684 3189
511.12738 1033
511.14288 1203
549.18225 3913
550.18488 1050
561.10559 1951
577.17664 61718
578.17944 15280
579.17615 2902
579.19788 2588
621.20148 2410
627.19366 4112
628.19141 1201
643.16425 641
649.19574 35239
650.20227 9503
651.18903 1958
651.21332 2122
721.21875 14083
722.21277 3674
722.23792 3537
793.23285 3035
793.27148 765
Name: Cylic PLA n=11
PrecursorMZ: 810.2657
PrecursorType: [M+NH4]+
IonMode: Positive
Formula: C33H44O22
SMILES: CC1OC(=O)C(C)OC(=O)C(C)OC(=O)C(C)OC(=O)C(C)OC(=O)C(C)OC(=O)C(C)OC(=O)C(C)OC(=O)C(C)OC(=O)C(C)OC(=O)C(C)OC1=O
InChI: 
InChIKey: LQMOVHJZCRHPCQ-UHFFFAOYNA-N
RetentionTime: NA
CCS: 
CollisionEnergy: 10-30 eV
InstrumentType: UPLC-QTOF-MS
Comment: Oligomers tentatively identified (not confirmed by standards) by David; PI: Cristina Nerin; Data collector: QiZhi Su, GUIA, University of Zaragoza, Spain; Collision energy: 20-40 V; Instrument: Waters HPLC-QTOF-MS (Xevo G2 QTof); Ionization: ESI; Deconvoluted by MS-DIAL
Num peaks: 64
60.08041 6337
127.03925 2281
127.05927 1465
199.06117 3416
200.03313 1878
217.07164 7870
236.04311 2045
271.07117 2551
271.08279 2670
272.05182 2731
272.06424 2772
280.03946 2039
289.09171 16246
290.08408 1732
290.09982 1895
308.05899 3897
308.07053 3916
316.04086 1677
316.05307 1616
333.11838 3380
343.10501 1882
344.07416 3866
345.04929 1947
361.11224 27113
362.11487 4267
362.12674 4322
380.08286 2099
405.13797 3851
408.10672 3539
408.6091 1829
416.0961 45846
416.59726 16943
417.06677 4488
417.09872 5765
418.08533 1616
424.06454 3045
424.08307 3307
433.13437 72786
434.13736 13081
435.13718 2909
447.16208 5167
477.16287 3560
489.09363 4745
505.15555 75435
506.15903 15780
507.14453 2347
507.16684 3189
549.18225 3913
561.10559 1951
577.17664 61718
578.17944 15280
579.17615 2902
579.19788 2588
621.20148 2410
627.19366 2374
649.19574 35239
650.20227 9503
651.18903 1958
651.21332 2122
721.21875 14083
722.21277 3674
722.23792 3537
793.23285 2593
810.26556 145740
Name: Cylic PLA n=11
PrecursorMZ: 815.2224
PrecursorType: [M+Na]+
IonMode: Positive
Formula: C33H44O22
SMILES: CC1OC(=O)C(C)OC(=O)C(C)OC(=O)C(C)OC(=O)C(C)OC(=O)C(C)OC(=O)C(C)OC(=O)C(C)OC(=O)C(C)OC(=O)C(C)OC(=O)C(C)OC1=O
InChI: 
InChIKey: LQMOVHJZCRHPCQ-UHFFFAOYNA-N
RetentionTime: NA
CCS: 
CollisionEnergy: 10-30 eV
InstrumentType: UPLC-QTOF-MS
Comment: Oligomers tentatively identified (not confirmed by standards) by David; PI: Cristina Nerin; Data collector: QiZhi Su, GUIA, University of Zaragoza, Spain; Collision energy: 20-40 V; Instrument: Waters HPLC-QTOF-MS (Xevo G2 QTof); Ionization: ESI; Deconvoluted by MS-DIAL
Num peaks: 48
60.08041 6337
199.06117 3416
217.07164 7870
271.07117 2551
271.08279 2670
272.05182 2731
272.06424 2772
289.09171 16246
308.05899 3897
308.07053 3916
333.11838 3380
344.07416 3866
361.11224 27113
362.11487 4267
362.12674 4322
405.13797 3851
408.10672 3296
416.0961 39966
416.59726 12704
417.06677 4758
417.09872 5765
424.06454 3045
424.08307 2857
433.13437 72786
434.13736 13081
435.13718 2909
447.16208 3939
477.16287 3560
489.09363 4745
505.15555 75435
506.15903 15780
507.16684 3189
549.18225 3913
577.17664 61718
578.17944 15280
579.17615 2902
579.19788 2588
621.20148 2410
649.19574 35239
650.20227 9503
721.21875 14083
722.21277 3674
722.23792 3537
793.23285 2593
810.26556 112935
811.26898 38326
812.27228 12029
815.22131 236680
Name: Cylic PLA n=11
PrecursorMZ: 831.1956
PrecursorType: [M+K]+
IonMode: Positive
Formula: C33H44O22
SMILES: CC1OC(=O)C(C)OC(=O)C(C)OC(=O)C(C)OC(=O)C(C)OC(=O)C(C)OC(=O)C(C)OC(=O)C(C)OC(=O)C(C)OC(=O)C(C)OC(=O)C(C)OC1=O
InChI: 
InChIKey: LQMOVHJZCRHPCQ-UHFFFAOYNA-N
RetentionTime: NA
CCS: 
CollisionEnergy: 10-30 eV
InstrumentType: UPLC-QTOF-MS
Comment: Oligomers tentatively identified (not confirmed by standards) by David; PI: Cristina Nerin; Data collector: QiZhi Su, GUIA, University of Zaragoza, Spain; Collision energy: 20-40 V; Instrument: Waters HPLC-QTOF-MS (Xevo G2 QTof); Ionization: ESI; Deconvoluted by MS-DIAL
Num peaks: 57
60.08041 6337
127.03925 2281
199.06117 3416
217.07164 7870
257.05835 8301
271.07117 2551
271.08279 2670
272.05182 2731
272.06424 2772
289.09171 16246
308.05899 3897
308.07053 3916
333.11838 3380
344.07416 3866
361.11224 27113
362.11487 4267
362.12674 4322
405.13797 3851
408.10672 3538
416.0961 45847
416.59726 16943
417.06677 4758
417.09872 5765
424.06454 3045
424.08307 3307
433.13437 72786
434.13736 13081
435.13718 2909
447.16208 8850
477.16287 3560
489.09363 4745
505.15555 75435
506.15903 15780
507.14453 2347
507.16684 3189
549.18225 3913
577.17664 61718
578.17944 15280
579.17615 2902
579.19788 2588
621.20148 2410
627.19366 4162
649.19574 35239
650.20227 9503
721.21875 14083
722.21277 3674
722.23792 3537
793.23285 2593
810.26556 142906
811.26898 51902
812.27228 15360
813.27771 2464
815.22131 221032
816.22382 76791
817.22699 22167
818.23572 3871
831.19635 15049
Name: Cylic PLA n=12
PrecursorMZ: 865.2618
PrecursorType: [M+H]+
IonMode: Positive
Formula: C36H48O24
SMILES: CC1OC(=O)C(C)OC(=O)C(C)OC(=O)C(C)OC(=O)C(C)OC(=O)C(C)OC(=O)C(C)OC(=O)C(C)OC(=O)C(C)OC(=O)C(C)OC(=O)C(C)OC(=O)C(C)OC1=O
InChI: 
InChIKey: ZWLYWEIJMAHOCA-UHFFFAOYNA-N
RetentionTime: NA
CCS: 
CollisionEnergy: 10-30 eV
InstrumentType: UPLC-QTOF-MS
Comment: Oligomers tentatively identified (not confirmed by standards) by David; PI: Cristina Nerin; Data collector: QiZhi Su, GUIA, University of Zaragoza, Spain; Collision energy: 20-40 V; Instrument: Waters HPLC-QTOF-MS (Xevo G2 QTof); Ionization: ESI; Deconvoluted by MS-DIAL
Num peaks: 98
60.08031 2054
127.01998 896
127.03894 813
199.06111 2164
199.06935 2132
245.03963 518
271.0824 1332
272.0546 697
273.03 529
280.03989 563
289.0925 1095
308.05829 1836
308.07297 2010
316.05389 731
329.08655 1227
343.09424 1398
343.10852 1378
344.07684 1670
352.061 1091
361.11295 4832
362.11313 970
362.12845 891
380.08496 1470
380.5737 469
380.58997 525
389.08844 603
399.04218 672
399.05673 564
399.07214 636
401.0834 1848
401.10532 989
405.13638 996
405.15317 1240
415.1102 1062
415.12543 935
416.0845 1312
416.103 1498
416.58948 481
416.60757 476
417.07297 1064
433.13419 24660
434.13834 4746
435.14352 702
444.12061 4093
444.62006 2335
445.11975 1421
452.10727 46336
452.60944 18895
453.10931 6508
453.60208 1711
453.61871 1783
454.08716 1003
454.103 1193
454.60342 517
459.59302 630
460.09161 4410
460.5932 1634
461.09348 1586
463.1572 989
463.17325 992
477.1611 1506
487.13336 519
487.14987 472
488.11148 547
489.08987 2099
489.10934 1441
505.15494 32529
506.15921 7006
507.16452 1336
547.14429 1019
549.18311 2428
550.18958 706
561.10999 2100
569.18774 779
577.17554 38222
578.17957 8759
579.17999 1984
579.2005 2004
583.1593 1057
621.19354 2339
621.21344 2993
622.20892 887
649.19714 32077
650.19965 8047
651.20435 2141
693.21759 762
694.24683 742
694.2774 1640
700.22021 554
721.21844 18487
722.22308 5868
723.22058 964
723.24689 952
765.24866 717
793.24084 3816
794.2453 3677
795.25092 560
865.25848 5676
Name: Cylic PLA n=12
PrecursorMZ: 882.2875
PrecursorType: [M+NH4]+
IonMode: Positive
Formula: C36H48O24
SMILES: CC1OC(=O)C(C)OC(=O)C(C)OC(=O)C(C)OC(=O)C(C)OC(=O)C(C)OC(=O)C(C)OC(=O)C(C)OC(=O)C(C)OC(=O)C(C)OC(=O)C(C)OC(=O)C(C)OC1=O
InChI: 
InChIKey: ZWLYWEIJMAHOCA-UHFFFAOYNA-N
RetentionTime: NA
CCS: 
CollisionEnergy: 10-30 eV
InstrumentType: UPLC-QTOF-MS
Comment: Oligomers tentatively identified (not confirmed by standards) by David; PI: Cristina Nerin; Data collector: QiZhi Su, GUIA, University of Zaragoza, Spain; Collision energy: 20-40 V; Instrument: Waters HPLC-QTOF-MS (Xevo G2 QTof); Ionization: ESI; Deconvoluted by MS-DIAL
Num peaks: 48
60.08031 2396
199.06111 2097
199.06935 2058
289.0925 4235
308.05829 1925
308.07297 2116
343.09424 1553
343.10852 1545
344.07684 1980
361.11295 3172
380.08496 1617
401.0834 1871
433.13419 23425
434.13834 4626
444.12061 4088
444.62006 2343
452.10727 46631
452.60944 19038
453.10931 6562
453.60208 1730
453.61871 1792
460.09161 4394
460.5932 1643
461.09348 1571
477.1611 1574
489.08987 2429
489.10934 1716
505.15494 32595
506.15921 7181
549.18311 2526
561.10999 2394
577.17554 41744
578.17957 9302
579.17999 2124
579.2005 1982
621.19354 2493
621.21344 3269
649.19714 35748
650.19965 8718
651.20435 2247
694.2774 1773
721.21844 21041
722.22308 6743
793.24084 4021
794.2453 3368
865.25848 4019
866.26508 1868
882.28705 153196
Name: Cylic PLA n=12
PrecursorMZ: 887.2432
PrecursorType: [M+Na]+
IonMode: Positive
Formula: C36H48O24
SMILES: CC1OC(=O)C(C)OC(=O)C(C)OC(=O)C(C)OC(=O)C(C)OC(=O)C(C)OC(=O)C(C)OC(=O)C(C)OC(=O)C(C)OC(=O)C(C)OC(=O)C(C)OC(=O)C(C)OC1=O
InChI: 
InChIKey: ZWLYWEIJMAHOCA-UHFFFAOYNA-N
RetentionTime: NA
CCS: 
CollisionEnergy: 10-30 eV
InstrumentType: UPLC-QTOF-MS
Comment: Oligomers tentatively identified (not confirmed by standards) by David; PI: Cristina Nerin; Data collector: QiZhi Su, GUIA, University of Zaragoza, Spain; Collision energy: 20-40 V; Instrument: Waters HPLC-QTOF-MS (Xevo G2 QTof); Ionization: ESI; Deconvoluted by MS-DIAL
Num peaks: 30
289.0925 4227
433.13419 18382
434.13834 3826
444.12061 4091
444.62006 2345
452.10727 46758
452.60944 19128
453.10931 6562
460.09161 4394
489.10934 2767
505.15494 30169
506.15921 6566
549.18311 2569
561.10999 2567
577.17554 43636
578.17957 9765
621.19354 2924
621.21344 3608
649.19714 40407
650.19965 9782
651.20435 2682
721.21844 26479
722.22308 8310
793.24084 6908
865.25848 4093
882.28705 146321
883.29126 57771
884.29059 18196
885.30237 2694
887.2428 219614
Name: Cylic PLA n=12
PrecursorMZ: 903.2159
PrecursorType: [M+K]+
IonMode: Positive
Formula: C36H48O24
SMILES: CC1OC(=O)C(C)OC(=O)C(C)OC(=O)C(C)OC(=O)C(C)OC(=O)C(C)OC(=O)C(C)OC(=O)C(C)OC(=O)C(C)OC(=O)C(C)OC(=O)C(C)OC(=O)C(C)OC1=O
InChI: 
InChIKey: ZWLYWEIJMAHOCA-UHFFFAOYNA-N
RetentionTime: NA
CCS: 
CollisionEnergy: 10-30 eV
InstrumentType: UPLC-QTOF-MS
Comment: Oligomers tentatively identified (not confirmed by standards) by David; PI: Cristina Nerin; Data collector: QiZhi Su, GUIA, University of Zaragoza, Spain; Collision energy: 20-40 V; Instrument: Waters HPLC-QTOF-MS (Xevo G2 QTof); Ionization: ESI; Deconvoluted by MS-DIAL
Num peaks: 44
60.08031 3105
199.06111 2838
199.06935 2807
289.0925 4227
308.05829 2451
308.07297 2612
344.07684 2846
361.11295 3303
380.08496 2324
433.13419 28616
434.13834 5810
444.12061 4091
444.62006 2345
452.10727 46758
452.60944 19128
453.10931 6562
460.09161 4394
489.08987 2644
489.10934 3972
505.15494 42142
506.15921 9063
549.18311 3196
561.10999 2567
577.17554 56150
578.17957 12616
579.17999 2758
621.19354 3613
621.21344 3608
649.19714 46166
650.19965 12596
651.20435 3051
721.21844 29220
722.22308 8773
793.24084 10174
865.25848 4093
882.28705 146321
883.29126 57771
884.29059 18196
885.30237 2884
887.2428 214068
888.24719 84821
889.24951 25197
890.25696 4264
903.21686 14400
Name: Cylic PLA n=13
PrecursorMZ: 954.3103
PrecursorType: [M+NH4]+
IonMode: Positive
Formula: C39H52O26
SMILES: CC1OC(=O)C(C)OC(=O)C(C)OC(=O)C(C)OC(=O)C(C)OC(=O)C(C)OC(=O)C(C)OC(=O)C(C)OC(=O)C(C)OC(=O)C(C)OC(=O)C(C)OC(=O)C(C)OC(=O)C(C)OC1=O
InChI: 
InChIKey: PTXBGFKFTFUZFJ-UHFFFAOYNA-N
RetentionTime: NA
CCS: 
CollisionEnergy: 10-30 eV
InstrumentType: UPLC-QTOF-MS
Comment: Oligomers tentatively identified (not confirmed by standards) by David; PI: Cristina Nerin; Data collector: QiZhi Su, GUIA, University of Zaragoza, Spain; Collision energy: 20-40 V; Instrument: Waters HPLC-QTOF-MS (Xevo G2 QTof); Ionization: ESI; Deconvoluted by MS-DIAL
Num peaks: 21
60.08006 2080
433.13586 8338
480.12885 3569
480.62051 2051
480.63431 1835
488.11789 40577
488.6199 17167
489.11688 7667
496.10379 3584
506.16061 3746
577.17749 6674
649.19763 13168
650.20251 3472
721.21918 13393
722.22125 4540
793.23981 5486
794.24652 3216
866.26428 4409
937.28442 5962
938.2915 2107
954.30933 164055
Name: Cylic PLA n=13
PrecursorMZ: 959.2658
PrecursorType: [M+Na]+
IonMode: Positive
Formula: C39H52O26
SMILES: CC1OC(=O)C(C)OC(=O)C(C)OC(=O)C(C)OC(=O)C(C)OC(=O)C(C)OC(=O)C(C)OC(=O)C(C)OC(=O)C(C)OC(=O)C(C)OC(=O)C(C)OC(=O)C(C)OC(=O)C(C)OC1=O
InChI: 
InChIKey: PTXBGFKFTFUZFJ-UHFFFAOYNA-N
RetentionTime: NA
CCS: 
CollisionEnergy: 10-30 eV
InstrumentType: UPLC-QTOF-MS
Comment: Oligomers tentatively identified (not confirmed by standards) by David; PI: Cristina Nerin; Data collector: QiZhi Su, GUIA, University of Zaragoza, Spain; Collision energy: 20-40 V; Instrument: Waters HPLC-QTOF-MS (Xevo G2 QTof); Ionization: ESI; Deconvoluted by MS-DIAL
Num peaks: 23
433.13586 7944
488.11789 16224
488.6199 5257
489.11688 8714
505.15585 18407
506.16061 3680
577.17749 27182
578.18195 6673
621.19922 2424
649.19763 33635
650.20251 9115
721.21918 31882
722.22125 10016
723.22168 2646
793.23981 21035
794.24652 7767
865.26062 12063
866.26428 4440
937.28442 5962
954.30933 112642
955.31342 47024
956.31592 12509
959.26514 234988
Name: AA-BD2 linear
PrecursorMZ: 291.1827
PrecursorType: [M+H]+
IonMode: Positive
Formula: C14H26O6
SMILES: OCCCCOC(=O)CCCCC(=O)OCCCCO
InChI: 
InChIKey: MIPAMDMBINCYQD-UHFFFAOYSA-N
RetentionTime: NA
CCS: 
CollisionEnergy: 10-30 eV
InstrumentType: UPLC-QTOF-MS
Comment: Oligomers tentatively identified (not confirmed by standards) by David; PI: Cristina Nerin; Data collector: QiZhi Su, GUIA, University of Zaragoza, Spain; Collision energy: 20-40 V; Instrument: Waters HPLC-QTOF-MS (Xevo G2 QTof); Ionization: ESI; Deconvoluted by MS-DIAL
Num peaks: 166
55.0532 265
55.05887 265
57.07366 18
67.05673 57
71.08447 24
71.08784 24
73.06434 317
73.07107 318
76.99214 22
77.01556 16
77.03589 16
78.98213 52
79.05564 15
83.04479 325
83.05177 321
83.0836 35
85.06821 44
85.08618 25
86.37424 21
88.9562 13
95.00453 28
95.10297 16
97.06616 18
97.07059 23
97.96818 19
97.97842 26
98.96588 73
98.98768 33
100.93185 14
101.06019 900
101.94411 29
101.95428 27
103.01992 68
105.02635 14
105.07063 12
108.0007 16
111.01539 34
111.02296 129
111.045 1148
112.03258 90
112.04124 88
112.05185 94
115.02645 36
115.03771 28
115.07763 12
119.0586 20
119.07423 49
119.08961 28
121.03194 76
123.00854 130
123.01942 133
127.00402 87
127.03334 47
128.04791 22
129.01915 188
129.04189 1189
129.05862 1102
130.05119 84
130.05791 86
130.16251 57
131.05246 17
131.06183 24
131.0835 13
132.96577 39
133.10481 32
138.07562 14
139.09456 12
140.15338 12
140.91257 20
140.9193 16
141.01566 21
141.0226 20
145.00839 21
147.0507 85
147.06071 93
147.07243 84
147.11835 17
148.08559 25
148.96593 12
149.00778 25
149.02309 23
149.05385 18
150.05403 15
150.96989 13
151.00652 43
151.06989 30
151.92125 12
153.02533 17
155.11566 15
157.03491 27
158.08975 14
158.99576 19
161.05626 14
161.93111 19
167.02165 42
169.00427 23
171.02425 49
172.0361 26
176.01903 21
186.52895 17
189.01755 94
189.03708 121
196.08907 21
196.10207 25
199.0901 160
200.08591 14
200.23309 135
200.24339 129
201.03702 150
203.11726 14
206.00746 16
206.01938 17
209.09633 31
210.06425 12
211.15208 26
215.06735 12
221.04944 16
225.09711 17
226.20839 32
227.10413 15
228.14645 12
230.23967 23
230.25508 26
232.07812 17
233.01637 20
236.08206 15
239.05852 365
240.05377 27
240.06929 47
240.2254 65
240.24332 75
241.06235 88
241.07236 121
241.09073 182
241.10835 149
241.2477 27
242.10542 36
243.0695 391
243.08649 445
244.07619 98
244.09001 105
244.11983 12
254.07828 22
254.09972 27
257.06323 1093
257.07556 1154
257.09027 547
257.1051 65
258.06635 95
258.07617 100
258.97272 16
261.06067 12
263.01913 17
264.99677 21
271.03949 12
272.02414 18
273.04416 84
279.08429 15
279.11322 15
281.05716 13
283.19232 21
285.2962 51
286.10553 16
286.30664 18
291.2041 24
291.27014 26
Name: Cylic PLA n=13
PrecursorMZ: 975.2404
PrecursorType: [M+K]+
IonMode: Positive
Formula: C39H52O26
SMILES: CC1OC(=O)C(C)OC(=O)C(C)OC(=O)C(C)OC(=O)C(C)OC(=O)C(C)OC(=O)C(C)OC(=O)C(C)OC(=O)C(C)OC(=O)C(C)OC(=O)C(C)OC(=O)C(C)OC(=O)C(C)OC1=O
InChI: 
InChIKey: PTXBGFKFTFUZFJ-UHFFFAOYNA-N
RetentionTime: NA
CCS: 
CollisionEnergy: 10-30 eV
InstrumentType: UPLC-QTOF-MS
Comment: Oligomers tentatively identified (not confirmed by standards) by David; PI: Cristina Nerin; Data collector: QiZhi Su, GUIA, University of Zaragoza, Spain; Collision energy: 20-40 V; Instrument: Waters HPLC-QTOF-MS (Xevo G2 QTof); Ionization: ESI; Deconvoluted by MS-DIAL
Num peaks: 29
433.13586 7944
488.11789 16224
488.6199 5257
489.11688 8714
505.15585 18407
506.16061 3680
577.17749 27182
578.18195 6673
621.19922 2424
649.19763 33635
650.20251 9115
651.20709 2320
721.21918 31882
722.22125 10016
723.22168 2646
793.23981 21035
794.24652 7767
865.26062 12063
866.26428 4440
937.28442 5962
954.30933 112642
955.31342 47024
956.31592 12509
957.29956 2232
959.26514 218089
960.26886 94055
961.27313 29310
962.27643 5563
975.24084 14348
Name: AA-BD2 linear
PrecursorMZ: 313.1631
PrecursorType: [M+Na]+
IonMode: Positive
Formula: C14H26O6
SMILES: OCCCCOC(=O)CCCCC(=O)OCCCCO
InChI: 
InChIKey: MIPAMDMBINCYQD-UHFFFAOYSA-N
RetentionTime: NA
CCS: 
CollisionEnergy: 10-30 eV
InstrumentType: UPLC-QTOF-MS
Comment: Oligomers tentatively identified (not confirmed by standards) by David; PI: Cristina Nerin; Data collector: QiZhi Su, GUIA, University of Zaragoza, Spain; Collision energy: 20-40 V; Instrument: Waters HPLC-QTOF-MS (Xevo G2 QTof); Ionization: ESI; Deconvoluted by MS-DIAL
Num peaks: 61
55.0532 265
55.05887 265
67.05673 48
73.06434 296
73.07107 297
83.04479 312
83.05177 307
85.06821 47
98.96588 76
101.06019 851
103.01992 54
111.02296 131
111.045 1088
112.03258 88
112.04124 88
112.05185 94
119.07423 49
121.03194 83
123.00854 120
123.01942 123
127.00402 81
127.03334 47
129.01915 180
129.04189 1189
129.05862 1094
130.05119 79
130.05791 81
130.16251 57
132.96577 43
147.0507 77
147.06071 88
147.07243 79
167.02165 42
171.02425 50
189.01755 97
189.03708 119
199.0901 142
200.23309 135
200.24339 129
201.03702 140
239.05852 346
240.06929 43
240.2254 60
240.24332 68
241.06235 87
241.07236 119
241.09073 174
241.10835 143
243.0695 368
243.08649 427
244.07619 91
244.09001 98
257.06323 1032
257.07556 1091
257.09027 527
257.1051 64
258.06635 88
258.07617 93
273.04416 77
285.2962 47
313.16168 3975
Name: Cylic PLA n=13
PrecursorMZ: 937.2843
PrecursorType: [M+H]+
IonMode: Positive
Formula: C39H52O26
SMILES: CC1OC(=O)C(C)OC(=O)C(C)OC(=O)C(C)OC(=O)C(C)OC(=O)C(C)OC(=O)C(C)OC(=O)C(C)OC(=O)C(C)OC(=O)C(C)OC(=O)C(C)OC(=O)C(C)OC(=O)C(C)OC1=O
InChI: 
InChIKey: PTXBGFKFTFUZFJ-UHFFFAOYNA-N
RetentionTime: NA
CCS: 
CollisionEnergy: 10-30 eV
InstrumentType: UPLC-QTOF-MS
Comment: Oligomers tentatively identified (not confirmed by standards) by David; PI: Cristina Nerin; Data collector: QiZhi Su, GUIA, University of Zaragoza, Spain; Collision energy: 20-40 V; Instrument: Waters HPLC-QTOF-MS (Xevo G2 QTof); Ionization: ESI; Deconvoluted by MS-DIAL
Num peaks: 74
55.00093 553
55.01104 525
55.0177 526
60.0803 1661
60.08646 1665
271.08185 519
280.04483 987
317.05051 817
317.06522 516
344.07507 817
380.0777 722
380.09341 689
380.60141 458
424.08374 496
433.13513 7040
473.12015 624
473.14026 1102
477.16211 641
480.11908 3860
480.13773 3806
480.62778 2409
480.64435 1835
481.12946 1344
481.63644 531
488.11725 44197
488.61963 18903
489.11499 9211
489.62561 1736
490.10214 1239
490.12637 1680
490.61035 443
490.6301 517
495.60706 669
496.10281 4019
496.11948 4248
496.60809 1493
497.10748 1436
497.58572 442
497.61014 492
498.08975 522
498.10867 548
499.16278 942
499.1814 1608
499.6806 620
505.15704 6335
506.15927 687
549.18414 581
561.10468 700
577.17657 12409
578.18146 2752
619.1734 529
621.20294 1308
621.22485 570
633.12335 785
633.14655 864
641.20367 542
649.19836 17901
650.20331 4660
651.20697 957
652.19958 547
721.21942 12964
722.22296 4793
723.23145 873
765.24365 1631
772.23456 835
793.24133 1438
794.2453 2139
795.24542 1731
796.24994 446
838.27246 452
865.26117 12016
866.26837 4550
867.26166 929
937.28192 11379
Name: AA-BD2 linear
PrecursorMZ: 291.1811
PrecursorType: [M+H]+
IonMode: Positive
Formula: C14H26O6
SMILES: OCCCCOC(=O)CCCCC(=O)OCCCCO
InChI: 
InChIKey: MIPAMDMBINCYQD-UHFFFAOYSA-N
RetentionTime: NA
CCS: 
CollisionEnergy: 10-30 eV
InstrumentType: UPLC-QTOF-MS
Comment: Oligomers tentatively identified (not confirmed by standards) by David; PI: Cristina Nerin; Data collector: QiZhi Su, GUIA, University of Zaragoza, Spain; Collision energy: 20-40 V; Instrument: Waters HPLC-QTOF-MS (Xevo G2 QTof); Ionization: ESI; Deconvoluted by MS-DIAL
Num peaks: 117
55.05344 558
55.06021 558
56.06066 56
59.05064 84
70.97482 39
70.98178 39
73.06248 791
73.06629 798
83.04936 808
89.00467 84
95.08537 44
95.09315 44
96.95834 36
97.02592 45
97.06763 76
101.05976 2170
102.0588 114
102.06397 114
102.07138 115
111.01153 40
111.04542 2722
112.05013 114
113.33595 43
115.07307 139
115.07867 142
120.98811 90
123.00936 488
126.99834 225
127.00823 262
127.01893 264
129.02141 528
129.05032 3123
129.05836 3129
129.07787 347
130.05826 255
130.0667 251
130.14828 41
130.15869 56
141.02368 52
147.05185 273
147.05925 263
147.06955 264
151.00056 105
154.41043 32
155.02892 36
157.04601 74
157.05217 74
165.06715 75
167.0006 662
167.02527 183
167.99808 38
169.01071 48
171.00771 255
171.02623 310
172.03064 36
173.04988 39
176.03436 40
180.03101 32
183.10358 41
185.01132 430
185.03835 135
189.03406 368
197.06178 44
197.08327 43
199.09291 497
199.10828 524
200.2403 54
201.02986 544
201.04019 539
201.04936 443
201.10808 130
201.11845 121
201.1308 106
202.03673 55
202.98404 53
204.08818 41
217.02019 44
223.0833 43
223.09761 39
225.06898 47
236.05818 43
236.07242 44
236.07999 40
239.0601 1450
239.07014 1411
240.05659 143
240.0688 146
240.08827 35
241.05463 108
241.0786 360
241.09839 471
241.11508 264
242.01326 43
242.03207 47
242.07771 44
243.08159 1557
244.07622 167
244.09119 183
244.10606 91
251.04385 55
255.03204 39
257.07007 2801
258.07141 298
258.08395 268
259.07294 64
259.08292 62
261.08133 36
271.04895 34
272.03595 54
272.05176 54
272.11942 33
273.0408 152
273.05133 129
285.04239 35
285.29236 68
285.30298 46
288.27737 36
Name: Cylic PLA n=5
PrecursorMZ: 361.1136
PrecursorType: [M+H]+
IonMode: Positive
Formula: C15H20O10
SMILES: CC1OC(=O)C(C)OC(=O)C(C)OC(=O)C(C)OC(=O)C(C)OC1=O
InChI: 
InChIKey: KPRXDILNGYQRLA-UHFFFAOYNA-N
RetentionTime: NA
CCS: 
CollisionEnergy: 10-30 eV
InstrumentType: UPLC-QTOF-MS
Comment: Oligomers tentatively identified (not confirmed by standards) by David; PI: Cristina Nerin; Data collector: QiZhi Su, GUIA, University of Zaragoza, Spain; Collision energy: 20-40 V; Instrument: Waters HPLC-QTOF-MS (Xevo G2 QTof); Ionization: ESI; Deconvoluted by MS-DIAL
Num peaks: 137
55.01553 620
55.01867 620
89.05917 5476
90.04206 431
90.05984 461
90.06402 480
91.04926 225
91.05764 227
91.06803 134
100.97341 412
100.99228 541
105.03796 274
105.06052 200
105.06702 252
105.07283 195
110.97689 145
112.99229 117
113.00861 117
116.01431 359
116.02287 358
117.00794 226
117.01769 227
117.02617 234
117.05118 132
117.06264 129
117.07142 128
121.08228 122
124.03911 132
124.04511 136
127.03735 449
128.00946 238
128.02869 226
128.96671 836
139.02675 239
139.03645 274
144.96931 132
144.98581 170
144.99493 193
145.00497 175
145.04991 7676
146.05312 518
146.06105 544
154.99957 239
155.01427 116
159.02049 124
159.02797 161
160.99474 202
167.01839 132
167.02757 177
173.00572 156
189.07829 119
199.02968 168
200.03328 707
200.04623 756
200.99924 319
201.00769 299
201.04263 146
201.05307 212
203.04892 119
203.05798 210
203.06798 154
205.01219 207
205.03058 256
208.01816 122
208.02675 176
213.03978 119
217.07072 11438
218.06509 1066
218.07777 1052
218.0957 361
219.03 120
219.07239 233
219.08372 221
227.01665 240
227.02368 365
227.04034 524
230.02177 785
230.03958 814
230.52066 211
230.53322 221
231.03078 449
231.04395 417
239.04193 305
239.05801 167
239.07275 150
242.99846 119
244.02727 169
244.03989 283
244.05293 167
245.03363 709
245.0573 268
255.03535 156
261.01144 202
261.09528 296
261.10931 299
271.04517 211
271.0549 170
272.05829 133
272.31125 119
273.02975 1151
275.0213 123
275.06393 140
288.99921 360
289.01212 346
289.09439 3019
290.08752 388
290.10001 408
291.07504 126
291.09445 173
291.10712 161
299.04865 378
300.04248 124
301.02716 169
301.03772 209
301.06644 191
301.08557 202
308.06512 715
308.57059 227
312.07928 148
316.32898 181
317.06833 239
317.15698 175
327.04062 1074
328.03882 120
332.33597 317
333.02451 146
333.32928 123
333.34116 131
343.00922 144
344.07349 1073
344.09155 841
344.56879 178
344.57953 189
345.0506 2236
346.05432 377
361.02792 192
361.11646 844
Name: AA-BD2 linear
PrecursorMZ: 313.1624
PrecursorType: [M+Na]+
IonMode: Positive
Formula: C14H26O6
SMILES: OCCCCOC(=O)CCCCC(=O)OCCCCO
InChI: 
InChIKey: MIPAMDMBINCYQD-UHFFFAOYSA-N
RetentionTime: NA
CCS: 
CollisionEnergy: 10-30 eV
InstrumentType: UPLC-QTOF-MS
Comment: Oligomers tentatively identified (not confirmed by standards) by David; PI: Cristina Nerin; Data collector: QiZhi Su, GUIA, University of Zaragoza, Spain; Collision energy: 20-40 V; Instrument: Waters HPLC-QTOF-MS (Xevo G2 QTof); Ionization: ESI; Deconvoluted by MS-DIAL
Num peaks: 67
55.05344 543
55.06021 543
59.05064 79
73.06248 743
73.06629 750
83.04936 789
89.00467 86
101.05976 2093
102.0588 105
102.06397 105
102.07138 106
111.04542 2647
112.05013 102
115.07307 137
115.07867 140
120.98811 80
123.00936 473
126.99834 227
127.00823 261
127.01893 265
129.02141 510
129.05032 2957
129.05836 2968
129.07787 302
130.05826 252
130.0667 249
147.05185 260
147.05925 252
147.06955 253
151.00056 101
157.04601 81
157.05217 81
167.0006 638
167.02527 82
171.00771 244
171.02623 297
185.01132 417
185.03835 138
189.03406 363
199.09291 495
199.10828 509
201.02986 565
201.04019 566
201.04936 430
201.10808 130
201.11845 115
201.1308 99
239.0601 1420
239.07014 1388
240.05659 125
240.0688 134
241.05463 130
241.0786 381
241.09839 455
241.11508 255
243.08159 1508
244.07622 159
244.09119 172
244.10606 85
257.07007 2698
258.07141 321
258.08395 287
259.07294 82
259.08292 82
273.0408 151
273.05133 123
313.16263 7802
Name: Cylic PLA n=14
PrecursorMZ: 1009.305
PrecursorType: [M+H]+
IonMode: Positive
Formula: C42H56O28
SMILES: CC1OC(=O)C(C)OC(=O)C(C)OC(=O)C(C)OC(=O)C(C)OC(=O)C(C)OC(=O)C(C)OC(=O)C(C)OC(=O)C(C)OC(=O)C(C)OC(=O)C(C)OC(=O)C(C)OC(=O)C(C)OC(=O)C(C)OC1=O
InChI: 
InChIKey: KIHFWSOWHKGPAC-UHFFFAOYNA-N
RetentionTime: NA
CCS: 
CollisionEnergy: 10-30 eV
InstrumentType: UPLC-QTOF-MS
Comment: Oligomers tentatively identified (not confirmed by standards) by David; PI: Cristina Nerin; Data collector: QiZhi Su, GUIA, University of Zaragoza, Spain; Collision energy: 20-40 V; Instrument: Waters HPLC-QTOF-MS (Xevo G2 QTof); Ionization: ESI; Deconvoluted by MS-DIAL
Num peaks: 87
60.08019 714
127.03858 902
145.04997 2145
173.0117 781
199.04175 1044
199.06023 764
199.06906 638
271.07425 1337
271.08768 1361
280.03818 959
308.056 941
308.07089 1073
316.03711 1445
316.05627 1250
343.10019 1362
344.07803 1207
352.06165 958
353.06888 611
380.08389 1496
380.58664 669
415.12482 1096
416.09613 1065
416.60135 720
433.13803 1713
452.09448 1592
452.11102 1510
471.08359 550
487.1326 819
489.0925 1733
505.15686 3505
506.15216 781
516.1405 4150
516.63861 1881
517.14087 1087
524.12842 52337
524.63104 23898
525.12994 8469
525.63519 2855
526.12653 1423
527.13666 677
531.60419 662
531.62384 702
532.11707 4149
532.61505 2208
533.10327 635
533.12335 1363
533.62433 606
534.10919 825
534.12531 616
535.19244 1891
559.16382 542
561.11566 1737
577.17731 9822
578.18164 2277
621.1806 546
621.20746 1403
633.13855 1045
649.19843 22305
650.20197 5721
651.20612 1378
693.2207 2568
694.22937 580
705.17377 710
721.21875 32765
722.22198 10516
723.20538 704
723.23175 2415
765.24701 2747
766.25378 891
793.23871 11563
794.24188 5285
795.22528 702
837.26721 1930
865.26202 26537
866.26636 9348
867.26593 2944
868.27692 552
896.30133 1961
901.24078 1758
901.27643 2618
902.25555 829
909.29468 944
937.28461 15183
938.28729 5854
939.29651 2394
981.31311 576
1009.30597 18423
Name: Cylic PLA n=14
PrecursorMZ: 1026.332
PrecursorType: [M+NH4]+
IonMode: Positive
Formula: C42H56O28
SMILES: CC1OC(=O)C(C)OC(=O)C(C)OC(=O)C(C)OC(=O)C(C)OC(=O)C(C)OC(=O)C(C)OC(=O)C(C)OC(=O)C(C)OC(=O)C(C)OC(=O)C(C)OC(=O)C(C)OC(=O)C(C)OC(=O)C(C)OC1=O
InChI: 
InChIKey: KIHFWSOWHKGPAC-UHFFFAOYNA-N
RetentionTime: NA
CCS: 
CollisionEnergy: 10-30 eV
InstrumentType: UPLC-QTOF-MS
Comment: Oligomers tentatively identified (not confirmed by standards) by David; PI: Cristina Nerin; Data collector: QiZhi Su, GUIA, University of Zaragoza, Spain; Collision energy: 20-40 V; Instrument: Waters HPLC-QTOF-MS (Xevo G2 QTof); Ionization: ESI; Deconvoluted by MS-DIAL
Num peaks: 49
60.08019 2703
145.04997 7601
173.0117 1946
352.06165 1585
380.08389 1512
416.09613 1564
433.13803 1713
452.09448 1592
452.11102 1510
489.0925 1733
505.15686 3505
516.1405 4387
516.63861 2211
524.12842 52348
524.63104 24478
525.12994 9176
525.63519 2855
526.12653 1582
532.11707 4679
532.61505 2214
533.12335 1558
535.19244 1891
561.11566 1963
577.17731 9822
578.18164 2257
633.13855 1521
649.19843 22343
650.20197 5811
693.2207 2598
721.21875 33196
722.22198 10645
723.23175 2434
765.24701 2772
793.23871 11351
794.24188 6506
795.25159 3751
837.26721 1925
865.26202 26506
866.26636 9355
867.26593 2944
896.30133 1653
901.24078 1767
901.27643 2600
937.28461 15105
938.28729 5820
939.29651 2400
1009.30597 8683
1010.30487 4065
1026.33105 150366
Name: Cylic PLA n=14
PrecursorMZ: 1031.287
PrecursorType: [M+Na]+
IonMode: Positive
Formula: C42H56O28
SMILES: CC1OC(=O)C(C)OC(=O)C(C)OC(=O)C(C)OC(=O)C(C)OC(=O)C(C)OC(=O)C(C)OC(=O)C(C)OC(=O)C(C)OC(=O)C(C)OC(=O)C(C)OC(=O)C(C)OC(=O)C(C)OC(=O)C(C)OC1=O
InChI: 
InChIKey: KIHFWSOWHKGPAC-UHFFFAOYNA-N
RetentionTime: NA
CCS: 
CollisionEnergy: 10-30 eV
InstrumentType: UPLC-QTOF-MS
Comment: Oligomers tentatively identified (not confirmed by standards) by David; PI: Cristina Nerin; Data collector: QiZhi Su, GUIA, University of Zaragoza, Spain; Collision energy: 20-40 V; Instrument: Waters HPLC-QTOF-MS (Xevo G2 QTof); Ionization: ESI; Deconvoluted by MS-DIAL
Num peaks: 36
60.08019 2956
145.04997 17574
173.0117 4300
505.15686 3505
516.1405 4391
516.63861 2382
524.12842 52338
524.63104 24520
525.12994 9179
525.63519 2855
532.11707 4679
577.17731 9822
649.19843 22343
650.20197 5789
693.2207 2683
721.21875 33934
722.22198 10899
723.23175 2429
765.24701 2831
793.23871 36509
794.24188 12224
795.25159 3809
865.26202 26506
866.26636 9355
867.26593 3031
901.27643 2328
937.28461 14972
938.28729 5751
939.29651 2385
1009.30597 8643
1010.30487 4065
1026.33105 143149
1027.33435 65261
1028.3374 22429
1029.34692 3291
1031.28674 232246
Name: Cylic PLA n=14
PrecursorMZ: 1047.262
PrecursorType: [M+K]+
IonMode: Positive
Formula: C42H56O28
SMILES: CC1OC(=O)C(C)OC(=O)C(C)OC(=O)C(C)OC(=O)C(C)OC(=O)C(C)OC(=O)C(C)OC(=O)C(C)OC(=O)C(C)OC(=O)C(C)OC(=O)C(C)OC(=O)C(C)OC(=O)C(C)OC(=O)C(C)OC1=O
InChI: 
InChIKey: KIHFWSOWHKGPAC-UHFFFAOYNA-N
RetentionTime: NA
CCS: 
CollisionEnergy: 10-30 eV
InstrumentType: UPLC-QTOF-MS
Comment: Oligomers tentatively identified (not confirmed by standards) by David; PI: Cristina Nerin; Data collector: QiZhi Su, GUIA, University of Zaragoza, Spain; Collision energy: 20-40 V; Instrument: Waters HPLC-QTOF-MS (Xevo G2 QTof); Ionization: ESI; Deconvoluted by MS-DIAL
Num peaks: 41
60.08021 2956
179.10696 5731
235.17014 8654
505.1554 3505
516.14124 4391
516.64117 2686
524.12939 52341
524.62994 24520
525.1322 9179
525.63068 2855
532.09918 3923
532.11609 4668
560.13916 2371
561.10095 2425
577.17841 9763
649.19653 22343
650.2027 5789
693.22015 2683
721.22015 33934
722.22241 10899
723.22467 3070
765.25183 2842
793.24127 36509
794.2431 12224
795.2428 3981
865.26068 26506
866.26477 9355
867.2666 3031
937.28217 14855
938.28424 5728
1009.30371 8643
1010.30981 4276
1026.33142 143153
1027.33447 65261
1028.33765 22429
1029.33545 4413
1031.28662 223294
1032.29077 101367
1033.29053 34039
1034.29773 7128
1047.26245 11447
Name: Cylic PLA n=5
PrecursorMZ: 378.1394
PrecursorType: [M+NH4]+
IonMode: Positive
Formula: C15H20O10
SMILES: CC1OC(=O)C(C)OC(=O)C(C)OC(=O)C(C)OC(=O)C(C)OC1=O
InChI: 
InChIKey: KPRXDILNGYQRLA-UHFFFAOYNA-N
RetentionTime: NA
CCS: 
CollisionEnergy: 10-30 eV
InstrumentType: UPLC-QTOF-MS
Comment: Oligomers tentatively identified (not confirmed by standards) by David; PI: Cristina Nerin; Data collector: QiZhi Su, GUIA, University of Zaragoza, Spain; Collision energy: 20-40 V; Instrument: Waters HPLC-QTOF-MS (Xevo G2 QTof); Ionization: ESI; Deconvoluted by MS-DIAL
Num peaks: 144
55.01597 620
55.02106 620
73.04211 170
89.05975 5443
90.06139 445
91.05009 215
91.05678 200
100.98304 610
100.99115 617
100.99648 493
101.00648 468
105.05629 207
105.06027 216
105.07288 229
110.97127 138
110.97868 143
110.99096 170
116.00771 350
116.01924 359
116.99821 143
117.00827 216
117.01653 227
121.08123 117
127.03501 446
127.04345 452
127.0536 403
128.01323 229
139.02386 240
139.03714 288
144.96228 123
144.97102 129
144.98831 173
145.0493 7668
146.05367 517
155.00034 244
155.0184 334
159.02275 121
159.03433 213
160.99136 196
161.00909 189
167.01593 130
167.03091 170
173.00107 178
173.0161 244
173.0303 531
182.98824 117
189.07861 119
199.02849 168
200.02655 694
200.0381 703
201.00731 301
201.05994 242
203.0455 142
203.05649 204
205.02739 258
208.01678 145
208.02599 194
208.03792 154
217.0296 162
217.0706 11432
218.07057 1039
218.08231 1042
219.06778 238
219.08154 202
227.02066 352
227.03029 234
227.05286 119
228.04822 117
230.03151 809
230.52835 218
230.53947 221
230.54701 193
231.02974 454
231.04549 419
233.00905 172
239.03883 279
239.05818 300
244.01993 122
244.02873 178
244.05255 166
245.01373 488
245.02994 702
245.0412 730
261.00452 217
261.01993 157
261.02786 175
261.0965 295
261.10712 298
271.0036 147
271.01556 126
271.04941 216
271.06696 141
272.0451 129
273.02231 1175
273.03336 1197
275.06857 165
289.00668 351
289.0145 346
289.09277 3069
290.08401 382
290.10284 407
291.09442 173
299.04892 371
300.02966 121
300.04028 116
301.00943 202
301.02859 193
301.06281 161
301.07895 216
308.06122 718
308.55737 218
308.57608 180
312.05557 147
312.07446 181
316.31079 219
316.32721 180
317.05209 253
317.06949 233
327.03854 1108
333.02625 148
333.04089 138
333.33566 126
342.99899 130
343.02112 116
344.06 698
344.08636 996
344.56982 178
345.04529 2240
345.0611 2143
346.04285 357
346.06454 344
361.01343 178
361.03183 165
361.10892 677
361.12268 727
367.10553 164
367.1308 545
372.08524 359
372.10913 362
372.59418 157
373.09409 193
373.1109 165
378.12128 187
378.14209 1002
Name: Cylic PLA n=15
PrecursorMZ: 1098.353
PrecursorType: [M+NH4]+
IonMode: Positive
Formula: C45H60O30
SMILES: CC1OC(=O)C(C)OC(=O)C(C)OC(=O)C(C)OC(=O)C(C)OC(=O)C(C)OC(=O)C(C)OC(=O)C(C)OC(=O)C(C)OC(=O)C(C)OC(=O)C(C)OC(=O)C(C)OC(=O)C(C)OC(=O)C(C)OC(=O)C(C)OC1=O
InChI: 
InChIKey: KYXQTLQEZKTPQK-UHFFFAOYNA-N
RetentionTime: NA
CCS: 
CollisionEnergy: 10-30 eV
InstrumentType: UPLC-QTOF-MS
Comment: Oligomers tentatively identified (not confirmed by standards) by David; PI: Cristina Nerin; Data collector: QiZhi Su, GUIA, University of Zaragoza, Spain; Collision energy: 20-40 V; Instrument: Waters HPLC-QTOF-MS (Xevo G2 QTof); Ionization: ESI; Deconvoluted by MS-DIAL
Num peaks: 40
60.0803 2080
473.10834 9570
533.60083 2470
552.15015 3141
552.64996 2200
560.13843 39256
560.63885 18861
561.13501 8968
561.64429 2299
562.14801 1253
568.12616 3495
568.6283 1681
569.11383 1391
569.13214 1383
571.19995 1637
649.20068 2673
705.14288 1170
721.22028 5974
722.22528 2555
793.24005 19547
794.24597 6522
795.22473 1251
795.25372 2056
837.2652 2316
838.29254 2188
843.25073 2583
865.25983 25193
866.26318 9472
867.27148 2614
909.2757 1312
909.30359 1344
937.28168 20759
938.28406 8609
939.28955 2293
981.30316 1255
1009.30347 14619
1010.30994 6953
1011.31439 3080
1081.32715 4378
1098.35291 111809
Name: Cylic PLA n=15
PrecursorMZ: 1103.308
PrecursorType: [M+Na]+
IonMode: Positive
Formula: C45H60O30
SMILES: CC1OC(=O)C(C)OC(=O)C(C)OC(=O)C(C)OC(=O)C(C)OC(=O)C(C)OC(=O)C(C)OC(=O)C(C)OC(=O)C(C)OC(=O)C(C)OC(=O)C(C)OC(=O)C(C)OC(=O)C(C)OC(=O)C(C)OC(=O)C(C)OC1=O
InChI: 
InChIKey: KYXQTLQEZKTPQK-UHFFFAOYNA-N
RetentionTime: NA
CCS: 
CollisionEnergy: 10-30 eV
InstrumentType: UPLC-QTOF-MS
Comment: Oligomers tentatively identified (not confirmed by standards) by David; PI: Cristina Nerin; Data collector: QiZhi Su, GUIA, University of Zaragoza, Spain; Collision energy: 20-40 V; Instrument: Waters HPLC-QTOF-MS (Xevo G2 QTof); Ionization: ESI; Deconvoluted by MS-DIAL
Num peaks: 34
60.0803 2080
473.10834 15049
552.15015 3140
552.64996 2203
560.13843 39256
560.63885 18857
561.13501 8968
561.64429 2301
568.12616 3488
596.15308 2310
649.20068 2673
721.22028 5974
722.22528 2555
793.24005 19547
794.24597 6522
795.25372 2056
837.2652 2316
838.29254 2200
843.25073 2602
865.25983 25193
866.26318 9472
867.27148 2614
937.28168 20759
938.28406 8609
939.28955 2293
1009.30347 14538
1010.30994 6916
1011.31439 3074
1081.32715 3968
1082.32532 2293
1098.35291 105108
1099.35583 52541
1100.35779 11600
1103.30835 187618
Name: Cylic PLA n=15
PrecursorMZ: 1119.284
PrecursorType: [M+K]+
IonMode: Positive
Formula: C45H60O30
SMILES: CC1OC(=O)C(C)OC(=O)C(C)OC(=O)C(C)OC(=O)C(C)OC(=O)C(C)OC(=O)C(C)OC(=O)C(C)OC(=O)C(C)OC(=O)C(C)OC(=O)C(C)OC(=O)C(C)OC(=O)C(C)OC(=O)C(C)OC(=O)C(C)OC1=O
InChI: 
InChIKey: KYXQTLQEZKTPQK-UHFFFAOYNA-N
RetentionTime: NA
CCS: 
CollisionEnergy: 10-30 eV
InstrumentType: UPLC-QTOF-MS
Comment: Oligomers tentatively identified (not confirmed by standards) by David; PI: Cristina Nerin; Data collector: QiZhi Su, GUIA, University of Zaragoza, Spain; Collision energy: 20-40 V; Instrument: Waters HPLC-QTOF-MS (Xevo G2 QTof); Ionization: ESI; Deconvoluted by MS-DIAL
Num peaks: 38
60.0803 2080
473.10834 15049
552.15015 3140
552.64996 2203
560.13843 39256
560.63885 18857
561.13501 8968
561.64429 2301
568.12616 3488
596.15308 2310
649.20068 2673
721.22028 5974
722.22528 2555
793.24005 19547
794.24597 6522
795.25372 2056
837.2652 2316
838.29254 2200
843.25073 2602
865.25983 25193
866.26318 9472
867.27148 2614
937.28168 20759
938.28406 8609
939.28955 2293
1009.30347 14538
1010.30994 6916
1011.31439 3074
1081.32715 3968
1082.32532 2293
1098.35291 105108
1099.35583 52541
1100.35779 11600
1103.30835 177995
1104.31042 77661
1105.31433 25241
1106.31714 6775
1119.28528 10989
Name: Cylic PLA n=15
PrecursorMZ: 1081.326
PrecursorType: [M+H]+
IonMode: Positive
Formula: C45H60O30
SMILES: CC1OC(=O)C(C)OC(=O)C(C)OC(=O)C(C)OC(=O)C(C)OC(=O)C(C)OC(=O)C(C)OC(=O)C(C)OC(=O)C(C)OC(=O)C(C)OC(=O)C(C)OC(=O)C(C)OC(=O)C(C)OC(=O)C(C)OC(=O)C(C)OC1=O
InChI: 
InChIKey: KYXQTLQEZKTPQK-UHFFFAOYNA-N
RetentionTime: NA
CCS: 
CollisionEnergy: 10-30 eV
InstrumentType: UPLC-QTOF-MS
Comment: Oligomers tentatively identified (not confirmed by standards) by David; PI: Cristina Nerin; Data collector: QiZhi Su, GUIA, University of Zaragoza, Spain; Collision energy: 20-40 V; Instrument: Waters HPLC-QTOF-MS (Xevo G2 QTof); Ionization: ESI; Deconvoluted by MS-DIAL
Num peaks: 111
54.9993 469
60.06542 1503
60.08069 1989
125.0938 409
125.10134 413
127.02293 499
171.08528 690
171.10062 664
171.10852 619
171.11542 682
179.09619 416
179.11531 398
193.12404 586
199.05806 641
199.0735 675
235.16675 482
235.17979 517
249.1691 458
249.18924 587
271.08359 529
271.09521 492
316.05035 734
316.06976 889
343.10052 447
352.06055 582
352.07639 631
380.08524 413
380.09946 581
380.59061 449
388.06897 793
388.08994 476
416.09933 878
452.1004 653
452.1163 597
452.61435 442
488.11301 532
552.13428 2838
552.15387 3178
552.65588 2207
553.14154 1015
553.1604 1126
559.17175 420
560.13806 39258
560.64154 18820
561.11615 1484
561.14386 8927
561.63361 2054
561.65729 1821
562.13458 670
562.15826 546
563.1499 999
563.64886 581
567.6261 486
568.12787 3495
568.6239 1600
568.65082 681
569.12323 1491
569.63428 470
569.65027 413
570.12701 509
571.19293 1539
571.21857 711
571.69678 511
611.31226 520
627.28613 397
631.18695 519
633.1322 1244
649.19989 2747
650.19873 421
693.21979 491
705.1557 1252
721.21857 6171
722.22491 2746
723.21667 524
723.24225 403
763.72522 535
765.24622 1615
777.16669 457
780.28857 410
785.22675 428
785.24756 894
793.24023 19591
794.24353 6462
795.23944 1968
837.26404 2174
838.28851 2158
843.2356 2515
843.27069 2214
844.2536 636
865.26227 23869
866.26343 8838
867.27045 2545
868.26636 832
909.289 1705
910.28552 742
937.28326 17963
938.28772 7936
939.29224 2110
940.30511 519
968.3172 715
968.35614 427
969.30804 564
969.33472 525
973.27661 2693
973.32404 1124
974.24988 446
981.2995 1181
1009.30573 9625
1010.30634 5165
1011.31201 2806
1081.32629 12554
Name: Cylic PLA n=5
PrecursorMZ: 383.0946
PrecursorType: [M+Na]+
IonMode: Positive
Formula: C15H20O10
SMILES: CC1OC(=O)C(C)OC(=O)C(C)OC(=O)C(C)OC(=O)C(C)OC1=O
InChI: 
InChIKey: KPRXDILNGYQRLA-UHFFFAOYNA-N
RetentionTime: NA
CCS: 
CollisionEnergy: 10-30 eV
InstrumentType: UPLC-QTOF-MS
Comment: Oligomers tentatively identified (not confirmed by standards) by David; PI: Cristina Nerin; Data collector: QiZhi Su, GUIA, University of Zaragoza, Spain; Collision energy: 20-40 V; Instrument: Waters HPLC-QTOF-MS (Xevo G2 QTof); Ionization: ESI; Deconvoluted by MS-DIAL
Num peaks: 52
55.01597 620
55.02106 620
89.05975 10885
90.06139 541
100.98304 839
100.99115 820
100.99648 816
101.00648 752
110.97127 655
110.97868 651
110.99096 658
128.98613 669
145.0493 10929
146.05367 760
155.00034 494
164.01927 791
164.03323 784
173.00107 789
173.0161 769
173.0303 685
200.02655 1000
200.0381 1017
201.00731 480
217.0706 11460
218.07057 1074
218.08231 1081
227.02066 595
230.03151 810
231.02974 461
245.01373 528
245.02994 702
245.0412 730
273.02231 1475
273.03336 1454
289.09277 3538
299.04892 511
308.06122 718
327.03854 1110
344.06 698
344.08636 996
345.04529 2240
345.0611 2143
361.10892 687
361.12268 727
367.1308 538
378.12128 729
378.14209 1294
380.08466 5659
380.58585 2326
380.60779 1033
381.08978 833
383.09515 45508
Name: Cylic PLA n=16
PrecursorMZ: 1191.304
PrecursorType: [M+K]+
IonMode: Positive
Formula: C48H64O32
SMILES: CC1OC(=O)C(C)OC(=O)C(C)OC(=O)C(C)OC(=O)C(C)OC(=O)C(C)OC(=O)C(C)OC(=O)C(C)OC(=O)C(C)OC(=O)C(C)OC(=O)C(C)OC(=O)C(C)OC(=O)C(C)OC(=O)C(C)OC(=O)C(C)OC(=O)C(C)OC1=O
InChI: 
InChIKey: AFWYQGXPDMFCMT-UHFFFAOYNA-N
RetentionTime: NA
CCS: 
CollisionEnergy: 10-30 eV
InstrumentType: UPLC-QTOF-MS
Comment: Oligomers tentatively identified (not confirmed by standards) by David; PI: Cristina Nerin; Data collector: QiZhi Su, GUIA, University of Zaragoza, Spain; Collision energy: 20-40 V; Instrument: Waters HPLC-QTOF-MS (Xevo G2 QTof); Ionization: ESI; Deconvoluted by MS-DIAL
Num peaks: 47
121.0276 1448
121.03745 1456
149.02278 3069
149.03284 3072
545.16772 1363
560.14117 1591
588.15955 2254
588.65967 1947
596.14838 34729
596.65033 18975
597.15436 6491
597.65527 2241
599.15881 1720
604.13556 2984
604.63593 1663
865.26093 12456
866.2616 4972
909.29266 1285
910.34332 1397
916.27032 1460
937.28339 18340
938.28497 7503
939.29333 2298
981.30066 1287
1009.30408 16160
1010.30426 7142
1011.30621 1864
1011.33081 1468
1081.32678 10211
1082.33203 4947
1083.33435 1506
1098.33313 1547
1098.37048 2768
1099.36548 1373
1103.31079 4983
1104.32495 2596
1153.34521 4508
1154.34717 1851
1170.37476 71353
1171.37891 39617
1172.38159 14360
1173.38464 3253
1175.33154 125565
1176.33362 67052
1177.33716 23675
1178.34155 5394
1191.30444 8217
Name: Cylic PLA n=16
PrecursorMZ: 1170.374
PrecursorType: [M+NH4]+
IonMode: Positive
Formula: C48H64O32
SMILES: CC1OC(=O)C(C)OC(=O)C(C)OC(=O)C(C)OC(=O)C(C)OC(=O)C(C)OC(=O)C(C)OC(=O)C(C)OC(=O)C(C)OC(=O)C(C)OC(=O)C(C)OC(=O)C(C)OC(=O)C(C)OC(=O)C(C)OC(=O)C(C)OC(=O)C(C)OC1=O
InChI: 
InChIKey: AFWYQGXPDMFCMT-UHFFFAOYNA-N
RetentionTime: NA
CCS: 
CollisionEnergy: 10-30 eV
InstrumentType: UPLC-QTOF-MS
Comment: Oligomers tentatively identified (not confirmed by standards) by David; PI: Cristina Nerin; Data collector: QiZhi Su, GUIA, University of Zaragoza, Spain; Collision energy: 20-40 V; Instrument: Waters HPLC-QTOF-MS (Xevo G2 QTof); Ionization: ESI; Deconvoluted by MS-DIAL
Num peaks: 56
65.03864 1260
65.04754 1269
93.03246 1355
121.02695 1590
121.03872 1618
149.02251 3209
163.05902 1060
273.02933 2389
273.04044 2439
289.09195 976
345.04987 1904
417.07126 1007
588.164 2806
588.66339 2093
589.14484 822
589.17889 884
596.14868 36907
596.65088 20108
597.15015 7723
597.63147 811
597.65485 2441
598.1449 1277
604.13007 3073
604.15912 925
604.6272 1685
604.64648 1703
605.13354 1360
607.20129 1256
607.22748 811
607.7113 996
632.15222 2622
632.65515 1459
649.19751 1031
793.24036 1913
794.24475 805
865.26166 3029
866.26477 2829
909.30859 985
916.27832 3014
937.28259 16290
938.28479 6216
939.29022 2163
981.29163 848
1009.30646 15724
1010.3078 7311
1011.31592 2263
1040.34619 1952
1041.34424 1042
1046.31848 894
1053.32825 1006
1081.3252 12229
1082.32642 5831
1083.32947 1308
1153.349 5435
1154.34753 2655
1170.37512 80301
Name: Cylic PLA n=16
PrecursorMZ: 1175.331
PrecursorType: [M+Na]+
IonMode: Positive
Formula: C48H64O32
SMILES: CC1OC(=O)C(C)OC(=O)C(C)OC(=O)C(C)OC(=O)C(C)OC(=O)C(C)OC(=O)C(C)OC(=O)C(C)OC(=O)C(C)OC(=O)C(C)OC(=O)C(C)OC(=O)C(C)OC(=O)C(C)OC(=O)C(C)OC(=O)C(C)OC(=O)C(C)OC1=O
InChI: 
InChIKey: AFWYQGXPDMFCMT-UHFFFAOYNA-N
RetentionTime: NA
CCS: 
CollisionEnergy: 10-30 eV
InstrumentType: UPLC-QTOF-MS
Comment: Oligomers tentatively identified (not confirmed by standards) by David; PI: Cristina Nerin; Data collector: QiZhi Su, GUIA, University of Zaragoza, Spain; Collision energy: 20-40 V; Instrument: Waters HPLC-QTOF-MS (Xevo G2 QTof); Ionization: ESI; Deconvoluted by MS-DIAL
Num peaks: 35
93.03246 1379
121.02695 1557
121.03872 1582
149.02251 3223
273.02933 2179
273.04044 2242
345.04987 3151
417.07126 2357
473.1254 1957
588.164 2576
588.66339 1951
596.14868 34724
596.65088 18996
597.15015 7174
597.65485 2241
604.13007 2989
604.6272 1500
604.64648 1598
625.15656 1607
866.26477 2592
916.27832 2874
937.28259 15231
938.28479 5869
1009.30646 4747
1010.3078 6506
1040.34619 1789
1081.3252 10598
1112.36523 2328
1153.349 3772
1154.34753 1910
1170.37512 73433
1171.37817 39634
1172.37732 14378
1173.38562 3252
1175.32996 129002
Name: Cylic PLA n=5
PrecursorMZ: 399.0695
PrecursorType: [M+K]+
IonMode: Positive
Formula: C15H20O10
SMILES: CC1OC(=O)C(C)OC(=O)C(C)OC(=O)C(C)OC(=O)C(C)OC1=O
InChI: 
InChIKey: KPRXDILNGYQRLA-UHFFFAOYNA-N
RetentionTime: NA
CCS: 
CollisionEnergy: 10-30 eV
InstrumentType: UPLC-QTOF-MS
Comment: Oligomers tentatively identified (not confirmed by standards) by David; PI: Cristina Nerin; Data collector: QiZhi Su, GUIA, University of Zaragoza, Spain; Collision energy: 20-40 V; Instrument: Waters HPLC-QTOF-MS (Xevo G2 QTof); Ionization: ESI; Deconvoluted by MS-DIAL
Num peaks: 54
55.01597 620
55.02106 620
89.05975 10885
90.06139 541
100.98304 839
100.99115 820
100.99648 816
101.00648 752
110.97127 655
110.97868 651
110.99096 658
128.98613 669
145.0493 10929
146.05367 760
155.00034 494
164.01927 791
164.03323 784
173.00107 789
173.0161 769
173.0303 685
200.02655 1000
200.0381 1017
201.00731 480
217.0706 11460
218.07057 1074
218.08231 1081
227.02066 595
230.03151 810
231.02974 461
245.01373 528
245.02994 702
245.0412 730
273.02231 1475
273.03336 1454
289.09277 3538
299.04892 511
308.06122 718
327.03854 1110
344.06 698
344.08636 996
345.04529 2240
345.0611 2143
361.10892 687
361.12268 727
367.1308 538
378.12128 729
378.14209 1294
380.08466 5659
380.58585 2326
380.60779 1033
381.08978 833
383.09515 45256
384.09921 2549
385.10141 729
Name: Cylic PLA n=16
PrecursorMZ: 1153.35
PrecursorType: [M+H]+
IonMode: Positive
Formula: C48H64O32
SMILES: CC1OC(=O)C(C)OC(=O)C(C)OC(=O)C(C)OC(=O)C(C)OC(=O)C(C)OC(=O)C(C)OC(=O)C(C)OC(=O)C(C)OC(=O)C(C)OC(=O)C(C)OC(=O)C(C)OC(=O)C(C)OC(=O)C(C)OC(=O)C(C)OC(=O)C(C)OC1=O
InChI: 
InChIKey: AFWYQGXPDMFCMT-UHFFFAOYNA-N
RetentionTime: NA
CCS: 
CollisionEnergy: 10-30 eV
InstrumentType: UPLC-QTOF-MS
Comment: Oligomers tentatively identified (not confirmed by standards) by David; PI: Cristina Nerin; Data collector: QiZhi Su, GUIA, University of Zaragoza, Spain; Collision energy: 20-40 V; Instrument: Waters HPLC-QTOF-MS (Xevo G2 QTof); Ionization: ESI; Deconvoluted by MS-DIAL
Num peaks: 107
65.02853 1187
65.03753 1189
89.04087 2988
89.05931 888
91.01862 562
91.02457 718
93.03385 1198
93.04938 1368
121.02641 1319
121.03233 1322
127.05717 546
149.02382 2855
157.11038 484
163.03775 450
163.05991 626
217.07031 1548
218.05341 436
218.07338 378
261.02505 415
273.02951 2389
289.0791 859
289.0903 622
301.14041 447
345.0491 2991
346.05661 451
380.07675 399
417.06927 1626
418.07886 629
424.07639 576
424.09402 568
473.12637 462
475.10803 418
490.07928 731
505.07361 394
505.15799 603
527.25238 438
531.6272 521
546.14258 717
546.16614 757
560.15851 379
561.11163 1346
588.15985 2218
588.64777 1505
588.67267 1635
589.14709 629
589.19391 377
589.67578 482
596.14795 36904
596.65094 19710
597.15033 5839
597.64612 2396
597.66785 1833
598.13013 811
598.15033 1166
598.63782 451
598.66351 516
599.13782 623
604.1189 1964
604.14551 2890
604.64398 1246
605.13165 1362
605.16168 508
605.63715 655
605.65417 438
606.11682 462
606.13562 654
606.15228 399
607.1839 493
607.21198 1298
607.70172 889
607.72156 996
632.16046 1857
632.66364 980
633.15662 586
649.19965 1027
705.14349 837
705.16278 657
765.27234 499
793.23792 1957
794.24341 771
794.2738 383
837.27118 748
865.25952 1885
866.26282 2388
867.25854 426
911.29376 525
916.27917 2003
937.28052 15590
938.28424 6327
939.28442 2185
940.23059 408
981.28394 795
1009.30225 15116
1010.30823 7138
1011.30164 1806
1012.30945 457
1040.36206 1743
1041.34363 1041
1045.31116 632
1046.26526 475
1046.31079 612
1047.31592 447
1053.31665 984
1081.32129 11233
1082.32422 5298
1082.36218 589
1153.3512 11559
